*SPEF "ieee 1481-1999"
*DESIGN "digital_top"
*DATE "11:25:04 Tuesday August 25, 2026"
*VENDOR "The OpenROAD Project"
*PROGRAM "OpenROAD"
*VERSION "26Q1-1024-gdcf36133a"
*DESIGN_FLOW "NAME_SCOPE LOCAL" "PIN_CAP NONE"
*DIVIDER /
*DELIMITER :
*BUS_DELIMITER []
*T_UNIT 1 NS
*C_UNIT 1 PF
*R_UNIT 1 OHM
*L_UNIT 1 HENRY

*NAME_MAP
*3 cap_ctrl[0]
*4 cap_ctrl[1]
*5 cap_ctrl[2]
*6 clk
*7 comp_out
*8 en
*9 scl
*10 sda
*11 trigger_out
*12 _000_
*13 _001_
*14 _002_
*15 _003_
*16 _004_
*17 _005_
*18 _006_
*19 _007_
*20 _008_
*21 _009_
*22 _010_
*23 _011_
*24 _012_
*25 _013_
*26 _014_
*27 _015_
*28 _016_
*29 _017_
*30 _018_
*31 _019_
*32 _020_
*33 _021_
*34 _022_
*35 _023_
*36 _024_
*37 _025_
*38 _026_
*39 _027_
*40 _028_
*41 _029_
*42 _030_
*43 _031_
*44 _032_
*45 _033_
*46 _034_
*47 _035_
*48 _036_
*49 _037_
*50 _038_
*51 _039_
*52 _040_
*53 _041_
*54 _042_
*55 _043_
*56 _044_
*57 _045_
*58 _046_
*59 _047_
*60 _048_
*61 _049_
*62 _050_
*63 _051_
*64 _052_
*65 _053_
*66 _054_
*67 _055_
*68 _056_
*69 _057_
*70 _058_
*71 _059_
*72 _060_
*73 _061_
*74 _062_
*75 _063_
*76 _064_
*77 _065_
*78 _066_
*79 _067_
*80 _068_
*81 _069_
*82 _070_
*83 _071_
*84 _072_
*85 _073_
*86 _074_
*87 _075_
*88 _076_
*89 _077_
*90 _078_
*91 _079_
*92 _080_
*93 _081_
*94 _082_
*95 _083_
*96 _084_
*97 _085_
*98 _086_
*99 _087_
*100 _088_
*101 _089_
*102 _090_
*103 _091_
*104 _092_
*105 _093_
*106 _094_
*107 _095_
*108 _096_
*109 _097_
*110 _098_
*111 _099_
*112 _100_
*113 _101_
*114 _102_
*115 _103_
*116 _104_
*117 _105_
*118 _106_
*119 _107_
*120 _108_
*121 _109_
*122 _110_
*123 _111_
*124 _112_
*125 _113_
*126 _114_
*127 _115_
*128 _116_
*129 _117_
*130 _118_
*131 _119_
*132 _120_
*133 _121_
*134 _122_
*135 _123_
*136 _124_
*137 _125_
*138 _126_
*139 _127_
*140 _128_
*141 _129_
*142 _130_
*143 _131_
*144 _132_
*145 _133_
*146 _134_
*147 _135_
*148 _136_
*149 _137_
*150 _138_
*151 _139_
*152 _140_
*153 _141_
*154 _142_
*155 _143_
*156 _144_
*157 _145_
*158 _146_
*159 _147_
*160 _148_
*161 _149_
*162 _150_
*163 _151_
*164 _152_
*165 _153_
*166 _154_
*167 _155_
*168 _156_
*169 _157_
*170 _158_
*171 _159_
*172 _160_
*173 _161_
*174 _162_
*175 _163_
*176 _164_
*177 _165_
*178 _166_
*179 _167_
*180 _168_
*181 _169_
*182 _170_
*183 _171_
*184 _172_
*185 _173_
*186 _174_
*187 _175_
*188 _176_
*189 _177_
*190 _178_
*191 _179_
*192 _180_
*193 _181_
*194 _182_
*195 _183_
*196 _184_
*197 _185_
*198 _186_
*199 _187_
*200 _188_
*201 _189_
*202 _190_
*203 _191_
*204 _192_
*205 _193_
*206 _194_
*207 _195_
*208 _196_
*209 _197_
*210 _198_
*211 _199_
*212 _200_
*213 _201_
*214 _202_
*215 _203_
*216 _204_
*217 _205_
*218 _206_
*219 _207_
*220 _208_
*221 _209_
*222 _210_
*223 _211_
*224 _212_
*225 _213_
*226 _214_
*227 _215_
*228 _216_
*229 _217_
*230 _218_
*231 _219_
*232 _220_
*233 _221_
*234 _222_
*235 _223_
*236 _224_
*237 _225_
*238 _226_
*239 _227_
*240 _228_
*241 _229_
*242 _230_
*243 _231_
*244 _232_
*245 _233_
*246 _234_
*247 _235_
*248 _236_
*249 _237_
*250 _238_
*251 _239_
*252 _240_
*253 _241_
*254 _242_
*255 _243_
*256 _244_
*257 _245_
*258 _246_
*259 _247_
*260 _248_
*261 _249_
*262 _250_
*263 _251_
*264 _252_
*265 _253_
*266 _254_
*267 _255_
*268 _256_
*269 _257_
*270 _258_
*271 _259_
*272 _260_
*273 _261_
*274 _262_
*275 _263_
*276 _264_
*277 _265_
*278 _266_
*279 _267_
*280 _268_
*281 _269_
*282 _270_
*283 _271_
*284 _272_
*285 _273_
*286 _274_
*287 _275_
*288 _276_
*289 _277_
*290 _278_
*291 _279_
*292 clknet_0_clk
*293 clknet_3_0__leaf_clk
*294 clknet_3_1__leaf_clk
*295 clknet_3_2__leaf_clk
*296 clknet_3_3__leaf_clk
*297 clknet_3_4__leaf_clk
*298 clknet_3_5__leaf_clk
*299 clknet_3_6__leaf_clk
*300 clknet_3_7__leaf_clk
*301 net1
*302 net10
*303 net11
*304 net12
*305 net13
*306 net14
*307 net15
*308 net16
*309 net17
*310 net18
*311 net19
*312 net2
*313 net20
*314 net21
*315 net22
*316 net23
*317 net24
*318 net25
*319 net26
*320 net3
*321 net4
*322 net5
*323 net6
*324 net7
*325 net8
*326 net9
*327 sda_oe_w
*328 threshold_w\[0\]
*329 threshold_w\[1\]
*330 threshold_w\[2\]
*331 threshold_w\[3\]
*332 threshold_w\[4\]
*333 threshold_w\[5\]
*334 threshold_w\[6\]
*335 threshold_w\[7\]
*336 timeout_val_w\[0\]
*337 timeout_val_w\[1\]
*338 timeout_val_w\[2\]
*339 timeout_val_w\[3\]
*340 timeout_val_w\[4\]
*341 timeout_val_w\[5\]
*342 timeout_val_w\[6\]
*343 timeout_val_w\[7\]
*344 u_i2c_config\.bit_cnt\[0\]
*345 u_i2c_config\.bit_cnt\[1\]
*346 u_i2c_config\.bit_cnt\[2\]
*347 u_i2c_config\.bit_cnt\[3\]
*348 u_i2c_config\.parallel_data\[0\]
*349 u_i2c_config\.parallel_data\[1\]
*350 u_i2c_config\.parallel_data\[2\]
*351 u_i2c_config\.parallel_data\[3\]
*352 u_i2c_config\.parallel_data\[4\]
*353 u_i2c_config\.parallel_data\[5\]
*354 u_i2c_config\.parallel_data\[6\]
*355 u_i2c_config\.parallel_data\[7\]
*356 u_i2c_config\.reg_addr\[0\]
*357 u_i2c_config\.reg_addr\[1\]
*358 u_i2c_config\.scl_d1
*359 u_i2c_config\.scl_d2
*360 u_i2c_config\.sda_d1
*361 u_i2c_config\.sda_d2
*362 u_i2c_config\.state\[1\]
*363 u_i2c_config\.state\[2\]
*364 u_i2c_config\.state\[3\]
*365 u_i2c_config\.state\[4\]
*366 u_i2c_config\.state\[5\]
*367 u_i2c_config\.state\[6\]
*368 u_i2c_config\.write_en
*369 u_main_cnt\.count_reg\[0\]
*370 u_main_cnt\.count_reg\[1\]
*371 u_main_cnt\.count_reg\[2\]
*372 u_main_cnt\.count_reg\[3\]
*373 u_main_cnt\.count_reg\[4\]
*374 u_main_cnt\.count_reg\[5\]
*375 u_main_cnt\.count_reg\[6\]
*376 u_main_cnt\.count_reg\[7\]
*377 u_pulse_gen\.signal_d1
*378 u_pulse_gen\.signal_d2
*379 u_timeout_cnt\.timer_count\[0\]
*380 u_timeout_cnt\.timer_count\[1\]
*381 u_timeout_cnt\.timer_count\[2\]
*382 u_timeout_cnt\.timer_count\[3\]
*383 u_timeout_cnt\.timer_count\[4\]
*384 u_timeout_cnt\.timer_count\[5\]
*385 u_timeout_cnt\.timer_count\[6\]
*386 u_timeout_cnt\.timer_count\[7\]
*387 FILLER_0_10
*388 FILLER_0_104
*389 FILLER_0_12
*390 FILLER_0_138
*391 FILLER_0_2
*392 FILLER_0_33
*393 FILLER_0_36
*394 FILLER_0_52
*395 FILLER_0_60
*396 FILLER_0_66
*397 FILLER_0_86
*398 FILLER_10_141
*399 FILLER_10_149
*400 FILLER_10_151
*401 FILLER_10_156
*402 FILLER_10_164
*403 FILLER_10_187
*404 FILLER_10_2
*405 FILLER_10_23
*406 FILLER_10_31
*407 FILLER_10_45
*408 FILLER_10_53
*409 FILLER_10_93
*410 FILLER_11_117
*411 FILLER_11_133
*412 FILLER_11_137
*413 FILLER_11_139
*414 FILLER_11_176
*415 FILLER_11_18
*416 FILLER_11_185
*417 FILLER_11_187
*418 FILLER_11_2
*419 FILLER_11_26
*420 FILLER_11_33
*421 FILLER_11_35
*422 FILLER_11_72
*423 FILLER_11_80
*424 FILLER_12_101
*425 FILLER_12_107
*426 FILLER_12_115
*427 FILLER_12_12
*428 FILLER_12_131
*429 FILLER_12_16
*430 FILLER_12_182
*431 FILLER_12_186
*432 FILLER_12_2
*433 FILLER_12_25
*434 FILLER_12_29
*435 FILLER_12_37
*436 FILLER_12_41
*437 FILLER_12_93
*438 FILLER_13_142
*439 FILLER_13_157
*440 FILLER_13_165
*441 FILLER_13_167
*442 FILLER_13_175
*443 FILLER_13_183
*444 FILLER_13_187
*445 FILLER_13_19
*446 FILLER_13_2
*447 FILLER_13_35
*448 FILLER_13_39
*449 FILLER_13_46
*450 FILLER_13_62
*451 FILLER_13_87
*452 FILLER_13_95
*453 FILLER_13_97
*454 FILLER_14_103
*455 FILLER_14_172
*456 FILLER_14_174
*457 FILLER_14_177
*458 FILLER_14_179
*459 FILLER_14_18
*460 FILLER_14_184
*461 FILLER_14_20
*462 FILLER_14_31
*463 FILLER_14_45
*464 FILLER_14_77
*465 FILLER_14_94
*466 FILLER_15_108
*467 FILLER_15_110
*468 FILLER_15_49
*469 FILLER_15_65
*470 FILLER_16_104
*471 FILLER_16_107
*472 FILLER_16_115
*473 FILLER_16_127
*474 FILLER_16_159
*475 FILLER_16_161
*476 FILLER_16_177
*477 FILLER_16_185
*478 FILLER_16_187
*479 FILLER_16_2
*480 FILLER_16_37
*481 FILLER_16_6
*482 FILLER_16_79
*483 FILLER_16_87
*484 FILLER_16_91
*485 FILLER_16_96
*486 FILLER_17_101
*487 FILLER_17_137
*488 FILLER_17_139
*489 FILLER_17_142
*490 FILLER_17_174
*491 FILLER_17_182
*492 FILLER_17_186
*493 FILLER_17_2
*494 FILLER_17_34
*495 FILLER_17_72
*496 FILLER_17_76
*497 FILLER_17_93
*498 FILLER_18_102
*499 FILLER_18_104
*500 FILLER_18_121
*501 FILLER_18_123
*502 FILLER_18_164
*503 FILLER_18_166
*504 FILLER_18_17
*505 FILLER_18_187
*506 FILLER_18_2
*507 FILLER_18_33
*508 FILLER_18_45
*509 FILLER_18_61
*510 FILLER_18_65
*511 FILLER_18_67
*512 FILLER_19_100
*513 FILLER_19_116
*514 FILLER_19_124
*515 FILLER_19_128
*516 FILLER_19_130
*517 FILLER_19_139
*518 FILLER_19_142
*519 FILLER_19_146
*520 FILLER_19_152
*521 FILLER_19_38
*522 FILLER_19_55
*523 FILLER_19_63
*524 FILLER_19_68
*525 FILLER_19_72
*526 FILLER_19_74
*527 FILLER_19_88
*528 FILLER_1_132
*529 FILLER_1_142
*530 FILLER_1_153
*531 FILLER_1_72
*532 FILLER_1_76
*533 FILLER_1_85
*534 FILLER_1_93
*535 FILLER_20_103
*536 FILLER_20_107
*537 FILLER_20_109
*538 FILLER_20_123
*539 FILLER_20_131
*540 FILLER_20_149
*541 FILLER_20_155
*542 FILLER_20_159
*543 FILLER_20_161
*544 FILLER_20_172
*545 FILLER_20_174
*546 FILLER_20_177
*547 FILLER_20_179
*548 FILLER_20_184
*549 FILLER_20_19
*550 FILLER_20_2
*551 FILLER_20_21
*552 FILLER_20_26
*553 FILLER_20_43
*554 FILLER_20_59
*555 FILLER_20_99
*556 FILLER_21_10
*557 FILLER_21_138
*558 FILLER_21_142
*559 FILLER_21_158
*560 FILLER_21_166
*561 FILLER_21_168
*562 FILLER_21_185
*563 FILLER_21_187
*564 FILLER_21_2
*565 FILLER_21_20
*566 FILLER_21_32
*567 FILLER_21_44
*568 FILLER_21_60
*569 FILLER_21_68
*570 FILLER_21_72
*571 FILLER_22_102
*572 FILLER_22_104
*573 FILLER_22_157
*574 FILLER_22_173
*575 FILLER_22_177
*576 FILLER_22_185
*577 FILLER_22_187
*578 FILLER_22_2
*579 FILLER_22_34
*580 FILLER_22_49
*581 FILLER_22_85
*582 FILLER_22_94
*583 FILLER_23_131
*584 FILLER_23_133
*585 FILLER_23_150
*586 FILLER_23_152
*587 FILLER_23_18
*588 FILLER_23_186
*589 FILLER_23_2
*590 FILLER_23_22
*591 FILLER_23_27
*592 FILLER_23_64
*593 FILLER_23_68
*594 FILLER_23_72
*595 FILLER_23_77
*596 FILLER_23_81
*597 FILLER_23_99
*598 FILLER_24_100
*599 FILLER_24_107
*600 FILLER_24_11
*601 FILLER_24_114
*602 FILLER_24_122
*603 FILLER_24_130
*604 FILLER_24_132
*605 FILLER_24_171
*606 FILLER_24_177
*607 FILLER_24_185
*608 FILLER_24_187
*609 FILLER_24_2
*610 FILLER_24_37
*611 FILLER_24_4
*612 FILLER_24_45
*613 FILLER_24_98
*614 FILLER_25_136
*615 FILLER_25_142
*616 FILLER_25_150
*617 FILLER_25_155
*618 FILLER_25_159
*619 FILLER_25_161
*620 FILLER_25_166
*621 FILLER_25_174
*622 FILLER_25_176
*623 FILLER_25_183
*624 FILLER_25_187
*625 FILLER_25_48
*626 FILLER_25_64
*627 FILLER_25_68
*628 FILLER_25_72
*629 FILLER_25_74
*630 FILLER_25_90
*631 FILLER_26_10
*632 FILLER_26_107
*633 FILLER_26_115
*634 FILLER_26_119
*635 FILLER_26_165
*636 FILLER_26_173
*637 FILLER_26_18
*638 FILLER_26_185
*639 FILLER_26_187
*640 FILLER_26_2
*641 FILLER_26_37
*642 FILLER_26_41
*643 FILLER_26_92
*644 FILLER_26_96
*645 FILLER_27_114
*646 FILLER_27_130
*647 FILLER_27_142
*648 FILLER_27_158
*649 FILLER_27_166
*650 FILLER_27_185
*651 FILLER_27_187
*652 FILLER_27_38
*653 FILLER_27_72
*654 FILLER_27_76
*655 FILLER_27_82
*656 FILLER_28_10
*657 FILLER_28_101
*658 FILLER_28_107
*659 FILLER_28_111
*660 FILLER_28_12
*661 FILLER_28_121
*662 FILLER_28_129
*663 FILLER_28_170
*664 FILLER_28_174
*665 FILLER_28_18
*666 FILLER_28_186
*667 FILLER_28_2
*668 FILLER_28_34
*669 FILLER_28_45
*670 FILLER_28_81
*671 FILLER_28_89
*672 FILLER_28_93
*673 FILLER_28_95
*674 FILLER_29_142
*675 FILLER_29_146
*676 FILLER_29_153
*677 FILLER_29_155
*678 FILLER_29_17
*679 FILLER_29_175
*680 FILLER_29_184
*681 FILLER_29_2
*682 FILLER_29_6
*683 FILLER_29_67
*684 FILLER_29_69
*685 FILLER_29_76
*686 FILLER_29_88
*687 FILLER_2_10
*688 FILLER_2_107
*689 FILLER_2_14
*690 FILLER_2_153
*691 FILLER_2_161
*692 FILLER_2_165
*693 FILLER_2_185
*694 FILLER_2_187
*695 FILLER_2_2
*696 FILLER_2_45
*697 FILLER_2_53
*698 FILLER_2_55
*699 FILLER_30_10
*700 FILLER_30_101
*701 FILLER_30_107
*702 FILLER_30_165
*703 FILLER_30_173
*704 FILLER_30_177
*705 FILLER_30_185
*706 FILLER_30_187
*707 FILLER_30_2
*708 FILLER_30_29
*709 FILLER_30_33
*710 FILLER_30_37
*711 FILLER_30_50
*712 FILLER_30_60
*713 FILLER_30_64
*714 FILLER_30_77
*715 FILLER_31_104
*716 FILLER_31_112
*717 FILLER_31_114
*718 FILLER_31_128
*719 FILLER_31_142
*720 FILLER_31_150
*721 FILLER_31_156
*722 FILLER_31_36
*723 FILLER_31_40
*724 FILLER_31_47
*725 FILLER_31_55
*726 FILLER_31_59
*727 FILLER_31_72
*728 FILLER_32_104
*729 FILLER_32_107
*730 FILLER_32_123
*731 FILLER_32_139
*732 FILLER_32_147
*733 FILLER_32_165
*734 FILLER_32_177
*735 FILLER_32_18
*736 FILLER_32_185
*737 FILLER_32_187
*738 FILLER_32_2
*739 FILLER_32_31
*740 FILLER_32_87
*741 FILLER_32_91
*742 FILLER_32_93
*743 FILLER_33_118
*744 FILLER_33_134
*745 FILLER_33_138
*746 FILLER_33_146
*747 FILLER_33_185
*748 FILLER_33_187
*749 FILLER_33_2
*750 FILLER_33_20
*751 FILLER_33_72
*752 FILLER_33_80
*753 FILLER_34_104
*754 FILLER_34_150
*755 FILLER_34_154
*756 FILLER_34_156
*757 FILLER_34_17
*758 FILLER_34_173
*759 FILLER_34_184
*760 FILLER_34_2
*761 FILLER_34_37
*762 FILLER_34_6
*763 FILLER_35_101
*764 FILLER_35_127
*765 FILLER_35_135
*766 FILLER_35_139
*767 FILLER_35_142
*768 FILLER_35_147
*769 FILLER_35_151
*770 FILLER_35_153
*771 FILLER_35_36
*772 FILLER_35_46
*773 FILLER_35_50
*774 FILLER_35_56
*775 FILLER_35_72
*776 FILLER_35_76
*777 FILLER_35_89
*778 FILLER_35_97
*779 FILLER_36_10
*780 FILLER_36_103
*781 FILLER_36_107
*782 FILLER_36_158
*783 FILLER_36_160
*784 FILLER_36_169
*785 FILLER_36_173
*786 FILLER_36_177
*787 FILLER_36_179
*788 FILLER_36_184
*789 FILLER_36_2
*790 FILLER_36_21
*791 FILLER_36_29
*792 FILLER_36_33
*793 FILLER_36_37
*794 FILLER_36_69
*795 FILLER_36_85
*796 FILLER_36_89
*797 FILLER_37_104
*798 FILLER_37_116
*799 FILLER_37_118
*800 FILLER_37_127
*801 FILLER_37_135
*802 FILLER_37_139
*803 FILLER_37_36
*804 FILLER_37_40
*805 FILLER_37_55
*806 FILLER_37_63
*807 FILLER_37_65
*808 FILLER_37_72
*809 FILLER_38_107
*810 FILLER_38_115
*811 FILLER_38_14
*812 FILLER_38_153
*813 FILLER_38_161
*814 FILLER_38_177
*815 FILLER_38_179
*816 FILLER_38_184
*817 FILLER_38_2
*818 FILLER_38_30
*819 FILLER_38_34
*820 FILLER_38_52
*821 FILLER_38_54
*822 FILLER_38_79
*823 FILLER_38_83
*824 FILLER_38_85
*825 FILLER_38_90
*826 FILLER_38_92
*827 FILLER_38_97
*828 FILLER_39_114
*829 FILLER_39_116
*830 FILLER_39_129
*831 FILLER_39_137
*832 FILLER_39_139
*833 FILLER_39_150
*834 FILLER_39_19
*835 FILLER_39_2
*836 FILLER_39_6
*837 FILLER_3_104
*838 FILLER_3_108
*839 FILLER_3_142
*840 FILLER_3_68
*841 FILLER_3_72
*842 FILLER_3_74
*843 FILLER_3_89
*844 FILLER_3_93
*845 FILLER_3_99
*846 FILLER_40_177
*847 FILLER_40_18
*848 FILLER_40_185
*849 FILLER_40_187
*850 FILLER_40_22
*851 FILLER_40_28
*852 FILLER_40_32
*853 FILLER_40_34
*854 FILLER_40_79
*855 FILLER_40_95
*856 FILLER_41_111
*857 FILLER_41_119
*858 FILLER_41_125
*859 FILLER_41_133
*860 FILLER_41_137
*861 FILLER_41_139
*862 FILLER_41_146
*863 FILLER_41_154
*864 FILLER_41_156
*865 FILLER_41_161
*866 FILLER_41_177
*867 FILLER_41_18
*868 FILLER_41_185
*869 FILLER_41_187
*870 FILLER_41_2
*871 FILLER_41_26
*872 FILLER_41_30
*873 FILLER_41_32
*874 FILLER_41_67
*875 FILLER_41_69
*876 FILLER_41_72
*877 FILLER_41_76
*878 FILLER_42_104
*879 FILLER_42_138
*880 FILLER_42_172
*881 FILLER_42_2
*882 FILLER_42_36
*883 FILLER_42_52
*884 FILLER_42_56
*885 FILLER_42_61
*886 FILLER_42_65
*887 FILLER_42_67
*888 FILLER_42_70
*889 FILLER_4_107
*890 FILLER_4_138
*891 FILLER_4_148
*892 FILLER_4_150
*893 FILLER_4_159
*894 FILLER_4_177
*895 FILLER_4_18
*896 FILLER_4_182
*897 FILLER_4_186
*898 FILLER_4_2
*899 FILLER_4_20
*900 FILLER_4_47
*901 FILLER_4_51
*902 FILLER_5_146
*903 FILLER_5_148
*904 FILLER_5_187
*905 FILLER_5_40
*906 FILLER_5_56
*907 FILLER_6_111
*908 FILLER_6_169
*909 FILLER_6_173
*910 FILLER_6_187
*911 FILLER_6_19
*912 FILLER_6_2
*913 FILLER_6_28
*914 FILLER_6_32
*915 FILLER_6_34
*916 FILLER_6_37
*917 FILLER_6_39
*918 FILLER_7_101
*919 FILLER_7_109
*920 FILLER_7_162
*921 FILLER_7_178
*922 FILLER_7_186
*923 FILLER_7_36
*924 FILLER_7_43
*925 FILLER_7_61
*926 FILLER_7_66
*927 FILLER_7_72
*928 FILLER_7_80
*929 FILLER_7_85
*930 FILLER_8_104
*931 FILLER_8_122
*932 FILLER_8_15
*933 FILLER_8_164
*934 FILLER_8_172
*935 FILLER_8_174
*936 FILLER_8_181
*937 FILLER_8_185
*938 FILLER_8_187
*939 FILLER_8_2
*940 FILLER_8_31
*941 FILLER_8_37
*942 FILLER_8_6
*943 FILLER_8_72
*944 FILLER_9_114
*945 FILLER_9_134
*946 FILLER_9_138
*947 FILLER_9_142
*948 FILLER_9_150
*949 FILLER_9_164
*950 FILLER_9_166
*951 FILLER_9_172
*952 FILLER_9_2
*953 FILLER_9_20
*954 FILLER_9_28
*955 FILLER_9_4
*956 FILLER_9_48
*957 FILLER_9_57
*958 FILLER_9_65
*959 FILLER_9_69
*960 FILLER_9_72
*961 FILLER_9_76
*962 PHY_EDGE_ROW_0_Left_43
*963 PHY_EDGE_ROW_0_Right_0
*964 PHY_EDGE_ROW_10_Left_53
*965 PHY_EDGE_ROW_10_Right_10
*966 PHY_EDGE_ROW_11_Left_54
*967 PHY_EDGE_ROW_11_Right_11
*968 PHY_EDGE_ROW_12_Left_55
*969 PHY_EDGE_ROW_12_Right_12
*970 PHY_EDGE_ROW_13_Left_56
*971 PHY_EDGE_ROW_13_Right_13
*972 PHY_EDGE_ROW_14_Left_57
*973 PHY_EDGE_ROW_14_Right_14
*974 PHY_EDGE_ROW_15_Left_58
*975 PHY_EDGE_ROW_15_Right_15
*976 PHY_EDGE_ROW_16_Left_59
*977 PHY_EDGE_ROW_16_Right_16
*978 PHY_EDGE_ROW_17_Left_60
*979 PHY_EDGE_ROW_17_Right_17
*980 PHY_EDGE_ROW_18_Left_61
*981 PHY_EDGE_ROW_18_Right_18
*982 PHY_EDGE_ROW_19_Left_62
*983 PHY_EDGE_ROW_19_Right_19
*984 PHY_EDGE_ROW_1_Left_44
*985 PHY_EDGE_ROW_1_Right_1
*986 PHY_EDGE_ROW_20_Left_63
*987 PHY_EDGE_ROW_20_Right_20
*988 PHY_EDGE_ROW_21_Left_64
*989 PHY_EDGE_ROW_21_Right_21
*990 PHY_EDGE_ROW_22_Left_65
*991 PHY_EDGE_ROW_22_Right_22
*992 PHY_EDGE_ROW_23_Left_66
*993 PHY_EDGE_ROW_23_Right_23
*994 PHY_EDGE_ROW_24_Left_67
*995 PHY_EDGE_ROW_24_Right_24
*996 PHY_EDGE_ROW_25_Left_68
*997 PHY_EDGE_ROW_25_Right_25
*998 PHY_EDGE_ROW_26_Left_69
*999 PHY_EDGE_ROW_26_Right_26
*1000 PHY_EDGE_ROW_27_Left_70
*1001 PHY_EDGE_ROW_27_Right_27
*1002 PHY_EDGE_ROW_28_Left_71
*1003 PHY_EDGE_ROW_28_Right_28
*1004 PHY_EDGE_ROW_29_Left_72
*1005 PHY_EDGE_ROW_29_Right_29
*1006 PHY_EDGE_ROW_2_Left_45
*1007 PHY_EDGE_ROW_2_Right_2
*1008 PHY_EDGE_ROW_30_Left_73
*1009 PHY_EDGE_ROW_30_Right_30
*1010 PHY_EDGE_ROW_31_Left_74
*1011 PHY_EDGE_ROW_31_Right_31
*1012 PHY_EDGE_ROW_32_Left_75
*1013 PHY_EDGE_ROW_32_Right_32
*1014 PHY_EDGE_ROW_33_Left_76
*1015 PHY_EDGE_ROW_33_Right_33
*1016 PHY_EDGE_ROW_34_Left_77
*1017 PHY_EDGE_ROW_34_Right_34
*1018 PHY_EDGE_ROW_35_Left_78
*1019 PHY_EDGE_ROW_35_Right_35
*1020 PHY_EDGE_ROW_36_Left_79
*1021 PHY_EDGE_ROW_36_Right_36
*1022 PHY_EDGE_ROW_37_Left_80
*1023 PHY_EDGE_ROW_37_Right_37
*1024 PHY_EDGE_ROW_38_Left_81
*1025 PHY_EDGE_ROW_38_Right_38
*1026 PHY_EDGE_ROW_39_Left_82
*1027 PHY_EDGE_ROW_39_Right_39
*1028 PHY_EDGE_ROW_3_Left_46
*1029 PHY_EDGE_ROW_3_Right_3
*1030 PHY_EDGE_ROW_40_Left_83
*1031 PHY_EDGE_ROW_40_Right_40
*1032 PHY_EDGE_ROW_41_Left_84
*1033 PHY_EDGE_ROW_41_Right_41
*1034 PHY_EDGE_ROW_42_Left_85
*1035 PHY_EDGE_ROW_42_Right_42
*1036 PHY_EDGE_ROW_4_Left_47
*1037 PHY_EDGE_ROW_4_Right_4
*1038 PHY_EDGE_ROW_5_Left_48
*1039 PHY_EDGE_ROW_5_Right_5
*1040 PHY_EDGE_ROW_6_Left_49
*1041 PHY_EDGE_ROW_6_Right_6
*1042 PHY_EDGE_ROW_7_Left_50
*1043 PHY_EDGE_ROW_7_Right_7
*1044 PHY_EDGE_ROW_8_Left_51
*1045 PHY_EDGE_ROW_8_Right_8
*1046 PHY_EDGE_ROW_9_Left_52
*1047 PHY_EDGE_ROW_9_Right_9
*1048 TAP_TAPCELL_ROW_0_86
*1049 TAP_TAPCELL_ROW_0_87
*1050 TAP_TAPCELL_ROW_0_88
*1051 TAP_TAPCELL_ROW_0_89
*1052 TAP_TAPCELL_ROW_0_90
*1053 TAP_TAPCELL_ROW_10_113
*1054 TAP_TAPCELL_ROW_10_114
*1055 TAP_TAPCELL_ROW_10_115
*1056 TAP_TAPCELL_ROW_11_116
*1057 TAP_TAPCELL_ROW_11_117
*1058 TAP_TAPCELL_ROW_12_118
*1059 TAP_TAPCELL_ROW_12_119
*1060 TAP_TAPCELL_ROW_12_120
*1061 TAP_TAPCELL_ROW_13_121
*1062 TAP_TAPCELL_ROW_13_122
*1063 TAP_TAPCELL_ROW_14_123
*1064 TAP_TAPCELL_ROW_14_124
*1065 TAP_TAPCELL_ROW_14_125
*1066 TAP_TAPCELL_ROW_15_126
*1067 TAP_TAPCELL_ROW_15_127
*1068 TAP_TAPCELL_ROW_16_128
*1069 TAP_TAPCELL_ROW_16_129
*1070 TAP_TAPCELL_ROW_16_130
*1071 TAP_TAPCELL_ROW_17_131
*1072 TAP_TAPCELL_ROW_17_132
*1073 TAP_TAPCELL_ROW_18_133
*1074 TAP_TAPCELL_ROW_18_134
*1075 TAP_TAPCELL_ROW_18_135
*1076 TAP_TAPCELL_ROW_19_136
*1077 TAP_TAPCELL_ROW_19_137
*1078 TAP_TAPCELL_ROW_1_91
*1079 TAP_TAPCELL_ROW_1_92
*1080 TAP_TAPCELL_ROW_20_138
*1081 TAP_TAPCELL_ROW_20_139
*1082 TAP_TAPCELL_ROW_20_140
*1083 TAP_TAPCELL_ROW_21_141
*1084 TAP_TAPCELL_ROW_21_142
*1085 TAP_TAPCELL_ROW_22_143
*1086 TAP_TAPCELL_ROW_22_144
*1087 TAP_TAPCELL_ROW_22_145
*1088 TAP_TAPCELL_ROW_23_146
*1089 TAP_TAPCELL_ROW_23_147
*1090 TAP_TAPCELL_ROW_24_148
*1091 TAP_TAPCELL_ROW_24_149
*1092 TAP_TAPCELL_ROW_24_150
*1093 TAP_TAPCELL_ROW_25_151
*1094 TAP_TAPCELL_ROW_25_152
*1095 TAP_TAPCELL_ROW_26_153
*1096 TAP_TAPCELL_ROW_26_154
*1097 TAP_TAPCELL_ROW_26_155
*1098 TAP_TAPCELL_ROW_27_156
*1099 TAP_TAPCELL_ROW_27_157
*1100 TAP_TAPCELL_ROW_28_158
*1101 TAP_TAPCELL_ROW_28_159
*1102 TAP_TAPCELL_ROW_28_160
*1103 TAP_TAPCELL_ROW_29_161
*1104 TAP_TAPCELL_ROW_29_162
*1105 TAP_TAPCELL_ROW_2_93
*1106 TAP_TAPCELL_ROW_2_94
*1107 TAP_TAPCELL_ROW_2_95
*1108 TAP_TAPCELL_ROW_30_163
*1109 TAP_TAPCELL_ROW_30_164
*1110 TAP_TAPCELL_ROW_30_165
*1111 TAP_TAPCELL_ROW_31_166
*1112 TAP_TAPCELL_ROW_31_167
*1113 TAP_TAPCELL_ROW_32_168
*1114 TAP_TAPCELL_ROW_32_169
*1115 TAP_TAPCELL_ROW_32_170
*1116 TAP_TAPCELL_ROW_33_171
*1117 TAP_TAPCELL_ROW_33_172
*1118 TAP_TAPCELL_ROW_34_173
*1119 TAP_TAPCELL_ROW_34_174
*1120 TAP_TAPCELL_ROW_34_175
*1121 TAP_TAPCELL_ROW_35_176
*1122 TAP_TAPCELL_ROW_35_177
*1123 TAP_TAPCELL_ROW_36_178
*1124 TAP_TAPCELL_ROW_36_179
*1125 TAP_TAPCELL_ROW_36_180
*1126 TAP_TAPCELL_ROW_37_181
*1127 TAP_TAPCELL_ROW_37_182
*1128 TAP_TAPCELL_ROW_38_183
*1129 TAP_TAPCELL_ROW_38_184
*1130 TAP_TAPCELL_ROW_38_185
*1131 TAP_TAPCELL_ROW_39_186
*1132 TAP_TAPCELL_ROW_39_187
*1133 TAP_TAPCELL_ROW_3_96
*1134 TAP_TAPCELL_ROW_3_97
*1135 TAP_TAPCELL_ROW_40_188
*1136 TAP_TAPCELL_ROW_40_189
*1137 TAP_TAPCELL_ROW_40_190
*1138 TAP_TAPCELL_ROW_41_191
*1139 TAP_TAPCELL_ROW_41_192
*1140 TAP_TAPCELL_ROW_42_193
*1141 TAP_TAPCELL_ROW_42_194
*1142 TAP_TAPCELL_ROW_42_195
*1143 TAP_TAPCELL_ROW_42_196
*1144 TAP_TAPCELL_ROW_42_197
*1145 TAP_TAPCELL_ROW_4_100
*1146 TAP_TAPCELL_ROW_4_98
*1147 TAP_TAPCELL_ROW_4_99
*1148 TAP_TAPCELL_ROW_5_101
*1149 TAP_TAPCELL_ROW_5_102
*1150 TAP_TAPCELL_ROW_6_103
*1151 TAP_TAPCELL_ROW_6_104
*1152 TAP_TAPCELL_ROW_6_105
*1153 TAP_TAPCELL_ROW_7_106
*1154 TAP_TAPCELL_ROW_7_107
*1155 TAP_TAPCELL_ROW_8_108
*1156 TAP_TAPCELL_ROW_8_109
*1157 TAP_TAPCELL_ROW_8_110
*1158 TAP_TAPCELL_ROW_9_111
*1159 TAP_TAPCELL_ROW_9_112
*1160 _280_
*1161 _281_
*1162 _282_
*1163 _283_
*1164 _284_
*1165 _285_
*1166 _286_
*1167 _287_
*1168 _288_
*1169 _289_
*1170 _290_
*1171 _291_
*1172 _292_
*1173 _293_
*1174 _294_
*1175 _295_
*1176 _296_
*1177 _297_
*1178 _298_
*1179 _299_
*1180 _300_
*1181 _301_
*1182 _302_
*1183 _303_
*1184 _304_
*1185 _305_
*1186 _306_
*1187 _307_
*1188 _308_
*1189 _309_
*1190 _310_
*1191 _311_
*1192 _312_
*1193 _313_
*1194 _314_
*1195 _315_
*1196 _316_
*1197 _317_
*1198 _318_
*1199 _319_
*1200 _320_
*1201 _321_
*1202 _322_
*1203 _323_
*1204 _324_
*1205 _325_
*1206 _326_
*1207 _327_
*1208 _328_
*1209 _329_
*1210 _330_
*1211 _331_
*1212 _332_
*1213 _333_
*1214 _334_
*1215 _335_
*1216 _336_
*1217 _337_
*1218 _338_
*1219 _339_
*1220 _340_
*1221 _341_
*1222 _342_
*1223 _343_
*1224 _344_
*1225 _345_
*1226 _346_
*1227 _347_
*1228 _348_
*1229 _349_
*1230 _350_
*1231 _351_
*1232 _352_
*1233 _353_
*1234 _354_
*1235 _355_
*1236 _356_
*1237 _357_
*1238 _358_
*1239 _359_
*1240 _360_
*1241 _361_
*1242 _362_
*1243 _363_
*1244 _364_
*1245 _365_
*1246 _366_
*1247 _367_
*1248 _368_
*1249 _369_
*1250 _370_
*1251 _371_
*1252 _372_
*1253 _373_
*1254 _374_
*1255 _375_
*1256 _376_
*1257 _377_
*1258 _378_
*1259 _379_
*1260 _380_
*1261 _381_
*1262 _382_
*1263 _383_
*1264 _384_
*1265 _385_
*1266 _386_
*1267 _387_
*1268 _388_
*1269 _389_
*1270 _390_
*1271 _391_
*1272 _392_
*1273 _393_
*1274 _394_
*1275 _395_
*1276 _396_
*1277 _397_
*1278 _398_
*1279 _399_
*1280 _400_
*1281 _401_
*1282 _402_
*1283 _403_
*1284 _404_
*1285 _405_
*1286 _406_
*1287 _407_
*1288 _408_
*1289 _409_
*1290 _410_
*1291 _411_
*1292 _412_
*1293 _413_
*1294 _414_
*1295 _415_
*1296 _416_
*1297 _417_
*1298 _418_
*1299 _419_
*1300 _420_
*1301 _421_
*1302 _422_
*1303 _423_
*1304 _424_
*1305 _425_
*1306 _426_
*1307 _427_
*1308 _428_
*1309 _429_
*1310 _430_
*1311 _431_
*1312 _432_
*1313 _433_
*1314 _434_
*1315 _435_
*1316 _436_
*1317 _437_
*1318 _438_
*1319 _439_
*1320 _440_
*1321 _441_
*1322 _442_
*1323 _443_
*1324 _444_
*1325 _445_
*1326 _446_
*1327 _447_
*1328 _448_
*1329 _449_
*1330 _450_
*1331 _451_
*1332 _452_
*1333 _453_
*1334 _454_
*1335 _455_
*1336 _456_
*1337 _457_
*1338 _458_
*1339 _459_
*1340 _460_
*1341 _461_
*1342 _462_
*1343 _463_
*1344 _464_
*1345 _465_
*1346 _466_
*1347 _467_
*1348 _468_
*1349 _469_
*1350 _470_
*1351 _471_
*1352 _472_
*1353 _473_
*1354 _474_
*1355 _475_
*1356 _476_
*1357 _477_
*1358 _478_
*1359 _479_
*1360 _480_
*1361 _481_
*1362 _482_
*1363 _483_
*1364 _484_
*1365 _485_
*1366 _486_
*1367 _487_
*1368 _488_
*1369 _489_
*1370 _490_
*1371 _491_
*1372 _492_
*1373 _493_
*1374 _494_
*1375 _495_
*1376 _496_
*1377 _497_
*1378 _498_
*1379 _499_
*1380 _500_
*1381 _501_
*1382 _502_
*1383 _503_
*1384 _504_
*1385 _505_
*1386 _506_
*1387 _507_
*1388 _508_
*1389 _509_
*1390 _510_
*1391 _511_
*1392 _512_
*1393 _513_
*1394 _514_
*1395 _515_
*1396 _516_
*1397 _517_
*1398 _518_
*1399 _519_
*1400 _520_
*1401 _521_
*1402 _522_
*1403 _523_
*1404 _524_
*1405 _525_
*1406 _526_
*1407 _527_
*1408 _528_
*1409 _529_
*1410 _530_
*1411 _531_
*1412 _532_
*1413 _533_
*1414 _534_
*1415 _535_
*1416 _536_
*1417 _537_
*1418 _538_
*1419 _539_
*1420 _540_
*1421 _541_
*1422 _542_
*1423 _543_
*1424 _544_
*1425 _545_
*1426 _546_
*1427 _547_
*1428 _548_
*1429 _549_
*1430 _550_
*1431 _551_
*1432 _552_
*1433 _553_
*1434 _554_
*1435 _555_
*1436 _556_
*1437 _557_
*1438 _558_
*1439 _559_
*1440 _560_
*1441 _561_
*1442 _562_
*1443 _563_
*1444 _564_
*1445 _565_
*1446 _566_
*1447 _567_
*1448 _568_
*1449 _569_
*1450 _570_
*1451 _571_
*1452 _572_
*1453 _573_
*1454 _574_
*1455 _575_
*1456 _576_
*1457 _577_
*1458 _578_
*1459 _579_
*1460 _580_
*1461 _581_
*1462 _582_
*1463 _583_
*1464 _584_
*1465 _585_
*1466 _586_
*1467 _587_
*1468 _588_
*1469 _589_
*1470 _590_
*1471 _591_
*1472 _592_
*1473 _593_
*1474 _594_
*1475 _595_
*1476 _596_
*1477 _597_
*1478 _598_
*1479 _599_
*1480 _600_
*1481 _601_
*1482 _602_
*1483 _603_
*1484 _604_
*1485 _605_
*1486 _606_
*1487 _607_
*1488 _608_
*1489 _609_
*1490 _610_
*1491 _611_
*1492 _612_
*1493 _613_
*1494 _614_
*1495 _615_
*1496 _616_
*1497 _617_
*1498 _618_
*1499 _619_
*1500 _620_
*1501 _621_
*1502 _622_
*1503 _623_
*1504 _624_
*1505 clkbuf_0_clk
*1506 clkbuf_3_0__f_clk
*1507 clkbuf_3_1__f_clk
*1508 clkbuf_3_2__f_clk
*1509 clkbuf_3_3__f_clk
*1510 clkbuf_3_4__f_clk
*1511 clkbuf_3_5__f_clk
*1512 clkbuf_3_6__f_clk
*1513 clkbuf_3_7__f_clk
*1514 clkload0
*1515 clkload1
*1516 clkload2
*1517 clkload3
*1518 clkload4
*1519 clkload5
*1520 fanout13
*1521 fanout14
*1522 fanout15
*1523 fanout16
*1524 fanout18
*1525 fanout19
*1526 fanout20
*1527 fanout21
*1528 fanout22
*1529 fanout23
*1530 fanout24
*1531 fanout25
*1532 fanout26
*1533 fanout8
*1534 fanout9
*1535 input1
*1536 input2
*1537 input3
*1538 load_slew10
*1539 max_cap11
*1540 max_cap12
*1541 output4
*1542 output5
*1543 output6
*1544 output7
*1545 wire17

*PORTS
cap_ctrl[0] O
cap_ctrl[1] O
cap_ctrl[2] O
clk I
comp_out I
en I
scl I
sda I
trigger_out O

*D_NET *3 0.00171924
*CONN
*P cap_ctrl[0] O
*I *1541:Z O *D gf180mcu_fd_sc_mcu7t5v0__dlyb_1
*CAP
1 cap_ctrl[0] 0.00076954
2 *1541:Z 0.00076954
3 cap_ctrl[0] *1419:I 0
4 cap_ctrl[0] *1541:I 0.000180157
*RES
1 *1541:Z cap_ctrl[0] 10.01 
*END

*D_NET *4 0.00152688
*CONN
*P cap_ctrl[1] O
*I *1542:Z O *D gf180mcu_fd_sc_mcu7t5v0__dlyb_1
*CAP
1 cap_ctrl[1] 0.000763438
2 *1542:Z 0.000763438
3 cap_ctrl[1] *1542:I 0
*RES
1 *1542:Z cap_ctrl[1] 9.706 
*END

*D_NET *5 0.00152688
*CONN
*P cap_ctrl[2] O
*I *1543:Z O *D gf180mcu_fd_sc_mcu7t5v0__dlyb_1
*CAP
1 cap_ctrl[2] 0.000763438
2 *1543:Z 0.000763438
*RES
1 *1543:Z cap_ctrl[2] 9.706 
*END

*D_NET *6 0.00413376
*CONN
*P clk I
*I *1505:I I *D gf180mcu_fd_sc_mcu7t5v0__clkbuf_16
*CAP
1 clk 0.00137467
2 *1505:I 0.00137467
3 *1505:I *1225:B1 0.000545249
4 *1505:I *1398:I 0
5 *1505:I *1429:I 0.000151758
6 *1505:I *141:8 0.000158878
7 *1505:I *141:10 0.000254643
8 *1505:I *283:12 0.000237951
9 *1505:I *317:27 0
10 *1505:I *326:12 3.59404e-05
*RES
1 clk *1505:I 21.0894 
*END

*D_NET *7 0.00155007
*CONN
*P comp_out I
*I *1535:I I *D gf180mcu_fd_sc_mcu7t5v0__dlyb_1
*CAP
1 comp_out 0.000775034
2 *1535:I 0.000775034
*RES
1 comp_out *1535:I 9.858 
*END

*D_NET *8 0.00142437
*CONN
*P en I
*I *1536:I I *D gf180mcu_fd_sc_mcu7t5v0__dlyb_1
*CAP
1 en 0.000440497
2 *1536:I 0.000440497
3 *1536:I *1497:D 8.16677e-05
4 *1536:I *1497:CLK 0.000372137
5 *1536:I *293:30 4.03922e-06
6 *1536:I *293:39 8.55327e-05
*RES
1 en *1536:I 12.61 
*END

*D_NET *9 0.00126441
*CONN
*P scl I
*I *1537:I I *D gf180mcu_fd_sc_mcu7t5v0__dlyb_1
*CAP
1 scl 0.000442568
2 *1537:I 0.000442568
3 *1537:I *1249:B 0.000379274
*RES
1 scl *1537:I 12.458 
*END

*D_NET *10 0.00483394
*CONN
*P sda I
*I *1503:D I *D gf180mcu_fd_sc_mcu7t5v0__dffsnq_1
*I *1164:I I *D gf180mcu_fd_sc_mcu7t5v0__clkinv_1
*I *1545:Z O *D gf180mcu_fd_sc_mcu7t5v0__buf_3
*CAP
1 sda 0.000470972
2 *1503:D 0
3 *1164:I 0
4 *1545:Z 0.000771888
5 *10:19 0.000579019
6 *10:12 0.000879936
7 sda *1261:A2 3.25235e-05
8 sda *219:10 2.97523e-05
9 *10:12 *1503:SETN 0
10 *10:12 *297:10 0.000708302
11 *10:12 *297:18 0.00107583
12 *10:12 *360:8 2.35766e-05
13 *10:19 *1261:A2 0.000157386
14 *10:19 *219:10 0.000104751
*RES
1 *1545:Z *10:12 20.036 
2 *10:12 *1164:I 4.5 
3 *10:12 *10:19 1.292 
4 *10:19 *1503:D 4.5 
5 *10:19 sda 7.958 
*END

*D_NET *11 0.000811993
*CONN
*P trigger_out O
*I *1544:Z O *D gf180mcu_fd_sc_mcu7t5v0__dlyb_1
*CAP
1 trigger_out 0.000405996
2 *1544:Z 0.000405996
*RES
1 *1544:Z trigger_out 11.774 
*END

*D_NET *12 0.000914504
*CONN
*I *1492:D I *D gf180mcu_fd_sc_mcu7t5v0__dffrnq_1
*I *1354:ZN O *D gf180mcu_fd_sc_mcu7t5v0__nand2_1
*CAP
1 *1492:D 0.000123378
2 *1354:ZN 0.000123378
3 *1492:D *1354:A2 0.000404264
4 *1492:D *270:22 0.000263484
*RES
1 *1354:ZN *1492:D 11.204 
*END

*D_NET *13 0.00136319
*CONN
*I *1493:D I *D gf180mcu_fd_sc_mcu7t5v0__dffrnq_1
*I *1352:ZN O *D gf180mcu_fd_sc_mcu7t5v0__nand2_1
*CAP
1 *1493:D 0.000293199
2 *1352:ZN 0.000293199
3 *1493:D *1266:A2 0
4 *1493:D *1267:A2 0.000149579
5 *1493:D *1270:A1 0.000149579
6 *1493:D *1271:A2 5.14116e-06
7 *1493:D *1271:C 4.67949e-05
8 *1493:D *1272:A2 0.000104535
9 *1493:D *1493:CLK 7.24161e-06
10 *1493:D *327:29 3.07734e-05
11 *1493:D *327:67 0.000283146
*RES
1 *1352:ZN *1493:D 12.192 
*END

*D_NET *14 0.00168093
*CONN
*I *1494:D I *D gf180mcu_fd_sc_mcu7t5v0__dffrnq_1
*I *1348:ZN O *D gf180mcu_fd_sc_mcu7t5v0__nand2_1
*CAP
1 *1494:D 6.7259e-05
2 *1348:ZN 6.7259e-05
3 *1494:D *1348:A2 0.000846472
4 *1494:D *1349:A1 6.42585e-05
5 *1494:D *1353:A2 8.55242e-05
6 *1494:D *294:12 4.58601e-06
7 *1494:D *366:45 0.000545575
*RES
1 *1348:ZN *1494:D 11.204 
*END

*D_NET *15 0.0014388
*CONN
*I *1495:D I *D gf180mcu_fd_sc_mcu7t5v0__dffrnq_1
*I *1343:ZN O *D gf180mcu_fd_sc_mcu7t5v0__oai32_1
*CAP
1 *1495:D 0.000287278
2 *1343:ZN 0.000287278
3 *1495:D *1187:I 2.57332e-05
4 *1495:D *1343:A2 0
5 *1495:D *1343:B1 0.000360819
6 *1495:D *235:6 1.52691e-05
7 *1495:D *270:22 0.00031512
8 *1495:D *359:8 0
9 *1495:D *365:14 0.000147305
*RES
1 *1343:ZN *1495:D 11.964 
*END

*D_NET *16 0.000734007
*CONN
*I *1496:D I *D gf180mcu_fd_sc_mcu7t5v0__dffrnq_1
*I *1342:ZN O *D gf180mcu_fd_sc_mcu7t5v0__oai22_1
*CAP
1 *1496:D 0.000143082
2 *1342:ZN 0.000143082
3 *1496:D *1341:A1 3.73627e-05
4 *1496:D *1341:B2 3.73627e-05
5 *1496:D *301:12 0.000373118
*RES
1 *1342:ZN *1496:D 28.216 
*END

*D_NET *17 0.0023218
*CONN
*I *1497:D I *D gf180mcu_fd_sc_mcu7t5v0__dffrnq_1
*I *1341:ZN O *D gf180mcu_fd_sc_mcu7t5v0__oai22_1
*CAP
1 *1497:D 0.00075185
2 *1341:ZN 0.00075185
3 *1497:D *1383:I 3.87534e-05
4 *1497:D *1493:RN 1.48663e-05
5 *1497:D *1497:CLK 7.98048e-05
6 *1497:D *1532:I 0
7 *1497:D *293:30 0.000284689
8 *1497:D *293:39 1.91184e-05
9 *1497:D *310:32 5.20943e-06
10 *1497:D *310:36 9.06851e-05
11 *1497:D *319:30 0.000203304
12 *1536:I *1497:D 8.16677e-05
*RES
1 *1341:ZN *1497:D 24.156 
*END

*D_NET *18 0.00158771
*CONN
*I *1501:D I *D gf180mcu_fd_sc_mcu7t5v0__dffrnq_1
*I *1345:Z O *D gf180mcu_fd_sc_mcu7t5v0__and2_1
*CAP
1 *1501:D 0.000392545
2 *1345:Z 0.000392545
3 *1501:D *1477:CLK 0
4 *1501:D *237:8 0
5 *1501:D *293:18 0.000346195
6 *1501:D *293:22 1.45007e-05
7 *1501:D *310:47 0.000202762
8 *1501:D *310:88 0.000226606
9 *1501:D *366:12 1.25609e-05
*RES
1 *1345:Z *1501:D 21.648 
*END

*D_NET *19 0.00129303
*CONN
*I *1441:D I *D gf180mcu_fd_sc_mcu7t5v0__dffrnq_1
*I *1355:ZN O *D gf180mcu_fd_sc_mcu7t5v0__nor3_1
*CAP
1 *1441:D 0.000403145
2 *1355:ZN 0.000403145
3 *1441:D *1302:A1 8.0332e-05
4 *1441:D *1395:I 0
5 *1441:D *1441:CLK 0.000119866
6 *1441:D *1442:D 7.83779e-05
7 *1441:D *1522:I 0.000103895
8 *1441:D *296:6 7.14125e-05
9 *1441:D *296:19 0
10 *1441:D *351:10 3.28611e-05
*RES
1 *1355:ZN *1441:D 21.344 
*END

*D_NET *20 0.00225054
*CONN
*I *1442:D I *D gf180mcu_fd_sc_mcu7t5v0__dffrnq_1
*I *1358:ZN O *D gf180mcu_fd_sc_mcu7t5v0__nor3_1
*CAP
1 *1442:D 0.000320639
2 *1358:ZN 0.000320639
3 *1442:D *1355:A1 6.1619e-05
4 *1442:D *1355:A2 0.000718139
5 *1442:D *1426:I 2.22533e-05
6 *1442:D *1522:I 1.52768e-05
7 *1442:D *296:6 0.000305765
8 *1442:D *296:19 0.000262996
9 *1442:D *306:119 0.000144093
10 *1442:D *314:6 7.45328e-07
11 *1441:D *1442:D 7.83779e-05
*RES
1 *1358:ZN *1442:D 22.028 
*END

*D_NET *21 0.00052756
*CONN
*I *1443:D I *D gf180mcu_fd_sc_mcu7t5v0__dffrnq_1
*I *1362:ZN O *D gf180mcu_fd_sc_mcu7t5v0__nor3_1
*CAP
1 *1443:D 0.000237671
2 *1362:ZN 0.000237671
3 *1443:D *199:86 2.57365e-05
4 *1443:D *296:44 7.45328e-07
5 *1443:D *296:51 2.57365e-05
*RES
1 *1362:ZN *1443:D 10.52 
*END

*D_NET *22 0.000763222
*CONN
*I *1444:D I *D gf180mcu_fd_sc_mcu7t5v0__dffrnq_1
*I *1365:ZN O *D gf180mcu_fd_sc_mcu7t5v0__nor4_1
*CAP
1 *1444:D 0.000142161
2 *1365:ZN 0.000142161
3 *1444:D *199:76 7.24161e-06
4 *1444:D *326:14 7.57767e-05
5 *1444:D *341:10 0.000147305
6 *1444:D *341:25 0.000248576
*RES
1 *1365:ZN *1444:D 10.52 
*END

*D_NET *23 0.000666461
*CONN
*I *1445:D I *D gf180mcu_fd_sc_mcu7t5v0__dffrnq_1
*I *1368:ZN O *D gf180mcu_fd_sc_mcu7t5v0__nor4_1
*CAP
1 *1445:D 9.56731e-05
2 *1368:ZN 9.56731e-05
3 *1445:D *1368:A1 0.000317503
4 *1445:D *1368:A3 8.73421e-05
5 *1445:D *1530:I 7.02696e-05
*RES
1 *1368:ZN *1445:D 19.216 
*END

*D_NET *24 0.000961945
*CONN
*I *1446:D I *D gf180mcu_fd_sc_mcu7t5v0__dffrnq_1
*I *1371:ZN O *D gf180mcu_fd_sc_mcu7t5v0__nor3_1
*CAP
1 *1446:D 0.00029382
2 *1371:ZN 0.00029382
3 *1446:D *1371:A1 0.000106772
4 *1446:D *1371:A3 5.1289e-05
5 *1446:D *1439:I 6.66648e-05
6 *1446:D *1447:CLK 0
7 *1446:D *1484:RN 0.000149579
*RES
1 *1371:ZN *1446:D 11.508 
*END

*D_NET *25 0.00050706
*CONN
*I *1447:D I *D gf180mcu_fd_sc_mcu7t5v0__dffrnq_1
*I *1374:ZN O *D gf180mcu_fd_sc_mcu7t5v0__nor3_1
*CAP
1 *1447:D 0.00017182
2 *1374:ZN 0.00017182
3 *1447:D *1370:A2 0.000139333
4 *1447:D *1374:A3 0
5 *1447:D *199:45 2.40867e-05
*RES
1 *1374:ZN *1447:D 10.368 
*END

*D_NET *26 0.000505201
*CONN
*I *1448:D I *D gf180mcu_fd_sc_mcu7t5v0__dffrnq_1
*I *1376:ZN O *D gf180mcu_fd_sc_mcu7t5v0__nor3_1
*CAP
1 *1448:D 0.000130578
2 *1376:ZN 0.000130578
3 *1448:D *199:53 6.44359e-05
4 *1448:D *325:23 0.000179609
*RES
1 *1376:ZN *1448:D 10.368 
*END

*D_NET *27 0.00174167
*CONN
*I *1487:RN I *D gf180mcu_fd_sc_mcu7t5v0__dffrnq_1
*I *1377:S I *D gf180mcu_fd_sc_mcu7t5v0__mux2_2
*I *1193:ZN O *D gf180mcu_fd_sc_mcu7t5v0__clkinv_1
*CAP
1 *1487:RN 0.000293411
2 *1377:S 0.000130912
3 *1193:ZN 0.000112613
4 *27:10 0.000536935
5 *1377:S *1480:D 0
6 *1377:S *259:10 0
7 *1487:RN *1337:A4 0
8 *1487:RN *1388:I 0.000557478
9 *1487:RN *1480:D 0
10 *1487:RN *259:10 0
11 *27:10 *1336:A1 2.98535e-05
12 *27:10 *1337:A4 7.53241e-05
13 *27:10 *1388:I 5.14116e-06
*RES
1 *1193:ZN *27:10 9.912 
2 *27:10 *1377:S 9.684 
3 *27:10 *1487:RN 11.28 
*END

*D_NET *28 0.00134293
*CONN
*I *1488:RN I *D gf180mcu_fd_sc_mcu7t5v0__dffrnq_1
*I *1378:ZN O *D gf180mcu_fd_sc_mcu7t5v0__clkinv_1
*CAP
1 *1488:RN 7.30164e-05
2 *1378:ZN 7.30164e-05
3 *1488:RN *302:43 0.000502835
4 *1488:RN *316:51 7.195e-05
5 *1488:RN *325:55 0.000167816
6 *1488:RN *325:61 0.000454295
*RES
1 *1378:ZN *1488:RN 10.976 
*END

*D_NET *29 0.000382421
*CONN
*I *1489:RN I *D gf180mcu_fd_sc_mcu7t5v0__dffrnq_1
*I *1379:ZN O *D gf180mcu_fd_sc_mcu7t5v0__clkinv_1
*CAP
1 *1489:RN 5.01933e-05
2 *1379:ZN 5.01933e-05
3 *1489:RN *1332:A1 8.29507e-05
4 *1489:RN *315:71 0.000168743
5 *1489:RN *374:27 3.03414e-05
*RES
1 *1379:ZN *1489:RN 19.14 
*END

*D_NET *30 0.000689005
*CONN
*I *1490:RN I *D gf180mcu_fd_sc_mcu7t5v0__dffrnq_1
*I *1380:ZN O *D gf180mcu_fd_sc_mcu7t5v0__clkinv_1
*CAP
1 *1490:RN 0.000110814
2 *1380:ZN 0.000110814
3 *1490:RN *1202:A2 0
4 *1490:RN *1205:C1 8.55242e-05
5 *1490:RN *372:36 0.000379283
6 *1490:RN *375:6 2.57058e-06
*RES
1 *1380:ZN *1490:RN 10.14 
*END

*D_NET *31 0.000649184
*CONN
*I *1491:RN I *D gf180mcu_fd_sc_mcu7t5v0__dffrnq_1
*I *1381:ZN O *D gf180mcu_fd_sc_mcu7t5v0__clkinv_1
*CAP
1 *1491:RN 9.39677e-05
2 *1381:ZN 9.39677e-05
3 *1491:RN *1198:A1 0
4 *1491:RN *315:65 0.000448201
5 *1491:RN *376:6 1.30476e-05
*RES
1 *1381:ZN *1491:RN 10.14 
*END

*D_NET *32 0.00020379
*CONN
*I *1492:RN I *D gf180mcu_fd_sc_mcu7t5v0__dffrnq_1
*I *1382:ZN O *D gf180mcu_fd_sc_mcu7t5v0__clkinv_1
*CAP
1 *1492:RN 0.000101895
2 *1382:ZN 0.000101895
3 *1492:RN *1345:A2 0
*RES
1 *1382:ZN *1492:RN 9.532 
*END

*D_NET *33 0.00413281
*CONN
*I *1493:RN I *D gf180mcu_fd_sc_mcu7t5v0__dffrnq_1
*I *1383:ZN O *D gf180mcu_fd_sc_mcu7t5v0__clkinv_1
*CAP
1 *1493:RN 0.00150875
2 *1383:ZN 0.00150875
3 *1493:RN *1186:I 0.000139947
4 *1493:RN *1338:A2 0
5 *1493:RN *1341:B2 3.70802e-05
6 *1493:RN *1342:A1 0
7 *1493:RN *1342:B2 3.25242e-06
8 *1493:RN *1465:CLK 0.000123105
9 *1493:RN *1497:RN 0
10 *1493:RN *268:14 0.000107051
11 *1493:RN *301:10 9.52854e-05
12 *1493:RN *310:32 0
13 *1493:RN *319:6 0.000431526
14 *1493:RN *319:30 0
15 *1493:RN *319:62 9.26705e-05
16 *1493:RN *363:8 2.44046e-05
17 *1493:RN *363:31 4.61098e-05
18 *1493:RN *366:35 0
19 *1497:D *1493:RN 1.48663e-05
*RES
1 *1383:ZN *1493:RN 28.564 
*END

*D_NET *34 0.00108249
*CONN
*I *1494:RN I *D gf180mcu_fd_sc_mcu7t5v0__dffrnq_1
*I *1384:ZN O *D gf180mcu_fd_sc_mcu7t5v0__clkinv_1
*CAP
1 *1494:RN 0.000230984
2 *1384:ZN 0.000230984
3 *1494:RN *1469:D 8.74908e-05
4 *1494:RN *1469:CLK 0.000509981
5 *1494:RN *207:25 2.30549e-05
6 *1494:RN *364:10 0
*RES
1 *1384:ZN *1494:RN 11.508 
*END

*D_NET *35 0.000994113
*CONN
*I *1495:RN I *D gf180mcu_fd_sc_mcu7t5v0__dffrnq_1
*I *1385:ZN O *D gf180mcu_fd_sc_mcu7t5v0__clkinv_1
*CAP
1 *1495:RN 0.00019143
2 *1385:ZN 0.00019143
3 *1495:RN *1288:I1 0
4 *1495:RN *1385:I 0.000611253
*RES
1 *1385:ZN *1495:RN 10.824 
*END

*D_NET *36 0.000594625
*CONN
*I *1496:RN I *D gf180mcu_fd_sc_mcu7t5v0__dffrnq_1
*I *1386:ZN O *D gf180mcu_fd_sc_mcu7t5v0__clkinv_1
*CAP
1 *1496:RN 0.000131408
2 *1386:ZN 0.000131408
3 *1496:RN *1477:CLK 0.000104577
4 *1496:RN *293:22 7.91349e-05
5 *1496:RN *293:24 7.2647e-05
6 *1496:RN *310:47 7.54503e-05
*RES
1 *1386:ZN *1496:RN 19.368 
*END

*D_NET *37 0.000766049
*CONN
*I *1497:RN I *D gf180mcu_fd_sc_mcu7t5v0__dffrnq_1
*I *1387:ZN O *D gf180mcu_fd_sc_mcu7t5v0__clkinv_1
*CAP
1 *1497:RN 0.000322195
2 *1387:ZN 0.000322195
3 *1497:RN *1383:I 5.48085e-05
4 *1497:RN *1532:I 6.68508e-05
5 *1493:RN *1497:RN 0
*RES
1 *1387:ZN *1497:RN 20.28 
*END

*D_NET *38 0.000313891
*CONN
*I *1498:RN I *D gf180mcu_fd_sc_mcu7t5v0__dffrnq_1
*I *1388:ZN O *D gf180mcu_fd_sc_mcu7t5v0__clkinv_1
*CAP
1 *1498:RN 5.64058e-05
2 *1388:ZN 5.64058e-05
3 *1498:RN *1388:I 0.00020108
*RES
1 *1388:ZN *1498:RN 9.532 
*END

*D_NET *39 0.000601146
*CONN
*I *1499:RN I *D gf180mcu_fd_sc_mcu7t5v0__dffrnq_1
*I *1389:ZN O *D gf180mcu_fd_sc_mcu7t5v0__clkinv_1
*CAP
1 *1499:RN 0.000244181
2 *1389:ZN 0.000244181
3 *1499:RN *1190:I 3.95622e-05
4 *1499:RN *1389:I 7.32209e-05
*RES
1 *1389:ZN *1499:RN 10.672 
*END

*D_NET *40 0.000584751
*CONN
*I *1500:SETN I *D gf180mcu_fd_sc_mcu7t5v0__dffsnq_1
*I *1390:ZN O *D gf180mcu_fd_sc_mcu7t5v0__clkinv_1
*CAP
1 *1500:SETN 0.000206331
2 *1390:ZN 0.000206331
3 *1500:SETN *1183:I 8.18282e-05
4 *1500:SETN *1268:A2 6.12935e-05
5 *1500:SETN *297:61 2.89664e-05
*RES
1 *1390:ZN *1500:SETN 10.748 
*END

*D_NET *41 0.00121297
*CONN
*I *1501:RN I *D gf180mcu_fd_sc_mcu7t5v0__dffrnq_1
*I *1391:ZN O *D gf180mcu_fd_sc_mcu7t5v0__clkinv_1
*CAP
1 *1501:RN 0.000337613
2 *1391:ZN 0.000337613
3 *1501:RN *1274:A1 8.82876e-06
4 *1501:RN *1506:I 9.32691e-05
5 *1501:RN *237:34 0.000354434
6 *1501:RN *349:12 8.12167e-05
*RES
1 *1391:ZN *1501:RN 12.116 
*END

*D_NET *42 0.000489796
*CONN
*I *1502:SETN I *D gf180mcu_fd_sc_mcu7t5v0__dffsnq_1
*I *1392:ZN O *D gf180mcu_fd_sc_mcu7t5v0__clkinv_1
*CAP
1 *1502:SETN 0.00017767
2 *1392:ZN 0.00017767
3 *1502:SETN *1339:A1 0
4 *1502:SETN *1339:A2 0
5 *1502:SETN *1392:I 6.77492e-05
6 *1502:SETN *269:16 6.67061e-05
*RES
1 *1392:ZN *1502:SETN 10.368 
*END

*D_NET *43 0.00174301
*CONN
*I *1503:SETN I *D gf180mcu_fd_sc_mcu7t5v0__dffsnq_1
*I *1393:ZN O *D gf180mcu_fd_sc_mcu7t5v0__clkinv_1
*CAP
1 *1503:SETN 0.000513152
2 *1393:ZN 0.000513152
3 *1503:SETN *1254:A2 3.37776e-05
4 *1503:SETN *1339:A2 3.25356e-05
5 *1503:SETN *1531:I 0.00013054
6 *1503:SETN *220:10 0.000519856
7 *10:12 *1503:SETN 0
*RES
1 *1393:ZN *1503:SETN 22.56 
*END

*D_NET *44 0.000799601
*CONN
*I *1504:SETN I *D gf180mcu_fd_sc_mcu7t5v0__dffsnq_1
*I *1394:ZN O *D gf180mcu_fd_sc_mcu7t5v0__clkinv_1
*CAP
1 *1504:SETN 0.000134458
2 *1394:ZN 0.000134458
3 *1504:SETN *217:12 6.42585e-05
4 *1504:SETN *269:32 0.000326259
5 *1504:SETN *311:14 0.000140167
*RES
1 *1394:ZN *1504:SETN 10.596 
*END

*D_NET *45 0.0011212
*CONN
*I *1441:RN I *D gf180mcu_fd_sc_mcu7t5v0__dffrnq_1
*I *1395:ZN O *D gf180mcu_fd_sc_mcu7t5v0__clkinv_1
*CAP
1 *1441:RN 0.000431147
2 *1395:ZN 0.000431147
3 *1441:RN *1211:B1 0.000107848
4 *1441:RN *1357:A1 0
5 *1441:RN *1442:RN 4.72461e-05
6 *1441:RN *306:119 8.52284e-06
7 *1441:RN *379:12 9.52854e-05
8 *1441:RN *380:8 0
9 *1441:RN *380:47 0
*RES
1 *1395:ZN *1441:RN 21.192 
*END

*D_NET *46 0.0017083
*CONN
*I *1442:RN I *D gf180mcu_fd_sc_mcu7t5v0__dffrnq_1
*I *1396:ZN O *D gf180mcu_fd_sc_mcu7t5v0__clkinv_1
*CAP
1 *1442:RN 0.00044485
2 *1396:ZN 0.00044485
3 *1442:RN *1211:B1 5.67543e-05
4 *1442:RN *1357:A1 0.000436027
5 *1442:RN *1358:A3 0.000140588
6 *1442:RN *296:44 0.000111858
7 *1442:RN *306:119 0
8 *1442:RN *314:29 2.6126e-05
9 *1441:RN *1442:RN 4.72461e-05
*RES
1 *1396:ZN *1442:RN 22.104 
*END

*D_NET *47 0.000782155
*CONN
*I *1443:RN I *D gf180mcu_fd_sc_mcu7t5v0__dffrnq_1
*I *1397:ZN O *D gf180mcu_fd_sc_mcu7t5v0__clkinv_1
*CAP
1 *1443:RN 4.55882e-05
2 *1397:ZN 4.55882e-05
3 *1443:RN *1220:A1 0.000429153
4 *1443:RN *1397:I 0.000193933
5 *1443:RN *165:6 6.78931e-05
*RES
1 *1397:ZN *1443:RN 10.14 
*END

*D_NET *48 0.000313891
*CONN
*I *1444:RN I *D gf180mcu_fd_sc_mcu7t5v0__dffrnq_1
*I *1398:ZN O *D gf180mcu_fd_sc_mcu7t5v0__clkinv_1
*CAP
1 *1444:RN 5.64058e-05
2 *1398:ZN 5.64058e-05
3 *1444:RN *1220:A1 0.00020108
4 *1444:RN *1225:B1 0
*RES
1 *1398:ZN *1444:RN 9.532 
*END

*D_NET *49 0.000382234
*CONN
*I *1445:RN I *D gf180mcu_fd_sc_mcu7t5v0__dffrnq_1
*I *1399:ZN O *D gf180mcu_fd_sc_mcu7t5v0__clkinv_1
*CAP
1 *1445:RN 0.000134147
2 *1399:ZN 0.000134147
3 *1445:RN *1372:A3 3.28611e-05
4 *1445:RN *1399:I 0
5 *1445:RN *383:8 8.10789e-05
*RES
1 *1399:ZN *1445:RN 19.14 
*END

*D_NET *50 0.00261218
*CONN
*I *1446:RN I *D gf180mcu_fd_sc_mcu7t5v0__dffrnq_1
*I *1400:ZN O *D gf180mcu_fd_sc_mcu7t5v0__clkinv_1
*CAP
1 *1446:RN 0.000456222
2 *1400:ZN 0.000456222
3 *1446:RN *1369:A1 0.000119042
4 *1446:RN *1370:A1 0.000155427
5 *1446:RN *1373:A1 0.000317494
6 *1446:RN *1374:A3 0.000314174
7 *1446:RN *199:45 2.25184e-05
8 *1446:RN *199:47 6.12935e-05
9 *1446:RN *285:27 4.60244e-05
10 *1446:RN *317:96 3.15258e-05
11 *1446:RN *317:98 0.000632239
*RES
1 *1400:ZN *1446:RN 23.32 
*END

*D_NET *51 0.000716285
*CONN
*I *1447:RN I *D gf180mcu_fd_sc_mcu7t5v0__dffrnq_1
*I *1401:ZN O *D gf180mcu_fd_sc_mcu7t5v0__clkinv_1
*CAP
1 *1447:RN 3.66413e-05
2 *1401:ZN 3.66413e-05
3 *1447:RN *1401:I 0.000441055
4 *1447:RN *385:27 0.000201948
*RES
1 *1401:ZN *1447:RN 10.14 
*END

*D_NET *52 0.000423993
*CONN
*I *1448:RN I *D gf180mcu_fd_sc_mcu7t5v0__dffrnq_1
*I *1402:ZN O *D gf180mcu_fd_sc_mcu7t5v0__clkinv_1
*CAP
1 *1448:RN 1.09166e-05
2 *1402:ZN 1.09166e-05
3 *1448:RN *1375:A2 0.00020108
4 *1448:RN *1402:I 0.00020108
*RES
1 *1402:ZN *1448:RN 9.532 
*END

*D_NET *53 0.000642277
*CONN
*I *1449:SETN I *D gf180mcu_fd_sc_mcu7t5v0__dffsnq_1
*I *1403:ZN O *D gf180mcu_fd_sc_mcu7t5v0__clkinv_1
*CAP
1 *1449:SETN 0.000158818
2 *1403:ZN 0.000158818
3 *1449:SETN *1287:S 0
4 *1449:SETN *1319:B 0.00032464
*RES
1 *1403:ZN *1449:SETN 10.368 
*END

*D_NET *54 0.000313891
*CONN
*I *1450:RN I *D gf180mcu_fd_sc_mcu7t5v0__dffrnq_1
*I *1404:ZN O *D gf180mcu_fd_sc_mcu7t5v0__clkinv_1
*CAP
1 *1450:RN 5.64058e-05
2 *1404:ZN 5.64058e-05
3 *1450:RN *318:94 0.00020108
*RES
1 *1404:ZN *1450:RN 9.532 
*END

*D_NET *55 0.000291266
*CONN
*I *1451:SETN I *D gf180mcu_fd_sc_mcu7t5v0__dffsnq_1
*I *1405:ZN O *D gf180mcu_fd_sc_mcu7t5v0__clkinv_1
*CAP
1 *1451:SETN 0.000145633
2 *1405:ZN 0.000145633
3 *1451:SETN *1471:D 0
*RES
1 *1405:ZN *1451:SETN 9.836 
*END

*D_NET *56 0.000507709
*CONN
*I *1452:RN I *D gf180mcu_fd_sc_mcu7t5v0__dffrnq_1
*I *1406:ZN O *D gf180mcu_fd_sc_mcu7t5v0__clkinv_1
*CAP
1 *1452:RN 0.000148833
2 *1406:ZN 0.000148833
3 *1452:RN *1408:I 0.000105022
4 *1452:RN *352:60 0.000105022
*RES
1 *1406:ZN *1452:RN 10.368 
*END

*D_NET *57 0.00187208
*CONN
*I *1453:RN I *D gf180mcu_fd_sc_mcu7t5v0__dffrnq_1
*I *1407:ZN O *D gf180mcu_fd_sc_mcu7t5v0__clkinv_1
*CAP
1 *1453:RN 0.000177703
2 *1407:ZN 0.000177703
3 *1453:RN *1198:A1 6.26518e-05
4 *1453:RN *1300:A1 0.000327535
5 *1453:RN *1407:I 0.000233829
6 *1453:RN *292:66 0.000144725
7 *1453:RN *305:62 0.000299729
8 *1453:RN *352:60 0.000448201
*RES
1 *1407:ZN *1453:RN 12.496 
*END

*D_NET *58 0.000936702
*CONN
*I *1454:RN I *D gf180mcu_fd_sc_mcu7t5v0__dffrnq_1
*I *1408:ZN O *D gf180mcu_fd_sc_mcu7t5v0__clkinv_1
*CAP
1 *1454:RN 0.000275141
2 *1408:ZN 0.000275141
3 *1454:RN *305:62 0
4 *1454:RN *352:60 0.000386421
*RES
1 *1408:ZN *1454:RN 11.28 
*END

*D_NET *59 0.00058501
*CONN
*I *1455:RN I *D gf180mcu_fd_sc_mcu7t5v0__dffrnq_1
*I *1409:ZN O *D gf180mcu_fd_sc_mcu7t5v0__clkinv_1
*CAP
1 *1455:RN 0.000104055
2 *1409:ZN 0.000104055
3 *1455:RN *1313:A2 0
4 *1455:RN *141:29 0.000376901
*RES
1 *1409:ZN *1455:RN 9.988 
*END

*D_NET *60 0.000765461
*CONN
*I *1456:RN I *D gf180mcu_fd_sc_mcu7t5v0__dffrnq_1
*I *1410:ZN O *D gf180mcu_fd_sc_mcu7t5v0__clkinv_1
*CAP
1 *1456:RN 0.000363629
2 *1410:ZN 0.000363629
3 *1456:RN *1321:A1 0
4 *1456:RN *299:6 5.87561e-06
5 *1456:RN *299:14 3.23271e-05
*RES
1 *1410:ZN *1456:RN 11.128 
*END

*D_NET *61 0.00152504
*CONN
*I *1457:RN I *D gf180mcu_fd_sc_mcu7t5v0__dffrnq_1
*I *1411:ZN O *D gf180mcu_fd_sc_mcu7t5v0__clkinv_1
*CAP
1 *1457:RN 0.000432483
2 *1411:ZN 0.000432483
3 *1457:RN *1176:I 6.68265e-05
4 *1457:RN *1211:B2 4.81513e-05
5 *1457:RN *1303:A1 3.40956e-05
6 *1457:RN *1303:A2 0.000132619
7 *1457:RN *1309:A1 1.54035e-05
8 *1457:RN *1460:D 0.000148861
9 *1457:RN *295:83 0.00011955
10 *1457:RN *306:25 0
11 *1457:RN *306:29 7.59633e-05
12 *1457:RN *336:8 1.8606e-05
*RES
1 *1411:ZN *1457:RN 21.724 
*END

*D_NET *62 0.00153553
*CONN
*I *1458:RN I *D gf180mcu_fd_sc_mcu7t5v0__dffrnq_1
*I *1412:ZN O *D gf180mcu_fd_sc_mcu7t5v0__clkinv_1
*CAP
1 *1458:RN 0.000232129
2 *1412:ZN 0.000232129
3 *1458:RN *1174:I 8.84331e-05
4 *1458:RN *1175:I 0.000509123
5 *1458:RN *1305:A1 0
6 *1458:RN *1412:I 7.32209e-05
7 *1458:RN *1413:I 0
8 *1458:RN *1543:I 1.12495e-05
9 *1458:RN *148:12 8.49277e-05
10 *1458:RN *149:8 0.000206333
11 *1458:RN *149:23 7.98484e-05
12 *1458:RN *313:103 1.81333e-05
13 *1458:RN *313:118 0
*RES
1 *1412:ZN *1458:RN 20.812 
*END

*D_NET *63 0.000226315
*CONN
*I *1459:RN I *D gf180mcu_fd_sc_mcu7t5v0__dffrnq_1
*I *1413:ZN O *D gf180mcu_fd_sc_mcu7t5v0__clkinv_1
*CAP
1 *1459:RN 6.83979e-05
2 *1413:ZN 6.83979e-05
3 *1459:RN *1543:I 8.95196e-05
*RES
1 *1413:ZN *1459:RN 9.532 
*END

*D_NET *64 0.000652938
*CONN
*I *1460:RN I *D gf180mcu_fd_sc_mcu7t5v0__dffrnq_1
*I *1414:ZN O *D gf180mcu_fd_sc_mcu7t5v0__clkinv_1
*CAP
1 *1460:RN 9.25509e-05
2 *1414:ZN 9.25509e-05
3 *1460:RN *1212:B2 2.80654e-05
4 *1460:RN *1223:A3 0.000439771
*RES
1 *1414:ZN *1460:RN 10.14 
*END

*D_NET *65 0.000423993
*CONN
*I *1461:RN I *D gf180mcu_fd_sc_mcu7t5v0__dffrnq_1
*I *1415:ZN O *D gf180mcu_fd_sc_mcu7t5v0__clkinv_1
*CAP
1 *1461:RN 1.09166e-05
2 *1415:ZN 1.09166e-05
3 *1461:RN *1530:I 0.00020108
4 *1461:RN *317:66 0.00020108
*RES
1 *1415:ZN *1461:RN 9.532 
*END

*D_NET *66 0.00136559
*CONN
*I *1462:SETN I *D gf180mcu_fd_sc_mcu7t5v0__dffsnq_1
*I *1416:ZN O *D gf180mcu_fd_sc_mcu7t5v0__clkinv_1
*CAP
1 *1462:SETN 9.10599e-05
2 *1416:ZN 9.10599e-05
3 *1462:SETN *1444:CLK 0.000414937
4 *1462:SETN *296:51 2.6126e-05
5 *1462:SETN *314:51 0.000725294
6 *1462:SETN *341:10 7.54445e-06
7 *1462:SETN *341:25 9.56768e-06
*RES
1 *1416:ZN *1462:SETN 10.9 
*END

*D_NET *67 0.000425708
*CONN
*I *1463:RN I *D gf180mcu_fd_sc_mcu7t5v0__dffrnq_1
*I *1417:ZN O *D gf180mcu_fd_sc_mcu7t5v0__clkinv_1
*CAP
1 *1463:RN 0.000150286
2 *1417:ZN 0.000150286
3 *1463:RN *1224:A4 3.56172e-05
4 *1463:RN *1530:I 8.95196e-05
*RES
1 *1417:ZN *1463:RN 10.216 
*END

*D_NET *68 0.00190988
*CONN
*I *1464:SETN I *D gf180mcu_fd_sc_mcu7t5v0__dffsnq_1
*I *1418:ZN O *D gf180mcu_fd_sc_mcu7t5v0__clkinv_1
*CAP
1 *1464:SETN 0.000128589
2 *1418:ZN 0.000128589
3 *1464:SETN *1530:I 0.000691376
4 *1464:SETN *199:76 0.000942931
5 *1464:SETN *317:66 1.83977e-05
*RES
1 *1418:ZN *1464:SETN 12.268 
*END

*D_NET *69 0.00064861
*CONN
*I *1465:RN I *D gf180mcu_fd_sc_mcu7t5v0__dffrnq_1
*I *1419:ZN O *D gf180mcu_fd_sc_mcu7t5v0__clkinv_1
*CAP
1 *1465:RN 0.000100204
2 *1419:ZN 0.000100204
3 *1465:RN *1419:I 0.000448201
*RES
1 *1419:ZN *1465:RN 10.14 
*END

*D_NET *70 0.000971727
*CONN
*I *1466:RN I *D gf180mcu_fd_sc_mcu7t5v0__dffrnq_1
*I *1420:ZN O *D gf180mcu_fd_sc_mcu7t5v0__clkinv_1
*CAP
1 *1466:RN 0.000241118
2 *1420:ZN 0.000241118
3 *1466:RN *1291:I1 0
4 *1466:RN *1420:I 0.000460427
5 *1466:RN *1467:D 2.6126e-05
6 *1466:RN *1467:CLK 2.9378e-06
7 *1466:RN *1542:I 0
*RES
1 *1420:ZN *1466:RN 19.976 
*END

*D_NET *71 0.000486497
*CONN
*I *1467:RN I *D gf180mcu_fd_sc_mcu7t5v0__dffrnq_1
*I *1421:ZN O *D gf180mcu_fd_sc_mcu7t5v0__clkinv_1
*CAP
1 *1467:RN 0.000107031
2 *1421:ZN 0.000107031
3 *1467:RN *1306:A2 1.79941e-05
4 *1467:RN *1307:B 6.05076e-05
5 *1467:RN *1421:I 0.000193933
*RES
1 *1421:ZN *1467:RN 10.064 
*END

*D_NET *72 0.00039268
*CONN
*I *1468:RN I *D gf180mcu_fd_sc_mcu7t5v0__dffrnq_1
*I *1422:ZN O *D gf180mcu_fd_sc_mcu7t5v0__clkinv_1
*CAP
1 *1468:RN 0.000155422
2 *1422:ZN 0.000155422
3 *1468:RN *311:52 8.18373e-05
4 *1468:RN *348:10 0
*RES
1 *1422:ZN *1468:RN 10.064 
*END

*D_NET *73 0.000686088
*CONN
*I *1469:RN I *D gf180mcu_fd_sc_mcu7t5v0__dffrnq_1
*I *1423:ZN O *D gf180mcu_fd_sc_mcu7t5v0__clkinv_1
*CAP
1 *1469:RN 5.61729e-05
2 *1423:ZN 5.61729e-05
3 *1469:RN *1423:I 0.000386421
4 *1469:RN *1451:D 0.000187321
*RES
1 *1423:ZN *1469:RN 10.216 
*END

*D_NET *74 0.000469055
*CONN
*I *1470:RN I *D gf180mcu_fd_sc_mcu7t5v0__dffrnq_1
*I *1424:ZN O *D gf180mcu_fd_sc_mcu7t5v0__clkinv_1
*CAP
1 *1470:RN 0.000221147
2 *1424:ZN 0.000221147
3 *1470:RN *1290:I1 0
4 *1470:RN *295:8 2.67619e-05
*RES
1 *1424:ZN *1470:RN 19.444 
*END

*D_NET *75 0.000293922
*CONN
*I *1471:RN I *D gf180mcu_fd_sc_mcu7t5v0__dffrnq_1
*I *1425:ZN O *D gf180mcu_fd_sc_mcu7t5v0__clkinv_1
*CAP
1 *1471:RN 9.35555e-05
2 *1425:ZN 9.35555e-05
3 *1471:RN *1425:I 8.95196e-05
4 *1471:RN *1522:I 1.72912e-05
*RES
1 *1425:ZN *1471:RN 9.76 
*END

*D_NET *76 0.000764455
*CONN
*I *1472:RN I *D gf180mcu_fd_sc_mcu7t5v0__dffrnq_1
*I *1426:ZN O *D gf180mcu_fd_sc_mcu7t5v0__clkinv_1
*CAP
1 *1472:RN 0.000119055
2 *1426:ZN 0.000119055
3 *1472:RN *1263:A2 5.8721e-05
4 *1472:RN *1263:A3 0.000161584
5 *1472:RN *1471:CLK 0.000134113
6 *1472:RN *1509:I 0.000171927
7 *1472:RN *352:8 0
*RES
1 *1426:ZN *1472:RN 19.672 
*END

*D_NET *77 0.000582129
*CONN
*I *1473:RN I *D gf180mcu_fd_sc_mcu7t5v0__dffrnq_1
*I *1427:ZN O *D gf180mcu_fd_sc_mcu7t5v0__clkinv_1
*CAP
1 *1473:RN 6.57078e-05
2 *1427:ZN 6.57078e-05
3 *1473:RN *1319:B 7.14388e-05
4 *1473:RN *1427:I 0.000379274
*RES
1 *1427:ZN *1473:RN 9.988 
*END

*D_NET *78 0.000541124
*CONN
*I *1474:RN I *D gf180mcu_fd_sc_mcu7t5v0__dffrnq_1
*I *1428:ZN O *D gf180mcu_fd_sc_mcu7t5v0__clkinv_1
*CAP
1 *1474:RN 0.000131441
2 *1428:ZN 0.000131441
3 *1474:RN *1264:A3 0.000209107
4 *1474:RN *354:23 6.91347e-05
*RES
1 *1428:ZN *1474:RN 10.292 
*END

*D_NET *79 0.000278101
*CONN
*I *1475:RN I *D gf180mcu_fd_sc_mcu7t5v0__dffrnq_1
*I *1429:ZN O *D gf180mcu_fd_sc_mcu7t5v0__clkinv_1
*CAP
1 *1475:RN 0.000111646
2 *1429:ZN 0.000111646
3 *1475:RN *1167:I 5.48085e-05
4 *1475:RN *1321:A1 0
*RES
1 *1429:ZN *1475:RN 9.76 
*END

*D_NET *80 0.0012011
*CONN
*I *1476:RN I *D gf180mcu_fd_sc_mcu7t5v0__dffrnq_1
*I *1430:ZN O *D gf180mcu_fd_sc_mcu7t5v0__clkinv_1
*CAP
1 *1476:RN 0.0001815
2 *1430:ZN 0.0001815
3 *1476:RN *1289:A1 7.91349e-05
4 *1476:RN *1310:A1 0.00015418
5 *1476:RN *1310:A3 0.000494029
6 *1476:RN *1466:CLK 0.00011076
*RES
1 *1430:ZN *1476:RN 11.28 
*END

*D_NET *81 0.000300626
*CONN
*I *1477:RN I *D gf180mcu_fd_sc_mcu7t5v0__dffrnq_1
*I *1431:ZN O *D gf180mcu_fd_sc_mcu7t5v0__clkinv_1
*CAP
1 *1477:RN 7.8149e-05
2 *1431:ZN 7.8149e-05
3 *1477:RN *1431:I 8.95196e-05
4 *1477:RN *1466:CLK 5.48085e-05
*RES
1 *1431:ZN *1477:RN 9.76 
*END

*D_NET *82 0.00106011
*CONN
*I *1478:SETN I *D gf180mcu_fd_sc_mcu7t5v0__dffsnq_1
*I *1432:ZN O *D gf180mcu_fd_sc_mcu7t5v0__clkinv_1
*CAP
1 *1478:SETN 0.000234034
2 *1432:ZN 0.000234034
3 *1478:SETN *1339:A2 0.00016204
4 *1478:SETN *1432:I 0.000379274
5 *1478:SETN *1500:CLK 5.07244e-05
*RES
1 *1432:ZN *1478:SETN 11.28 
*END

*D_NET *83 0.000681974
*CONN
*I *1479:RN I *D gf180mcu_fd_sc_mcu7t5v0__dffrnq_1
*I *1433:ZN O *D gf180mcu_fd_sc_mcu7t5v0__clkinv_1
*CAP
1 *1479:RN 0.000198036
2 *1433:ZN 0.000198036
3 *1479:RN *268:14 0.000115046
4 *1479:RN *319:30 0.000170855
*RES
1 *1433:ZN *1479:RN 10.824 
*END

*D_NET *84 0.00102178
*CONN
*I *1480:RN I *D gf180mcu_fd_sc_mcu7t5v0__dffrnq_1
*I *1434:ZN O *D gf180mcu_fd_sc_mcu7t5v0__clkinv_1
*CAP
1 *1480:RN 0.000388937
2 *1434:ZN 0.000388937
3 *1480:RN *1480:D 0.000243906
4 *1480:RN *1498:D 0
*RES
1 *1434:ZN *1480:RN 20.508 
*END

*D_NET *85 0.00159985
*CONN
*I *1481:RN I *D gf180mcu_fd_sc_mcu7t5v0__dffrnq_1
*I *1435:ZN O *D gf180mcu_fd_sc_mcu7t5v0__clkinv_1
*CAP
1 *1481:RN 0.000241343
2 *1435:ZN 0.000241343
3 *1481:RN *1539:I 0.000157477
4 *1481:RN *1544:I 2.00674e-05
5 *1481:RN *303:18 1.08231e-05
6 *1481:RN *316:27 0.000548985
7 *1481:RN *345:10 0.000379809
*RES
1 *1435:ZN *1481:RN 20.66 
*END

*D_NET *86 0.00224959
*CONN
*I *1482:RN I *D gf180mcu_fd_sc_mcu7t5v0__dffrnq_1
*I *1436:ZN O *D gf180mcu_fd_sc_mcu7t5v0__clkinv_1
*CAP
1 *1482:RN 0.000363619
2 *1436:ZN 0.000363619
3 *1482:RN *1436:I 0.000924956
4 *1482:RN *298:55 4.52262e-05
5 *1482:RN *298:64 2.48239e-05
6 *1482:RN *303:18 8.62803e-05
7 *1482:RN *316:27 0.000441063
*RES
1 *1436:ZN *1482:RN 13.028 
*END

*D_NET *87 0.00106526
*CONN
*I *1483:RN I *D gf180mcu_fd_sc_mcu7t5v0__dffrnq_1
*I *1437:ZN O *D gf180mcu_fd_sc_mcu7t5v0__clkinv_1
*CAP
1 *1483:RN 0.000432863
2 *1437:ZN 0.000432863
3 *1483:RN *1251:A3 5.76373e-06
4 *1483:RN *1253:A1 2.96977e-05
5 *1483:RN *1436:I 0
6 *1483:RN *1489:CLK 5.22183e-05
7 *1483:RN *1540:I 0.000111858
8 *1483:RN *221:8 0
*RES
1 *1437:ZN *1483:RN 11.964 
*END

*D_NET *88 0.00145257
*CONN
*I *1484:RN I *D gf180mcu_fd_sc_mcu7t5v0__dffrnq_1
*I *1438:ZN O *D gf180mcu_fd_sc_mcu7t5v0__clkinv_1
*CAP
1 *1484:RN 0.000218089
2 *1438:ZN 0.000218089
3 *1484:RN *1371:A1 0.000734813
4 *1484:RN *1439:I 0.000132001
5 *1484:RN *1447:CLK 0
6 *1484:RN *1448:CLK 0
7 *1446:D *1484:RN 0.000149579
*RES
1 *1438:ZN *1484:RN 11.66 
*END

*D_NET *89 0.000662227
*CONN
*I *1485:RN I *D gf180mcu_fd_sc_mcu7t5v0__dffrnq_1
*I *1439:ZN O *D gf180mcu_fd_sc_mcu7t5v0__clkinv_1
*CAP
1 *1485:RN 0.000114956
2 *1439:ZN 0.000114956
3 *1485:RN *1439:I 0.000432315
*RES
1 *1439:ZN *1485:RN 10.14 
*END

*D_NET *90 0.000513708
*CONN
*I *1486:RN I *D gf180mcu_fd_sc_mcu7t5v0__dffrnq_1
*I *1440:ZN O *D gf180mcu_fd_sc_mcu7t5v0__clkinv_1
*CAP
1 *1486:RN 0.000256854
2 *1440:ZN 0.000256854
3 *1486:RN *371:10 0
*RES
1 *1440:ZN *1486:RN 10.52 
*END

*D_NET *91 0.00109822
*CONN
*I *1487:D I *D gf180mcu_fd_sc_mcu7t5v0__dffrnq_1
*I *1337:ZN O *D gf180mcu_fd_sc_mcu7t5v0__nor4_1
*CAP
1 *1487:D 0.000455628
2 *1337:ZN 0.000455628
3 *1487:D *1377:I1 3.10417e-05
4 *1487:D *1498:CLK 5.76373e-06
5 *1487:D *298:64 0.000119271
6 *1487:D *344:12 3.08902e-05
*RES
1 *1337:ZN *1487:D 12.116 
*END

*D_NET *92 0.00126537
*CONN
*I *1488:D I *D gf180mcu_fd_sc_mcu7t5v0__dffrnq_1
*I *1335:ZN O *D gf180mcu_fd_sc_mcu7t5v0__nor3_1
*CAP
1 *1488:D 0.000436154
2 *1335:ZN 0.000436154
3 *1488:D *1335:A2 3.62081e-05
4 *1488:D *1335:A3 5.48085e-05
5 *1488:D *298:64 0.000113803
6 *1488:D *302:16 7.71175e-06
7 *1488:D *303:27 2.05921e-05
8 *1488:D *346:14 0.000159936
*RES
1 *1335:ZN *1488:D 12.496 
*END

*D_NET *93 0.000673521
*CONN
*I *1489:D I *D gf180mcu_fd_sc_mcu7t5v0__dffrnq_1
*I *1333:ZN O *D gf180mcu_fd_sc_mcu7t5v0__nor3_1
*CAP
1 *1489:D 0.000166349
2 *1333:ZN 0.000166349
3 *1489:D *1333:A1 4.14761e-05
4 *1489:D *318:31 0.000299347
*RES
1 *1333:ZN *1489:D 10.368 
*END

*D_NET *94 0.00071147
*CONN
*I *1490:D I *D gf180mcu_fd_sc_mcu7t5v0__dffrnq_1
*I *1331:ZN O *D gf180mcu_fd_sc_mcu7t5v0__nor3_1
*CAP
1 *1490:D 0.000129793
2 *1331:ZN 0.000129793
3 *1490:D *1490:CLK 4.27813e-05
4 *1490:D *302:10 0.000254652
5 *1490:D *325:61 0.000154451
*RES
1 *1331:ZN *1490:D 19.672 
*END

*D_NET *95 0.000832053
*CONN
*I *1491:D I *D gf180mcu_fd_sc_mcu7t5v0__dffrnq_1
*I *1329:ZN O *D gf180mcu_fd_sc_mcu7t5v0__nor3_1
*CAP
1 *1491:D 0.000304589
2 *1329:ZN 0.000304589
3 *1491:D *1193:I 8.20483e-05
4 *1491:D *1333:A1 0.000135062
5 *1491:D *1333:A2 0
6 *1491:D *1491:CLK 5.76373e-06
7 *1491:D *374:8 0
*RES
1 *1329:ZN *1491:D 11.052 
*END

*D_NET *96 0.000536584
*CONN
*I *1449:D I *D gf180mcu_fd_sc_mcu7t5v0__dffsnq_1
*I *1323:Z O *D gf180mcu_fd_sc_mcu7t5v0__mux2_2
*CAP
1 *1449:D 0.00016006
2 *1323:Z 0.00016006
3 *1449:D *1287:S 4.60244e-05
4 *1449:D *348:10 8.09693e-06
5 *1449:D *348:12 0.000162343
*RES
1 *1323:Z *1449:D 10.444 
*END

*D_NET *97 0.00198357
*CONN
*I *1450:D I *D gf180mcu_fd_sc_mcu7t5v0__dffrnq_1
*I *1322:ZN O *D gf180mcu_fd_sc_mcu7t5v0__oai21_1
*CAP
1 *1450:D 0.000671759
2 *1322:ZN 0.000671759
3 *1450:D *1321:A2 0.00026141
4 *1450:D *1322:A2 7.3227e-05
5 *1450:D *1450:CLK 2.03179e-05
6 *1450:D *1512:I 5.7261e-06
7 *1450:D *1513:I 0.000279369
*RES
1 *1322:ZN *1450:D 30.952 
*END

*D_NET *98 0.000986223
*CONN
*I *1451:D I *D gf180mcu_fd_sc_mcu7t5v0__dffsnq_1
*I *1320:Z O *D gf180mcu_fd_sc_mcu7t5v0__mux2_2
*CAP
1 *1451:D 0.000235176
2 *1320:Z 0.000235176
3 *1451:D *1423:I 0.000106097
4 *1451:D *349:12 0.000192041
5 *1451:D *349:64 3.04115e-05
6 *1469:RN *1451:D 0.000187321
*RES
1 *1320:Z *1451:D 11.66 
*END

*D_NET *99 0.00212213
*CONN
*I *1452:D I *D gf180mcu_fd_sc_mcu7t5v0__dffrnq_1
*I *1319:ZN O *D gf180mcu_fd_sc_mcu7t5v0__oai21_1
*CAP
1 *1452:D 0.000623176
2 *1319:ZN 0.000623176
3 *1452:D *1183:I 0
4 *1452:D *1316:A1 9.935e-05
5 *1452:D *1319:A1 0
6 *1452:D *1319:A2 3.26059e-05
7 *1452:D *1454:D 0.000672953
8 *1452:D *305:58 1.72953e-05
9 *1452:D *305:62 7.54771e-06
10 *1452:D *331:8 4.60244e-05
*RES
1 *1319:ZN *1452:D 23.928 
*END

*D_NET *100 0.00175118
*CONN
*I *1453:D I *D gf180mcu_fd_sc_mcu7t5v0__dffrnq_1
*I *1317:Z O *D gf180mcu_fd_sc_mcu7t5v0__mux2_2
*CAP
1 *1453:D 0.00031808
2 *1317:Z 0.00031808
3 *1453:D *1183:I 3.28611e-05
4 *1453:D *315:43 0.000914232
5 *1453:D *315:45 1.3758e-05
6 *1453:D *315:61 6.68265e-05
7 *1453:D *352:60 8.73421e-05
*RES
1 *1317:Z *1453:D 21.496 
*END

*D_NET *101 0.00209988
*CONN
*I *1454:D I *D gf180mcu_fd_sc_mcu7t5v0__dffrnq_1
*I *1316:ZN O *D gf180mcu_fd_sc_mcu7t5v0__oai21_1
*CAP
1 *1454:D 0.000612756
2 *1316:ZN 0.000612756
3 *1454:D *1408:I 0
4 *1454:D *1473:CLK 9.88736e-06
5 *1454:D *305:58 8.62869e-05
6 *1454:D *352:60 0.000105239
7 *1452:D *1454:D 0.000672953
*RES
1 *1316:ZN *1454:D 23.32 
*END

*D_NET *102 0.00060714
*CONN
*I *1455:D I *D gf180mcu_fd_sc_mcu7t5v0__dffrnq_1
*I *1314:ZN O *D gf180mcu_fd_sc_mcu7t5v0__oai21_1
*CAP
1 *1455:D 4.80934e-05
2 *1314:ZN 4.80934e-05
3 *1455:D *1196:A2 1.97747e-05
4 *1455:D *151:12 0.00010642
5 *1455:D *305:70 0.000246974
6 *1455:D *330:43 0.000137785
*RES
1 *1314:ZN *1455:D 9.836 
*END

*D_NET *103 0.000559391
*CONN
*I *1456:D I *D gf180mcu_fd_sc_mcu7t5v0__dffrnq_1
*I *1312:ZN O *D gf180mcu_fd_sc_mcu7t5v0__aoi21_1
*CAP
1 *1456:D 0.000174401
2 *1312:ZN 0.000174401
3 *1456:D *1311:A2 0.000171918
4 *1456:D *1312:B 3.867e-05
*RES
1 *1312:ZN *1456:D 10.52 
*END

*D_NET *104 0.0012903
*CONN
*I *1457:D I *D gf180mcu_fd_sc_mcu7t5v0__dffrnq_1
*I *1309:ZN O *D gf180mcu_fd_sc_mcu7t5v0__aoi21_1
*CAP
1 *1457:D 0.000170957
2 *1309:ZN 0.000170957
3 *1457:D *1309:A1 9.52854e-05
4 *1457:D *1309:B 0.000229879
5 *1457:D *1457:CLK 6.77492e-05
6 *1457:D *306:21 0.000555475
7 *1457:D *313:68 0
*RES
1 *1309:ZN *1457:D 20.432 
*END

*D_NET *105 0.000640853
*CONN
*I *1458:D I *D gf180mcu_fd_sc_mcu7t5v0__dffrnq_1
*I *1307:ZN O *D gf180mcu_fd_sc_mcu7t5v0__aoi21_1
*CAP
1 *1458:D 0.000163806
2 *1307:ZN 0.000163806
3 *1458:D *1307:A1 0.000313242
*RES
1 *1307:ZN *1458:D 10.368 
*END

*D_NET *106 0.00171231
*CONN
*I *1459:D I *D gf180mcu_fd_sc_mcu7t5v0__dffrnq_1
*I *1305:ZN O *D gf180mcu_fd_sc_mcu7t5v0__aoi21_1
*CAP
1 *1459:D 0.000390258
2 *1305:ZN 0.000390258
3 *1459:D *1290:I1 8.84331e-05
4 *1459:D *1306:A2 0.000266031
5 *1459:D *1307:B 7.64222e-05
6 *1459:D *1421:I 1.11891e-05
7 *1459:D *1459:CLK 7.01965e-05
8 *1459:D *1543:I 0.000419518
*RES
1 *1305:ZN *1459:D 21.42 
*END

*D_NET *107 0.000971571
*CONN
*I *1460:D I *D gf180mcu_fd_sc_mcu7t5v0__dffrnq_1
*I *1303:ZN O *D gf180mcu_fd_sc_mcu7t5v0__aoi21_1
*CAP
1 *1460:D 0.000314043
2 *1303:ZN 0.000314043
3 *1460:D *295:83 0.000179609
4 *1460:D *295:87 1.5015e-05
5 *1460:D *306:29 0
6 *1457:RN *1460:D 0.000148861
*RES
1 *1303:ZN *1460:D 11.584 
*END

*D_NET *108 0.000396858
*CONN
*I *1461:D I *D gf180mcu_fd_sc_mcu7t5v0__dffrnq_1
*I *1301:ZN O *D gf180mcu_fd_sc_mcu7t5v0__aoi21_1
*CAP
1 *1461:D 6.53256e-05
2 *1301:ZN 6.53256e-05
3 *1461:D *1300:A2 0.000111858
4 *1461:D *1463:CLK 0.000139333
5 *1461:D *299:16 1.5015e-05
*RES
1 *1301:ZN *1461:D 9.836 
*END

*D_NET *109 0.000577252
*CONN
*I *1462:D I *D gf180mcu_fd_sc_mcu7t5v0__dffsnq_1
*I *1299:ZN O *D gf180mcu_fd_sc_mcu7t5v0__oai21_1
*CAP
1 *1462:D 7.17302e-05
2 *1299:ZN 7.17302e-05
3 *1462:D *1264:A3 9.65141e-05
4 *1462:D *1299:A1 0.000317503
5 *1462:D *1522:I 1.97747e-05
*RES
1 *1299:ZN *1462:D 9.988 
*END

*D_NET *110 0.000809285
*CONN
*I *1463:D I *D gf180mcu_fd_sc_mcu7t5v0__dffrnq_1
*I *1297:ZN O *D gf180mcu_fd_sc_mcu7t5v0__aoi21_1
*CAP
1 *1463:D 0.000242322
2 *1297:ZN 0.000242322
3 *1463:D *306:119 0.00032464
4 *1463:D *307:45 0
*RES
1 *1297:ZN *1463:D 10.976 
*END

*D_NET *111 0.0003863
*CONN
*I *1464:D I *D gf180mcu_fd_sc_mcu7t5v0__dffsnq_1
*I *1295:ZN O *D gf180mcu_fd_sc_mcu7t5v0__oai21_1
*CAP
1 *1464:D 0.000138108
2 *1295:ZN 0.000138108
3 *1464:D *1295:B 5.83557e-05
4 *1464:D *299:14 4.58601e-06
5 *1464:D *299:16 4.71416e-05
*RES
1 *1295:ZN *1464:D 10.064 
*END

*D_NET *112 0.00141527
*CONN
*I *1465:D I *D gf180mcu_fd_sc_mcu7t5v0__dffrnq_1
*I *1292:Z O *D gf180mcu_fd_sc_mcu7t5v0__mux2_2
*CAP
1 *1465:D 0.000361928
2 *1292:Z 0.000361928
3 *1465:D *1189:I 0.000111867
4 *1465:D *1465:CLK 4.12978e-05
5 *1465:D *319:62 0.000533719
6 *1465:D *367:23 4.52788e-06
*RES
1 *1292:Z *1465:D 21.8 
*END

*D_NET *113 0.00134493
*CONN
*I *1466:D I *D gf180mcu_fd_sc_mcu7t5v0__dffrnq_1
*I *1291:Z O *D gf180mcu_fd_sc_mcu7t5v0__mux2_2
*CAP
1 *1466:D 0.000279868
2 *1291:Z 0.000279868
3 *1466:D *1291:S 0.000110874
4 *1466:D *1293:A1 3.08902e-05
5 *1466:D *1466:CLK 0.000185036
6 *1466:D *139:10 8.04285e-05
7 *1466:D *319:62 0.000173033
8 *1466:D *357:10 0.000204929
*RES
1 *1291:Z *1466:D 21.192 
*END

*D_NET *114 0.000856803
*CONN
*I *1467:D I *D gf180mcu_fd_sc_mcu7t5v0__dffrnq_1
*I *1290:Z O *D gf180mcu_fd_sc_mcu7t5v0__mux2_2
*CAP
1 *1467:D 0.000251395
2 *1290:Z 0.000251395
3 *1467:D *1290:S 1.52768e-05
4 *1467:D *1291:I1 5.71919e-06
5 *1467:D *1467:CLK 6.38782e-05
6 *1467:D *1527:I 9.92775e-05
7 *1467:D *319:62 0.000143734
8 *1466:RN *1467:D 2.6126e-05
*RES
1 *1290:Z *1467:D 10.9 
*END

*D_NET *115 0.000380936
*CONN
*I *1468:D I *D gf180mcu_fd_sc_mcu7t5v0__dffrnq_1
*I *1288:Z O *D gf180mcu_fd_sc_mcu7t5v0__mux2_2
*CAP
1 *1468:D 0.000125947
2 *1288:Z 0.000125947
3 *1468:D *1288:I1 6.77492e-05
4 *1468:D *294:44 6.12935e-05
*RES
1 *1288:Z *1468:D 10.064 
*END

*D_NET *116 0.00146425
*CONN
*I *1469:D I *D gf180mcu_fd_sc_mcu7t5v0__dffrnq_1
*I *1287:Z O *D gf180mcu_fd_sc_mcu7t5v0__mux2_2
*CAP
1 *1469:D 0.000644127
2 *1287:Z 0.000644127
3 *1469:D *1384:I 0
4 *1469:D *1469:CLK 2.07594e-05
5 *1469:D *364:10 6.77492e-05
6 *1494:RN *1469:D 8.74908e-05
*RES
1 *1287:Z *1469:D 13.408 
*END

*D_NET *117 0.000393042
*CONN
*I *1470:D I *D gf180mcu_fd_sc_mcu7t5v0__dffrnq_1
*I *1286:Z O *D gf180mcu_fd_sc_mcu7t5v0__mux2_2
*CAP
1 *1470:D 0.0001929
2 *1286:Z 0.0001929
3 *1470:D *1293:A2 0
4 *1470:D *1470:CLK 7.24161e-06
5 *1470:D *350:25 0
*RES
1 *1286:Z *1470:D 10.064 
*END

*D_NET *118 0.00125034
*CONN
*I *1471:D I *D gf180mcu_fd_sc_mcu7t5v0__dffrnq_1
*I *1285:Z O *D gf180mcu_fd_sc_mcu7t5v0__mux2_2
*CAP
1 *1471:D 0.000263159
2 *1285:Z 0.000263159
3 *1471:D *1471:CLK 3.08902e-05
4 *1471:D *1520:I 0.000693133
5 *1471:D *253:42 0
6 *1451:SETN *1471:D 0
*RES
1 *1285:Z *1471:D 11.508 
*END

*D_NET *119 0.00108978
*CONN
*I *1472:D I *D gf180mcu_fd_sc_mcu7t5v0__dffrnq_1
*I *1284:Z O *D gf180mcu_fd_sc_mcu7t5v0__mux2_2
*CAP
1 *1472:D 8.08009e-05
2 *1284:Z 8.08009e-05
3 *1472:D *1318:A1 1.04712e-05
4 *1472:D *231:14 6.54913e-05
5 *1472:D *253:42 0.000308754
6 *1472:D *330:43 1.97747e-05
7 *1472:D *349:83 0.000523691
*RES
1 *1284:Z *1472:D 19.672 
*END

*D_NET *120 0.000488086
*CONN
*I *1473:D I *D gf180mcu_fd_sc_mcu7t5v0__dffrnq_1
*I *1283:ZN O *D gf180mcu_fd_sc_mcu7t5v0__oai21_1
*CAP
1 *1473:D 0.000244043
2 *1283:ZN 0.000244043
3 *1473:D *1473:CLK 0
*RES
1 *1283:ZN *1473:D 10.52 
*END

*D_NET *121 0.000471749
*CONN
*I *1474:D I *D gf180mcu_fd_sc_mcu7t5v0__dffrnq_1
*I *1281:ZN O *D gf180mcu_fd_sc_mcu7t5v0__aoi21_1
*CAP
1 *1474:D 5.41993e-05
2 *1281:ZN 5.41993e-05
3 *1474:D *253:42 0.000276008
4 *1474:D *328:27 8.73421e-05
*RES
1 *1281:ZN *1474:D 9.836 
*END

*D_NET *122 0.000934263
*CONN
*I *1475:D I *D gf180mcu_fd_sc_mcu7t5v0__dffrnq_1
*I *1279:ZN O *D gf180mcu_fd_sc_mcu7t5v0__oai21_1
*CAP
1 *1475:D 0.000153495
2 *1279:ZN 0.000153495
3 *1475:D *1279:A1 0.00026286
4 *1475:D *1475:CLK 7.24161e-06
5 *1475:D *253:42 0.000254684
6 *1475:D *328:27 0.000102486
*RES
1 *1279:ZN *1475:D 11.052 
*END

*D_NET *123 0.000863574
*CONN
*I *1476:D I *D gf180mcu_fd_sc_mcu7t5v0__dffrnq_1
*I *1277:ZN O *D gf180mcu_fd_sc_mcu7t5v0__aoi21_1
*CAP
1 *1476:D 0.000193124
2 *1277:ZN 0.000193124
3 *1476:D *1277:B 0.00027088
4 *1476:D *1476:CLK 2.57058e-06
5 *1476:D *1477:D 0
6 *1476:D *237:34 0.000203876
*RES
1 *1277:ZN *1476:D 11.128 
*END

*D_NET *124 0.000593801
*CONN
*I *1477:D I *D gf180mcu_fd_sc_mcu7t5v0__dffrnq_1
*I *1275:ZN O *D gf180mcu_fd_sc_mcu7t5v0__aoi21_1
*CAP
1 *1477:D 0.00013458
2 *1275:ZN 0.00013458
3 *1477:D *1275:A2 0.00032464
4 *1477:D *1292:I1 0
5 *1477:D *1477:CLK 0
6 *1476:D *1477:D 0
*RES
1 *1275:ZN *1477:D 10.216 
*END

*D_NET *125 0.000570835
*CONN
*I *1478:D I *D gf180mcu_fd_sc_mcu7t5v0__dffsnq_1
*I *1272:ZN O *D gf180mcu_fd_sc_mcu7t5v0__nor2_1
*CAP
1 *1478:D 5.99891e-05
2 *1272:ZN 5.99891e-05
3 *1478:D *1272:A1 0.000386421
4 *1478:D *219:10 6.44359e-05
*RES
1 *1272:ZN *1478:D 9.988 
*END

*D_NET *126 0.000388579
*CONN
*I *1479:D I *D gf180mcu_fd_sc_mcu7t5v0__dffrnq_1
*I *1270:ZN O *D gf180mcu_fd_sc_mcu7t5v0__nor2_1
*CAP
1 *1479:D 0.000136978
2 *1270:ZN 0.000136978
3 *1479:D *1493:CLK 9.58397e-05
4 *1479:D *293:39 1.02578e-05
5 *1479:D *327:16 8.52505e-06
*RES
1 *1270:ZN *1479:D 10.064 
*END

*D_NET *127 0.00405805
*CONN
*I *1480:D I *D gf180mcu_fd_sc_mcu7t5v0__dffrnq_1
*I *1262:ZN O *D gf180mcu_fd_sc_mcu7t5v0__nor2_1
*CAP
1 *1480:D 0.00117046
2 *1262:ZN 0.00117046
3 *1480:D *1261:A1 0.000206333
4 *1480:D *1261:A2 7.24795e-05
5 *1480:D *1324:A1 0
6 *1480:D *1336:A2 0
7 *1480:D *1377:I0 0
8 *1480:D *1388:I 2.05953e-05
9 *1480:D *1544:I 0
10 *1480:D *201:14 6.13012e-05
11 *1480:D *344:12 0.00111251
12 *1377:S *1480:D 0
13 *1480:RN *1480:D 0.000243906
14 *1487:RN *1480:D 0
*RES
1 *1262:ZN *1480:D 27.12 
*END

*D_NET *128 0.000426379
*CONN
*I *1481:D I *D gf180mcu_fd_sc_mcu7t5v0__dffrnq_1
*I *1260:ZN O *D gf180mcu_fd_sc_mcu7t5v0__aoi21_1
*CAP
1 *1481:D 5.07918e-05
2 *1260:ZN 5.07918e-05
3 *1481:D *1260:A1 7.45046e-05
4 *1481:D *1261:A2 9.58397e-05
5 *1481:D *345:14 0.000154451
*RES
1 *1260:ZN *1481:D 9.836 
*END

*D_NET *129 0.00112602
*CONN
*I *1482:D I *D gf180mcu_fd_sc_mcu7t5v0__dffrnq_1
*I *1258:ZN O *D gf180mcu_fd_sc_mcu7t5v0__nor2_1
*CAP
1 *1482:D 8.90269e-05
2 *1258:ZN 8.90269e-05
3 *1482:D *1258:A1 0.000154451
4 *1482:D *1261:A2 0.000434294
5 *1482:D *345:14 0.000134564
6 *1482:D *345:29 0.000224654
*RES
1 *1258:ZN *1482:D 11.356 
*END

*D_NET *130 0.00127045
*CONN
*I *1483:D I *D gf180mcu_fd_sc_mcu7t5v0__dffrnq_1
*I *1255:ZN O *D gf180mcu_fd_sc_mcu7t5v0__oai22_1
*CAP
1 *1483:D 0.000163445
2 *1255:ZN 0.000163445
3 *1483:D *1255:A1 6.39906e-05
4 *1483:D *1255:A2 0.000238978
5 *1483:D *1258:A1 0.000564624
6 *1483:D *304:23 7.59633e-05
*RES
1 *1255:ZN *1483:D 11.28 
*END

*D_NET *131 0.00175203
*CONN
*I *1484:D I *D gf180mcu_fd_sc_mcu7t5v0__dffrnq_1
*I *1235:ZN O *D gf180mcu_fd_sc_mcu7t5v0__nor3_1
*CAP
1 *1484:D 0.00038536
2 *1235:ZN 0.00038536
3 *1484:D *1233:A2 0.000196414
4 *1484:D *1233:A3 0.000448201
5 *1484:D *1235:A1 0.000100539
6 *1484:D *1235:A2 0.000236152
7 *1484:D *300:25 0
*RES
1 *1235:ZN *1484:D 12.648 
*END

*D_NET *132 0.00193918
*CONN
*I *1485:D I *D gf180mcu_fd_sc_mcu7t5v0__dffrnq_1
*I *1233:ZN O *D gf180mcu_fd_sc_mcu7t5v0__nor3_1
*CAP
1 *1485:D 0.000207417
2 *1233:ZN 0.000207417
3 *1485:D *1227:A1 0.000715774
4 *1485:D *1232:A2 0.000500461
5 *1485:D *1233:A1 7.71175e-06
6 *1485:D *1233:A3 0.000144293
7 *1485:D *1484:CLK 4.50449e-05
8 *1485:D *300:25 6.05076e-05
9 *1485:D *300:27 5.05494e-05
*RES
1 *1233:ZN *1485:D 12.344 
*END

*D_NET *133 0.000498398
*CONN
*I *1486:D I *D gf180mcu_fd_sc_mcu7t5v0__dffrnq_1
*I *1231:ZN O *D gf180mcu_fd_sc_mcu7t5v0__nor4_1
*CAP
1 *1486:D 8.90772e-05
2 *1231:ZN 8.90772e-05
3 *1486:D *1230:A1 0.000310356
4 *1486:D *1499:CLK 9.88736e-06
*RES
1 *1231:ZN *1486:D 9.836 
*END

*D_NET *134 0.00289459
*CONN
*I *1230:A1 I *D gf180mcu_fd_sc_mcu7t5v0__and2_1
*I *1229:A1 I *D gf180mcu_fd_sc_mcu7t5v0__nor2_1
*I *1324:A1 I *D gf180mcu_fd_sc_mcu7t5v0__nor3_1
*I *1160:ZN O *D gf180mcu_fd_sc_mcu7t5v0__clkinv_1
*CAP
1 *1230:A1 0.000201661
2 *1229:A1 6.67427e-05
3 *1324:A1 6.96527e-05
4 *1160:ZN 0.000189166
5 *134:10 0.000339083
6 *134:8 0.000593515
7 *1229:A1 *1324:A3 6.00599e-05
8 *1229:A1 *1388:I 0
9 *1229:A1 *202:8 0.000255722
10 *1229:A1 *372:10 8.18373e-05
11 *1230:A1 *1231:A4 0.000113209
12 *1230:A1 *1480:CLK 1.02823e-05
13 *1230:A1 *1499:CLK 0.000123787
14 *1324:A1 *1336:A2 8.54817e-05
15 *134:8 *300:31 0.000105155
16 *134:8 *300:33 3.40956e-05
17 *134:8 *372:36 0
18 *134:10 *1231:A3 0.000158878
19 *134:10 *1336:A2 2.23783e-05
20 *134:10 *1480:CLK 5.23469e-05
21 *134:10 *300:33 2.1182e-05
22 *134:10 *372:36 0
23 *1480:D *1324:A1 0
24 *1486:D *1230:A1 0.000310356
*RES
1 *1160:ZN *134:8 10.748 
2 *134:8 *134:10 1.596 
3 *134:10 *1324:A1 9.532 
4 *134:10 *1229:A1 9.988 
5 *134:8 *1230:A1 11.128 
*END

*D_NET *135 0.00171423
*CONN
*I *1234:A1 I *D gf180mcu_fd_sc_mcu7t5v0__xor2_1
*I *1203:A1 I *D gf180mcu_fd_sc_mcu7t5v0__aoi221_1
*I *1200:B2 I *D gf180mcu_fd_sc_mcu7t5v0__oai221_1
*I *1161:ZN O *D gf180mcu_fd_sc_mcu7t5v0__clkinv_1
*CAP
1 *1234:A1 0.000112357
2 *1203:A1 1.38947e-05
3 *1200:B2 0.000123087
4 *1161:ZN 0
5 *135:10 0.000325949
6 *135:4 0.000301324
7 *1200:B2 *1203:A2 0.00016645
8 *1200:B2 *1204:A1 2.03665e-05
9 *1200:B2 *1204:A2 0.000248576
10 *1203:A1 *179:16 0
11 *1234:A1 *1199:B1 0
12 *1234:A1 *1513:I 0
13 *1234:A1 *179:38 0.000229879
14 *135:10 *1200:C 1.2339e-05
15 *135:10 *1203:A2 8.55242e-05
16 *135:10 *1203:C 5.74025e-05
17 *135:10 *1513:I 1.70865e-05
18 *135:10 *179:16 0
*RES
1 *1161:ZN *135:4 4.5 
2 *135:4 *135:10 1.748 
3 *135:10 *1200:B2 5.868 
4 *135:10 *1203:A1 4.728 
5 *135:4 *1234:A1 14.64 
*END

*D_NET *136 0.00156283
*CONN
*I *1255:A1 I *D gf180mcu_fd_sc_mcu7t5v0__oai22_1
*I *1162:ZN O *D gf180mcu_fd_sc_mcu7t5v0__clkinv_1
*CAP
1 *1255:A1 0.000302401
2 *1162:ZN 0.000302401
3 *1255:A1 *1252:A1 5.54728e-05
4 *1255:A1 *1253:A1 0.000117421
5 *1255:A1 *1437:I 0
6 *1255:A1 *1540:I 0
7 *1255:A1 *222:10 0.000269865
8 *1255:A1 *304:12 0.00045128
9 *1483:D *1255:A1 6.39906e-05
*RES
1 *1162:ZN *1255:A1 21.04 
*END

*D_NET *137 0.000153083
*CONN
*I *1256:A1 I *D gf180mcu_fd_sc_mcu7t5v0__nor2_1
*I *1163:ZN O *D gf180mcu_fd_sc_mcu7t5v0__clkinv_1
*CAP
1 *1256:A1 7.65413e-05
2 *1163:ZN 7.65413e-05
*RES
1 *1163:ZN *1256:A1 9.532 
*END

*D_NET *138 0.00139084
*CONN
*I *1272:A1 I *D gf180mcu_fd_sc_mcu7t5v0__nor2_1
*I *1164:ZN O *D gf180mcu_fd_sc_mcu7t5v0__clkinv_1
*CAP
1 *1272:A1 0.000123702
2 *1164:ZN 0.000123702
3 *1272:A1 *1261:A2 0.000733203
4 *1272:A1 *219:10 2.38111e-05
5 *1478:D *1272:A1 0.000386421
*RES
1 *1164:ZN *1272:A1 11.128 
*END

*D_NET *139 0.00556244
*CONN
*I *1293:A1 I *D gf180mcu_fd_sc_mcu7t5v0__nand3_1
*I *1310:A1 I *D gf180mcu_fd_sc_mcu7t5v0__and3_1
*I *1275:A1 I *D gf180mcu_fd_sc_mcu7t5v0__aoi21_1
*I *1165:ZN O *D gf180mcu_fd_sc_mcu7t5v0__clkinv_1
*CAP
1 *1293:A1 0.000152216
2 *1310:A1 0.00028011
3 *1275:A1 0.000158692
4 *1165:ZN 0
5 *139:10 0.00053936
6 *139:4 0.000252774
7 *1275:A1 *1275:A2 0.000610759
8 *1275:A1 *1275:B 0.000198661
9 *1275:A1 *310:66 0.000400401
10 *1275:A1 *319:62 0.000439026
11 *1293:A1 *1466:CLK 0.000171421
12 *1293:A1 *357:10 8.23984e-05
13 *1310:A1 *1275:B 0
14 *1310:A1 *1277:A1 0.000305333
15 *1310:A1 *1289:A1 0.00025069
16 *1310:A1 *1310:A3 5.40519e-05
17 *1310:A1 *1431:I 0.000135062
18 *1310:A1 *1466:CLK 2.49878e-05
19 *1310:A1 *140:14 0.00089067
20 *1310:A1 *292:119 9.17324e-06
21 *1310:A1 *349:12 2.8001e-06
22 *139:10 *1289:A1 6.03817e-05
23 *139:10 *1466:CLK 3.2657e-05
24 *139:10 *310:66 3.35674e-05
25 *139:10 *319:62 0.000201997
26 *139:10 *357:10 9.75543e-06
27 *1466:D *1293:A1 3.08902e-05
28 *1466:D *139:10 8.04285e-05
29 *1476:RN *1310:A1 0.00015418
*RES
1 *1165:ZN *139:4 4.5 
2 *139:4 *139:10 5.868 
3 *139:10 *1275:A1 12.8 
4 *139:10 *1310:A1 12.952 
5 *139:4 *1293:A1 5.868 
*END

*D_NET *140 0.00489299
*CONN
*I *1310:A2 I *D gf180mcu_fd_sc_mcu7t5v0__and3_1
*I *1289:A2 I *D gf180mcu_fd_sc_mcu7t5v0__nand3_1
*I *1277:A1 I *D gf180mcu_fd_sc_mcu7t5v0__aoi21_1
*I *1166:ZN O *D gf180mcu_fd_sc_mcu7t5v0__clkinv_1
*CAP
1 *1310:A2 0
2 *1289:A2 0
3 *1277:A1 5.41132e-05
4 *1166:ZN 0.000141245
5 *140:14 0.000308106
6 *140:8 0.000395238
7 *1277:A1 *1291:S 2.47642e-05
8 *1277:A1 *1292:S 0.000911953
9 *1277:A1 *243:8 0.000243544
10 *1277:A1 *310:66 0.000966338
11 *140:8 *1166:I 4.88658e-05
12 *140:8 *1293:A2 6.68508e-05
13 *140:8 *1520:I 0.000166035
14 *140:8 *292:119 5.16257e-05
15 *140:14 *243:8 0.000165756
16 *140:14 *292:119 4.68029e-05
17 *140:14 *349:12 0.000105749
18 *1310:A1 *1277:A1 0.000305333
19 *1310:A1 *140:14 0.00089067
*RES
1 *1166:ZN *140:8 10.596 
2 *140:8 *140:14 7.54 
3 *140:14 *1277:A1 16.692 
4 *140:14 *1289:A2 4.5 
5 *140:8 *1310:A2 9 
*END

*D_NET *141 0.00887761
*CONN
*I *1264:A3 I *D gf180mcu_fd_sc_mcu7t5v0__nor4_1
*I *1295:A1 I *D gf180mcu_fd_sc_mcu7t5v0__oai21_1
*I *1312:A1 I *D gf180mcu_fd_sc_mcu7t5v0__aoi21_1
*I *1279:A1 I *D gf180mcu_fd_sc_mcu7t5v0__oai21_1
*I *1167:ZN O *D gf180mcu_fd_sc_mcu7t5v0__clkinv_1
*CAP
1 *1264:A3 0.000845566
2 *1295:A1 0.000347751
3 *1312:A1 0.000255587
4 *1279:A1 0.000207865
5 *1167:ZN 3.35075e-05
6 *141:29 0.00127312
7 *141:10 0.00104398
8 *141:8 0.00104541
9 *1264:A3 *1264:A2 0
10 *1264:A3 *1264:A4 2.05921e-05
11 *1264:A3 *1299:A1 1.44832e-05
12 *1264:A3 *1321:A1 6.19161e-05
13 *1264:A3 *1429:I 7.98466e-05
14 *1264:A3 *1522:I 0.000181778
15 *1264:A3 *1527:I 7.71175e-06
16 *1264:A3 *308:82 0
17 *1264:A3 *354:23 1.73887e-05
18 *1279:A1 *1278:A2 3.21533e-05
19 *1279:A1 *253:42 0.000317494
20 *1279:A1 *328:27 0
21 *1295:A1 *1295:A2 0.000151957
22 *1295:A1 *1300:A2 0
23 *1295:A1 *299:14 0
24 *1312:A1 *1321:A1 2.59005e-05
25 *1312:A1 *253:65 0
26 *141:8 *1429:I 0.000268273
27 *141:29 *1300:A1 0.000258197
28 *141:29 *1313:A1 0
29 *141:29 *1313:A2 0
30 *141:29 *1321:A1 0.00082598
31 *141:29 *253:65 0
32 *141:29 *354:48 0.000202252
33 *1455:RN *141:29 0.000376901
34 *1462:D *1264:A3 9.65141e-05
35 *1474:RN *1264:A3 0.000209107
36 *1475:D *1279:A1 0.00026286
37 *1505:I *141:8 0.000158878
38 *1505:I *141:10 0.000254643
*RES
1 *1167:ZN *141:8 9.836 
2 *141:8 *141:10 1.596 
3 *141:10 *1279:A1 10.976 
4 *141:10 *141:29 11.568 
5 *141:29 *1312:A1 6.172 
6 *141:29 *1295:A1 15.704 
7 *141:8 *1264:A3 15.232 
*END

*D_NET *142 0.0089161
*CONN
*I *1299:A1 I *D gf180mcu_fd_sc_mcu7t5v0__oai21_1
*I *1263:A1 I *D gf180mcu_fd_sc_mcu7t5v0__nor4_1
*I *1281:A1 I *D gf180mcu_fd_sc_mcu7t5v0__aoi21_1
*I *1283:A1 I *D gf180mcu_fd_sc_mcu7t5v0__oai21_1
*I *1168:ZN O *D gf180mcu_fd_sc_mcu7t5v0__clkinv_1
*CAP
1 *1299:A1 0.000177321
2 *1263:A1 0.00125753
3 *1281:A1 1.97778e-05
4 *1283:A1 0.000372139
5 *1168:ZN 0
6 *142:36 0.00161962
7 *142:25 0.000455695
8 *142:6 0.000623287
9 *1263:A1 *352:39 0
10 *1281:A1 *308:52 7.83779e-05
11 *1281:A1 *328:27 1.52768e-05
12 *1283:A1 *1283:A2 0.000530811
13 *1283:A1 *1315:A1 0.000151046
14 *1283:A1 *308:28 0.000310758
15 *1283:A1 *308:48 0.000119796
16 *1283:A1 *353:10 6.09452e-05
17 *1299:A1 *1280:A1 3.95711e-05
18 *1299:A1 *1299:A2 0
19 *1299:A1 *1522:I 0.000379283
20 *1299:A1 *296:55 0.000394625
21 *1299:A1 *296:61 0.000550848
22 *1299:A1 *354:23 0.000110986
23 *142:25 *296:61 5.211e-05
24 *142:25 *308:48 0.000171289
25 *142:25 *308:52 0.000248576
26 *142:25 *328:27 3.95687e-05
27 *142:25 *353:10 0.000197178
28 *142:36 *1280:A1 6.43339e-05
29 *142:36 *296:61 0.000543373
30 *142:36 *352:39 0
31 *1264:A3 *1299:A1 1.44832e-05
32 *1462:D *1299:A1 0.000317503
*RES
1 *1168:ZN *142:6 9 
2 *142:6 *1283:A1 12.572 
3 *142:6 *142:25 7.084 
4 *142:25 *1281:A1 4.728 
5 *142:25 *142:36 5.944 
6 *142:36 *1263:A1 24.308 
7 *142:36 *1299:A1 12.344 
*END

*D_NET *143 0.00240091
*CONN
*I *1218:A1 I *D gf180mcu_fd_sc_mcu7t5v0__oai22_1
*I *1222:A1 I *D gf180mcu_fd_sc_mcu7t5v0__oai21_1
*I *1214:A1 I *D gf180mcu_fd_sc_mcu7t5v0__aoi22_1
*I *1169:ZN O *D gf180mcu_fd_sc_mcu7t5v0__clkinv_1
*CAP
1 *1218:A1 2.72747e-05
2 *1222:A1 8.81816e-05
3 *1214:A1 0.000146269
4 *1169:ZN 5.44394e-05
5 *143:12 0.000407586
6 *143:8 0.00025485
7 *1214:A1 *188:18 0.000129252
8 *1214:A1 *384:14 0
9 *1218:A1 *1217:B1 0.000317503
10 *1218:A1 *1219:A2 0.000255722
11 *1222:A1 *1222:B 0.000346437
12 *1222:A1 *1225:A2 0.000118479
13 *143:8 *1215:A2 0
14 *143:8 *1218:B1 6.57222e-06
15 *143:8 *188:18 3.16373e-05
16 *143:8 *384:14 0
17 *143:12 *188:18 0.000216708
18 *143:12 *384:14 0
*RES
1 *1169:ZN *143:8 9.38 
2 *143:8 *143:12 1.52 
3 *143:12 *1214:A1 9.912 
4 *143:12 *1222:A1 10.292 
5 *143:8 *1218:A1 9.836 
*END

*D_NET *144 0.00519955
*CONN
*I *1214:B2 I *D gf180mcu_fd_sc_mcu7t5v0__aoi22_1
*I *1217:A1 I *D gf180mcu_fd_sc_mcu7t5v0__oai22_1
*I *1297:A1 I *D gf180mcu_fd_sc_mcu7t5v0__aoi21_1
*I *1170:ZN O *D gf180mcu_fd_sc_mcu7t5v0__clkinv_1
*CAP
1 *1214:B2 0.000143628
2 *1217:A1 0
3 *1297:A1 0.000680208
4 *1170:ZN 0
5 *144:25 0.00051262
6 *144:4 0.0010492
7 *1214:B2 *1217:A2 6.38438e-05
8 *1214:B2 *1219:A2 0.000237367
9 *1214:B2 *1221:A2 2.57058e-06
10 *1214:B2 *1222:B 0.000135062
11 *1214:B2 *1225:A2 0.000203563
12 *1214:B2 *188:18 0.000170779
13 *1214:B2 *190:10 1.0961e-05
14 *1297:A1 *1170:I 3.08902e-05
15 *1297:A1 *1224:A1 3.94624e-05
16 *1297:A1 *1224:A2 4.04309e-05
17 *1297:A1 *1225:B1 2.6126e-05
18 *1297:A1 *1409:I 0
19 *1297:A1 *1417:I 0.000142809
20 *1297:A1 *199:76 0
21 *1297:A1 *283:35 0.000116995
22 *1297:A1 *307:32 0.000142801
23 *1297:A1 *317:27 3.2964e-05
24 *144:25 *1170:I 3.00299e-05
25 *144:25 *1217:B1 1.26428e-05
26 *144:25 *1219:A1 4.2318e-06
27 *144:25 *1219:A2 3.28093e-05
28 *144:25 *1221:A2 5.14116e-06
29 *144:25 *1224:A1 0.00015672
30 *144:25 *283:35 0.00116873
31 *144:25 *326:78 6.96334e-06
*RES
1 *1170:ZN *144:4 4.5 
2 *144:4 *1297:A1 17.908 
3 *144:4 *144:25 4.256 
4 *144:25 *1217:A1 4.5 
5 *144:25 *1214:B2 15.552 
*END

*D_NET *145 0.0027079
*CONN
*I *1217:B2 I *D gf180mcu_fd_sc_mcu7t5v0__oai22_1
*I *1215:A1 I *D gf180mcu_fd_sc_mcu7t5v0__aoi22_1
*I *1171:ZN O *D gf180mcu_fd_sc_mcu7t5v0__clkinv_1
*CAP
1 *1217:B2 0.000107345
2 *1215:A1 0.00027571
3 *1171:ZN 0.00011844
4 *145:8 0.000501495
5 *1215:A1 *1215:B2 2.25184e-05
6 *1215:A1 *1224:A1 5.11218e-05
7 *1215:A1 *1294:A1 3.25235e-05
8 *1215:A1 *146:23 0.000150768
9 *1215:A1 *188:18 0.000451108
10 *1215:A1 *383:20 9.88736e-06
11 *1217:B2 *188:18 2.10698e-05
12 *145:8 *1172:I 3.00299e-05
13 *145:8 *1224:A1 0.000734805
14 *145:8 *146:10 0.00020108
15 *145:8 *146:23 0
*RES
1 *1171:ZN *145:8 10.9 
2 *145:8 *1215:A1 11.736 
3 *145:8 *1217:B2 9.684 
*END

*D_NET *146 0.00512843
*CONN
*I *1215:B2 I *D gf180mcu_fd_sc_mcu7t5v0__aoi22_1
*I *1218:B2 I *D gf180mcu_fd_sc_mcu7t5v0__oai22_1
*I *1301:A1 I *D gf180mcu_fd_sc_mcu7t5v0__aoi21_1
*I *1172:ZN O *D gf180mcu_fd_sc_mcu7t5v0__clkinv_1
*CAP
1 *1215:B2 1.75567e-05
2 *1218:B2 0.000149091
3 *1301:A1 0.000658871
4 *1172:ZN 0.000214998
5 *146:23 0.000430981
6 *146:10 0.0011382
7 *1215:B2 *199:76 0.000123561
8 *1215:B2 *383:20 1.5015e-05
9 *1218:B2 *1218:B1 0.0002108
10 *1218:B2 *1294:A1 3.71997e-05
11 *1218:B2 *188:18 2.10727e-05
12 *1301:A1 *1300:A2 4.08987e-05
13 *1301:A1 *1409:I 0
14 *1301:A1 *199:76 0
15 *146:10 *1172:I 3.08902e-05
16 *146:10 *1224:A1 2.23477e-05
17 *146:10 *1224:A4 5.65687e-05
18 *146:10 *199:76 0
19 *146:23 *1172:I 1.15275e-05
20 *146:23 *1224:A4 6.68265e-05
21 *146:23 *199:76 0.00150765
22 *1215:A1 *1215:B2 2.25184e-05
23 *1215:A1 *146:23 0.000150768
24 *145:8 *146:10 0.00020108
25 *145:8 *146:23 0
*RES
1 *1172:ZN *146:10 10.672 
2 *146:10 *1301:A1 13.028 
3 *146:10 *146:23 8.376 
4 *146:23 *1218:B2 14.944 
5 *146:23 *1215:B2 4.88 
*END

*D_NET *147 0.00272698
*CONN
*I *1212:A1 I *D gf180mcu_fd_sc_mcu7t5v0__oai22_1
*I *1303:A1 I *D gf180mcu_fd_sc_mcu7t5v0__aoi21_1
*I *1173:ZN O *D gf180mcu_fd_sc_mcu7t5v0__clkinv_1
*CAP
1 *1212:A1 0.000105717
2 *1303:A1 0.000463715
3 *1173:ZN 0
4 *147:4 0.000569432
5 *1212:A1 *1173:I 9.26705e-05
6 *1212:A1 *1207:B2 0.000540871
7 *1212:A1 *339:25 0
8 *1303:A1 *1173:I 0.000141194
9 *1303:A1 *1176:I 3.57979e-05
10 *1303:A1 *1207:B2 0.000317503
11 *1303:A1 *1211:A1 0
12 *1303:A1 *1223:A4 0.000185032
13 *1303:A1 *1309:A1 9.52854e-05
14 *1303:A1 *150:8 0.000118153
15 *1303:A1 *339:12 2.75102e-05
16 *1457:RN *1303:A1 3.40956e-05
*RES
1 *1173:ZN *147:4 4.5 
2 *147:4 *1303:A1 18.06 
3 *147:4 *1212:A1 5.944 
*END

*D_NET *148 0.00456716
*CONN
*I *1212:B2 I *D gf180mcu_fd_sc_mcu7t5v0__oai22_1
*I *1305:A1 I *D gf180mcu_fd_sc_mcu7t5v0__aoi21_1
*I *1174:ZN O *D gf180mcu_fd_sc_mcu7t5v0__clkinv_1
*CAP
1 *1212:B2 0.000834572
2 *1305:A1 0.000492056
3 *1174:ZN 0.000320994
4 *148:12 0.00164762
5 *1212:B2 *1207:B2 0.000266297
6 *1212:B2 *1210:A1 0
7 *1212:B2 *1213:A1 2.57058e-06
8 *1212:B2 *1223:A3 0
9 *1212:B2 *149:23 0.000127244
10 *1212:B2 *313:118 2.53159e-05
11 *1212:B2 *338:25 0
12 *1305:A1 *1306:A2 4.50449e-05
13 *1305:A1 *1307:A2 5.11006e-05
14 *1305:A1 *1307:B 9.92577e-05
15 *1305:A1 *306:35 2.61316e-05
16 *1305:A1 *306:41 4.76572e-05
17 *1305:A1 *313:103 0.000287
18 *1305:A1 *313:118 7.00332e-05
19 *148:12 *1174:I 3.08902e-05
20 *148:12 *1175:I 6.44634e-06
21 *148:12 *1412:I 0
22 *148:12 *313:118 7.39334e-05
23 *1458:RN *1305:A1 0
24 *1458:RN *148:12 8.49277e-05
25 *1460:RN *1212:B2 2.80654e-05
*RES
1 *1174:ZN *148:12 11.052 
2 *148:12 *1305:A1 13.256 
3 *148:12 *1212:B2 14.7 
*END

*D_NET *149 0.00645392
*CONN
*I *1211:A1 I *D gf180mcu_fd_sc_mcu7t5v0__oai22_1
*I *1210:A1 I *D gf180mcu_fd_sc_mcu7t5v0__nand2_1
*I *1307:A1 I *D gf180mcu_fd_sc_mcu7t5v0__aoi21_1
*I *1175:ZN O *D gf180mcu_fd_sc_mcu7t5v0__clkinv_1
*CAP
1 *1211:A1 0.000328008
2 *1210:A1 0.000120296
3 *1307:A1 0.00023012
4 *1175:ZN 2.57501e-05
5 *149:23 0.001418
6 *149:8 0.00122557
7 *1210:A1 *1210:A2 0.000142809
8 *1210:A1 *1213:A1 0.000220202
9 *1210:A1 *1213:A2 0.000154451
10 *1211:A1 *1210:A2 2.68479e-05
11 *1211:A1 *1211:B1 1.5015e-05
12 *1211:A1 *1211:B2 2.57888e-05
13 *1211:A1 *1213:A2 0
14 *1211:A1 *150:8 0
15 *1307:A1 *1459:CLK 0.00031512
16 *1307:A1 *1543:I 0.000636357
17 *1307:A1 *295:87 0.000172494
18 *1307:A1 *313:103 0.000206174
19 *149:8 *1543:I 0.000118153
20 *149:8 *313:103 8.59272e-06
21 *149:23 *1412:I 7.26603e-05
22 *149:23 *313:118 0.000178231
23 *149:23 *336:8 8.66109e-05
24 *1212:B2 *1210:A1 0
25 *1212:B2 *149:23 0.000127244
26 *1303:A1 *1211:A1 0
27 *1458:D *1307:A1 0.000313242
28 *1458:RN *149:8 0.000206333
29 *1458:RN *149:23 7.98484e-05
*RES
1 *1175:ZN *149:8 9.684 
2 *149:8 *1307:A1 12.952 
3 *149:8 *149:23 11.112 
4 *149:23 *1210:A1 14.944 
5 *149:23 *1211:A1 15.628 
*END

*D_NET *150 0.00179564
*CONN
*I *1211:B2 I *D gf180mcu_fd_sc_mcu7t5v0__oai22_1
*I *1309:A1 I *D gf180mcu_fd_sc_mcu7t5v0__aoi21_1
*I *1176:ZN O *D gf180mcu_fd_sc_mcu7t5v0__clkinv_1
*CAP
1 *1211:B2 0.000193313
2 *1309:A1 0.000192018
3 *1176:ZN 5.19006e-05
4 *150:8 0.000437232
5 *1211:B2 *1303:A2 7.32209e-05
6 *1211:B2 *1303:B 0.000116057
7 *1309:A1 *1303:A2 0.000163658
8 *1309:A1 *306:21 8.8608e-05
9 *150:8 *1303:A2 8.15645e-05
10 *1211:A1 *1211:B2 2.57888e-05
11 *1211:A1 *150:8 0
12 *1303:A1 *1309:A1 9.52854e-05
13 *1303:A1 *150:8 0.000118153
14 *1457:D *1309:A1 9.52854e-05
15 *1457:RN *1211:B2 4.81513e-05
16 *1457:RN *1309:A1 1.54035e-05
*RES
1 *1176:ZN *150:8 9.684 
2 *150:8 *1309:A1 10.824 
3 *150:8 *1211:B2 10.596 
*END

*D_NET *151 0.00601054
*CONN
*I *1314:A1 I *D gf180mcu_fd_sc_mcu7t5v0__oai21_1
*I *1199:B2 I *D gf180mcu_fd_sc_mcu7t5v0__aoi22_1
*I *1205:A1 I *D gf180mcu_fd_sc_mcu7t5v0__oai222_1
*I *1177:ZN O *D gf180mcu_fd_sc_mcu7t5v0__clkinv_1
*CAP
1 *1314:A1 0
2 *1199:B2 0.000193177
3 *1205:A1 8.83963e-05
4 *1177:ZN 0.000210564
5 *151:22 0.00186605
6 *151:12 0.00179504
7 *1199:B2 *1199:B1 0.000117921
8 *1199:B2 *1200:A1 5.27013e-05
9 *1199:B2 *1200:C 0.00025334
10 *1199:B2 *1203:A2 8.0352e-06
11 *1199:B2 *1206:A2 0.000265463
12 *1205:A1 *1199:B1 5.05292e-05
13 *1205:A1 *1206:A2 5.47903e-05
14 *1205:A1 *1206:A4 3.19854e-05
15 *151:12 *1177:I 8.18282e-05
16 *151:12 *1314:B 6.25956e-05
17 *151:12 *1510:I 3.09285e-05
18 *151:12 *330:43 0.000419633
19 *151:22 *1300:A1 3.03271e-05
20 *151:22 *1510:I 1.94613e-05
21 *151:22 *330:43 0.000271348
22 *1455:D *151:12 0.00010642
*RES
1 *1177:ZN *151:12 6.628 
2 *151:12 *151:22 21.708 
3 *151:22 *1205:A1 9.684 
4 *151:22 *1199:B2 11.28 
5 *151:12 *1314:A1 4.5 
*END

*D_NET *152 0.00554069
*CONN
*I *1205:B2 I *D gf180mcu_fd_sc_mcu7t5v0__oai222_1
*I *1201:B2 I *D gf180mcu_fd_sc_mcu7t5v0__aoi221_1
*I *1316:A1 I *D gf180mcu_fd_sc_mcu7t5v0__oai21_1
*I *1178:ZN O *D gf180mcu_fd_sc_mcu7t5v0__clkinv_1
*CAP
1 *1205:B2 0.00029893
2 *1201:B2 0
3 *1316:A1 0.000234272
4 *1178:ZN 7.59658e-05
5 *152:25 0.00114485
6 *152:10 0.00115616
7 *1205:B2 *1201:B1 0.00032883
8 *1205:B2 *1202:A2 0.00015275
9 *1205:B2 *1205:B1 0.000131489
10 *1205:B2 *153:27 0.000140588
11 *1205:B2 *375:6 2.6126e-05
12 *1316:A1 *1195:A2 0.000221732
13 *1316:A1 *1195:A4 0
14 *1316:A1 *1316:B 0.000154451
15 *1316:A1 *1319:A2 1.2339e-05
16 *1316:A1 *305:58 1.91917e-06
17 *1316:A1 *305:62 0
18 *1316:A1 *331:8 0
19 *1316:A1 *333:8 1.02578e-05
20 *152:10 *1195:A1 0
21 *152:10 *1319:A2 1.47007e-05
22 *152:10 *1319:B 0.000102192
23 *152:25 *1195:A1 5.48085e-05
24 *152:25 *1195:A2 0.000141897
25 *152:25 *1195:A4 0
26 *152:25 *1196:A1 0
27 *152:25 *1196:A2 0.000142963
28 *152:25 *1197:A2 1.0477e-05
29 *152:25 *1197:B 0.000376901
30 *152:25 *1201:B1 9.88736e-06
31 *152:25 *1202:A2 4.84531e-05
32 *152:25 *1317:I0 5.8669e-05
33 *152:25 *153:27 0.000389737
34 *152:25 *330:43 0
35 *1452:D *1316:A1 9.935e-05
*RES
1 *1178:ZN *152:10 14.184 
2 *152:10 *1316:A1 6.78 
3 *152:10 *152:25 7.524 
4 *152:25 *1201:B2 4.5 
5 *152:25 *1205:B2 7.768 
*END

*D_NET *153 0.00721456
*CONN
*I *1203:B2 I *D gf180mcu_fd_sc_mcu7t5v0__aoi221_1
*I *1205:C2 I *D gf180mcu_fd_sc_mcu7t5v0__oai222_1
*I *1319:A1 I *D gf180mcu_fd_sc_mcu7t5v0__oai21_1
*I *1179:ZN O *D gf180mcu_fd_sc_mcu7t5v0__clkinv_1
*CAP
1 *1203:B2 0.000138689
2 *1205:C2 3.27258e-05
3 *1319:A1 0.000142274
4 *1179:ZN 0
5 *153:27 0.00110929
6 *153:4 0.00108015
7 *1203:B2 *1199:B1 6.1992e-06
8 *1203:B2 *1202:A2 0.000424388
9 *1203:B2 *179:16 0.000264821
10 *1203:B2 *318:56 0.000105476
11 *1203:B2 *375:10 0.000324241
12 *1205:C2 *318:56 7.39288e-05
13 *1205:C2 *375:10 0.000278996
14 *1319:A1 *1319:A2 3.80391e-05
15 *153:27 *1195:A3 0
16 *153:27 *1195:A4 0.000334794
17 *153:27 *1198:A1 0.000430201
18 *153:27 *1205:B1 0.000477429
19 *153:27 *1317:I0 0.000253635
20 *153:27 *292:66 0.000502108
21 *153:27 *305:62 0.000666844
22 *1205:B2 *153:27 0.000140588
23 *1452:D *1319:A1 0
24 *152:25 *153:27 0.000389737
*RES
1 *1179:ZN *153:4 4.5 
2 *153:4 *1319:A1 14.488 
3 *153:4 *153:27 15.52 
4 *153:27 *1205:C2 9.684 
5 *153:27 *1203:B2 11.28 
*END

*D_NET *154 0.0025278
*CONN
*I *1322:A1 I *D gf180mcu_fd_sc_mcu7t5v0__oai21_1
*I *1199:A2 I *D gf180mcu_fd_sc_mcu7t5v0__aoi22_1
*I *1200:A2 I *D gf180mcu_fd_sc_mcu7t5v0__oai221_1
*I *1180:ZN O *D gf180mcu_fd_sc_mcu7t5v0__clkinv_1
*CAP
1 *1322:A1 0.000104776
2 *1199:A2 0.000108948
3 *1200:A2 0.000216113
4 *1180:ZN 7.03505e-05
5 *154:10 0.000357864
6 *154:8 0.00020793
7 *1199:A2 *1194:A2 5.89887e-05
8 *1199:A2 *1200:A1 0.00032464
9 *1199:A2 *1450:CLK 7.49908e-05
10 *1200:A2 *1200:A1 1.02578e-05
11 *1200:A2 *1203:A2 1.53696e-05
12 *1200:A2 *328:34 1.83267e-05
13 *1322:A1 *1321:A2 0.000140663
14 *1322:A1 *1450:CLK 0.000206995
15 *1322:A1 *253:65 0.000140658
16 *1322:A1 *292:72 0.000104481
17 *1322:A1 *328:34 0
18 *154:8 *1194:A2 7.98466e-05
19 *154:8 *1450:CLK 0.000286604
*RES
1 *1180:ZN *154:8 5.412 
2 *154:8 *154:10 0.228 
3 *154:10 *1200:A2 6.02 
4 *154:10 *1199:A2 6.096 
5 *154:8 *1322:A1 14.868 
*END

*D_NET *155 0.00150232
*CONN
*I *1201:A2 I *D gf180mcu_fd_sc_mcu7t5v0__aoi221_1
*I *1197:A1 I *D gf180mcu_fd_sc_mcu7t5v0__aoi21_1
*I *1181:ZN O *D gf180mcu_fd_sc_mcu7t5v0__clkinv_1
*CAP
1 *1201:A2 0.000170053
2 *1197:A1 5.43006e-06
3 *1181:ZN 0.000180405
4 *155:8 0.000355888
5 *1197:A1 *1197:B 8.55242e-05
6 *1197:A1 *1202:A2 8.55242e-05
7 *1201:A2 *1194:A2 1.83298e-05
8 *1201:A2 *1197:B 4.61878e-05
9 *1201:A2 *1202:A2 4.51089e-05
10 *1201:A2 *1204:A1 0.000144931
11 *1201:A2 *1206:A1 0.000307983
12 *155:8 *1197:B 1.28891e-05
13 *155:8 *1201:C 4.40663e-05
*RES
1 *1181:ZN *155:8 10.14 
2 *155:8 *1197:A1 9.228 
3 *155:8 *1201:A2 10.52 
*END

*D_NET *156 0.000730317
*CONN
*I *1324:A2 I *D gf180mcu_fd_sc_mcu7t5v0__nor3_1
*I *1182:ZN O *D gf180mcu_fd_sc_mcu7t5v0__clkinv_1
*CAP
1 *1324:A2 0.000136831
2 *1182:ZN 0.000136831
3 *1324:A2 *1231:A2 0
4 *1324:A2 *1324:A3 0.000180655
5 *1324:A2 *372:10 0.000275999
*RES
1 *1182:ZN *1324:A2 10.292 
*END

*D_NET *157 0.0033098
*CONN
*I *1343:A2 I *D gf180mcu_fd_sc_mcu7t5v0__oai32_1
*I *1245:A2 I *D gf180mcu_fd_sc_mcu7t5v0__nor3_1
*I *1268:A2 I *D gf180mcu_fd_sc_mcu7t5v0__xor2_1
*I *1183:ZN O *D gf180mcu_fd_sc_mcu7t5v0__clkinv_1
*CAP
1 *1343:A2 0.000167177
2 *1245:A2 7.20664e-06
3 *1268:A2 0.000478334
4 *1183:ZN 0.000411884
5 *157:24 0.000240834
6 *1245:A2 *1245:A3 1.5015e-05
7 *1245:A2 *1269:A2 7.59351e-05
8 *1268:A2 *297:61 0
9 *1268:A2 *315:32 2.59502e-05
10 *1268:A2 *315:43 7.95952e-05
11 *1268:A2 *360:8 0
12 *1268:A2 *360:23 0
13 *1343:A2 *1245:A3 0.000448201
14 *1343:A2 *1268:A1 0.000958182
15 *1343:A2 *1269:A2 0
16 *1343:A2 *1343:A3 0.000126613
17 *1343:A2 *1343:B1 5.76373e-06
18 *157:24 *1268:A1 6.77492e-05
19 *157:24 *1269:A2 0.00011955
20 *157:24 *360:23 2.05156e-05
21 *1495:D *1343:A2 0
22 *1500:SETN *1268:A2 6.12935e-05
*RES
1 *1183:ZN *1268:A2 20.584 
2 *1268:A2 *157:24 5.412 
3 *157:24 *1245:A2 4.804 
4 *157:24 *1343:A2 7.692 
*END

*D_NET *158 0.00341701
*CONN
*I *1237:A2 I *D gf180mcu_fd_sc_mcu7t5v0__nor3_1
*I *1236:A1 I *D gf180mcu_fd_sc_mcu7t5v0__nor2_1
*I *1238:A2 I *D gf180mcu_fd_sc_mcu7t5v0__or3_1
*I *1184:ZN O *D gf180mcu_fd_sc_mcu7t5v0__clkinv_1
*CAP
1 *1237:A2 0.000109303
2 *1236:A1 0
3 *1238:A2 1.30068e-05
4 *1184:ZN 0.000152103
5 *158:17 0.000227996
6 *158:6 0.000283804
7 *1237:A2 *1237:A3 0.000310356
8 *1237:A2 *319:30 0.000433917
9 *1237:A2 *358:12 0.000140167
10 *1237:A2 *358:23 8.8608e-05
11 *1238:A2 *1272:A2 0.000140167
12 *1238:A2 *1350:A1 5.1289e-05
13 *158:6 *1249:B 0.000191947
14 *158:6 *1272:A2 0.00101904
15 *158:6 *1350:A1 2.61529e-05
16 *158:17 *1238:A3 0.000158878
17 *158:17 *358:23 7.02696e-05
*RES
1 *1184:ZN *158:6 7.16 
2 *158:6 *1238:A2 4.88 
3 *158:6 *158:17 5.64 
4 *158:17 *1236:A1 9 
5 *158:17 *1237:A2 10.824 
*END

*D_NET *159 0.00137205
*CONN
*I *1243:A2 I *D gf180mcu_fd_sc_mcu7t5v0__and4_1
*I *1185:ZN O *D gf180mcu_fd_sc_mcu7t5v0__clkinv_1
*CAP
1 *1243:A2 0.000140142
2 *1185:ZN 0.000140142
3 *1243:A2 *1243:A1 9.26705e-05
4 *1243:A2 *1249:B 0.000803732
5 *1243:A2 *1502:D 0.000113131
6 *1243:A2 *1502:CLK 8.22324e-05
*RES
1 *1185:ZN *1243:A2 11.432 
*END

*D_NET *160 0.00199923
*CONN
*I *1341:A1 I *D gf180mcu_fd_sc_mcu7t5v0__oai22_1
*I *1186:ZN O *D gf180mcu_fd_sc_mcu7t5v0__clkinv_1
*CAP
1 *1341:A1 0.000402511
2 *1186:ZN 0.000402511
3 *1341:A1 *1186:I 0.000257656
4 *1341:A1 *1341:B2 8.32283e-05
5 *1341:A1 *293:24 3.62067e-05
6 *1341:A1 *293:26 1.68882e-05
7 *1341:A1 *293:30 1.56436e-05
8 *1341:A1 *310:36 0.000728766
9 *1341:A1 *319:30 1.84551e-05
10 *1496:D *1341:A1 3.73627e-05
*RES
1 *1186:ZN *1341:A1 21.648 
*END

*D_NET *161 0.000196821
*CONN
*I *1343:B2 I *D gf180mcu_fd_sc_mcu7t5v0__oai32_1
*I *1187:ZN O *D gf180mcu_fd_sc_mcu7t5v0__clkinv_1
*CAP
1 *1343:B2 9.84103e-05
2 *1187:ZN 9.84103e-05
*RES
1 *1187:ZN *1343:B2 9.684 
*END

*D_NET *162 0.00115787
*CONN
*I *1342:B2 I *D gf180mcu_fd_sc_mcu7t5v0__oai22_1
*I *1188:ZN O *D gf180mcu_fd_sc_mcu7t5v0__clkinv_1
*CAP
1 *1342:B2 0.000117706
2 *1188:ZN 0.000117706
3 *1342:B2 *1186:I 0.000402298
4 *1342:B2 *1341:B1 0.000320921
5 *1342:B2 *1342:A1 3.61533e-05
6 *1342:B2 *270:22 0.00014967
7 *1342:B2 *366:12 1.01664e-05
8 *1493:RN *1342:B2 3.25242e-06
*RES
1 *1188:ZN *1342:B2 19.672 
*END

*D_NET *163 0.00124402
*CONN
*I *1341:B2 I *D gf180mcu_fd_sc_mcu7t5v0__oai22_1
*I *1189:ZN O *D gf180mcu_fd_sc_mcu7t5v0__clkinv_1
*CAP
1 *1341:B2 0.000370284
2 *1189:ZN 0.000370284
3 *1341:B2 *1186:I 0
4 *1341:B2 *1342:A2 3.54258e-05
5 *1341:B2 *1465:CLK 0.000310356
6 *1341:A1 *1341:B2 8.32283e-05
7 *1493:RN *1341:B2 3.70802e-05
8 *1496:D *1341:B2 3.73627e-05
*RES
1 *1189:ZN *1341:B2 11.888 
*END

*D_NET *164 0.00100112
*CONN
*I *1226:A2 I *D gf180mcu_fd_sc_mcu7t5v0__and2_1
*I *1228:A4 I *D gf180mcu_fd_sc_mcu7t5v0__nand4_1
*I *1190:ZN O *D gf180mcu_fd_sc_mcu7t5v0__clkinv_1
*CAP
1 *1226:A2 9.7204e-05
2 *1228:A4 0
3 *1190:ZN 5.96778e-05
4 *164:10 0.000156882
5 *1226:A2 *1226:A1 0.000164236
6 *1226:A2 *1228:A1 1.15275e-05
7 *1226:A2 *1228:A2 0.000141897
8 *164:10 *1228:A3 6.12449e-05
9 *164:10 *300:31 2.94576e-05
10 *164:10 *377:16 0.000278996
*RES
1 *1190:ZN *164:10 14.336 
2 *164:10 *1228:A4 4.5 
3 *164:10 *1226:A2 5.716 
*END

*D_NET *165 0.00652072
*CONN
*I *1363:A1 I *D gf180mcu_fd_sc_mcu7t5v0__nor2_1
*I *1364:A1 I *D gf180mcu_fd_sc_mcu7t5v0__and2_1
*I *1208:A2 I *D gf180mcu_fd_sc_mcu7t5v0__nand2_1
*I *1207:A2 I *D gf180mcu_fd_sc_mcu7t5v0__oai22_1
*I *1191:ZN O *D gf180mcu_fd_sc_mcu7t5v0__clkinv_1
*CAP
1 *1363:A1 0
2 *1364:A1 0.000159626
3 *1208:A2 9.34624e-05
4 *1207:A2 0
5 *1191:ZN 0
6 *165:24 0.000276877
7 *165:6 0.000521075
8 *165:4 0.000544865
9 *1208:A2 *1207:A1 0.000307905
10 *1208:A2 *1209:A2 9.60894e-06
11 *1208:A2 *1225:B1 0.000179609
12 *1208:A2 *339:25 3.08902e-05
13 *1364:A1 *1220:A2 2.33043e-05
14 *1364:A1 *1363:A2 0.000158886
15 *1364:A1 *280:10 6.73834e-05
16 *165:6 *1207:B1 1.44832e-05
17 *165:6 *1209:A1 0.000142209
18 *165:6 *1209:A2 2.05156e-05
19 *165:6 *1212:A2 0.00310559
20 *165:6 *1220:A1 0.00046655
21 *165:6 *1225:B1 2.17248e-05
22 *165:6 *1397:I 0.000111858
23 *165:6 *180:6 0.000196402
24 *1443:RN *165:6 6.78931e-05
*RES
1 *1191:ZN *165:4 4.5 
2 *165:4 *165:6 8.284 
3 *165:6 *1207:A2 4.5 
4 *165:6 *1208:A2 5.868 
5 *165:4 *165:24 5.184 
6 *165:24 *1364:A1 10.52 
7 *165:24 *1363:A1 9 
*END

*D_NET *166 0.00131234
*CONN
*I *1360:A1 I *D gf180mcu_fd_sc_mcu7t5v0__nand2_1
*I *1207:B1 I *D gf180mcu_fd_sc_mcu7t5v0__oai22_1
*I *1192:ZN O *D gf180mcu_fd_sc_mcu7t5v0__clkinv_1
*CAP
1 *1360:A1 3.18887e-05
2 *1207:B1 0.000238377
3 *1192:ZN 8.81374e-05
4 *166:6 0.000358403
5 *1207:B1 *1207:B2 0
6 *1207:B1 *1209:A1 2.05156e-05
7 *1207:B1 *1209:A2 0.000254112
8 *1207:B1 *1212:B1 4.52262e-05
9 *1207:B1 *1213:B 8.55242e-05
10 *1207:B1 *1220:A1 0.000129883
11 *1360:A1 *1220:A1 3.07734e-05
12 *166:6 *381:18 1.5015e-05
13 *165:6 *1207:B1 1.44832e-05
*RES
1 *1192:ZN *166:6 5.184 
2 *166:6 *1207:B1 6.856 
3 *166:6 *1360:A1 4.88 
*END

*D_NET *167 0.000686145
*CONN
*I *1196:A1 I *D gf180mcu_fd_sc_mcu7t5v0__nand2_1
*I *1194:ZN O *D gf180mcu_fd_sc_mcu7t5v0__nor3_1
*CAP
1 *1196:A1 0.00010629
2 *1194:ZN 0.00010629
3 *1196:A1 *1196:A2 1.5015e-05
4 *1196:A1 *1197:A2 8.64142e-05
5 *1196:A1 *330:45 0.000372137
6 *152:25 *1196:A1 0
*RES
1 *1194:ZN *1196:A1 10.216 
*END

*D_NET *168 0.00211653
*CONN
*I *1196:A2 I *D gf180mcu_fd_sc_mcu7t5v0__nand2_1
*I *1195:ZN O *D gf180mcu_fd_sc_mcu7t5v0__nor4_1
*CAP
1 *1196:A2 0.000372347
2 *1195:ZN 0.000372347
3 *1196:A2 *1195:A1 8.18282e-05
4 *1196:A2 *305:70 0.000363388
5 *1196:A2 *305:83 0.000648795
6 *1196:A2 *330:43 7.14125e-05
7 *1196:A2 *330:45 2.86555e-05
8 *1196:A1 *1196:A2 1.5015e-05
9 *1455:D *1196:A2 1.97747e-05
10 *152:25 *1196:A2 0.000142963
*RES
1 *1195:ZN *1196:A2 13.104 
*END

*D_NET *169 0.000412499
*CONN
*I *1197:A2 I *D gf180mcu_fd_sc_mcu7t5v0__aoi21_1
*I *1196:ZN O *D gf180mcu_fd_sc_mcu7t5v0__nand2_1
*CAP
1 *1197:A2 0.000133526
2 *1196:ZN 0.000133526
3 *1197:A2 *1194:A2 5.76373e-06
4 *1197:A2 *1202:A2 4.27914e-05
5 *1197:A2 *328:27 0
6 *1196:A1 *1197:A2 8.64142e-05
7 *152:25 *1197:A2 1.0477e-05
*RES
1 *1196:ZN *1197:A2 10.064 
*END

*D_NET *170 0.00159644
*CONN
*I *1206:A1 I *D gf180mcu_fd_sc_mcu7t5v0__nor4_1
*I *1197:ZN O *D gf180mcu_fd_sc_mcu7t5v0__aoi21_1
*CAP
1 *1206:A1 0.000186996
2 *1197:ZN 0.000186996
3 *1206:A1 *1202:A2 0.0004656
4 *1206:A1 *1204:A1 0.000337216
5 *1206:A1 *1206:A2 2.6126e-05
6 *1206:A1 *179:16 8.55242e-05
7 *1201:A2 *1206:A1 0.000307983
*RES
1 *1197:ZN *1206:A1 12.192 
*END

*D_NET *171 0.000516428
*CONN
*I *1201:C I *D gf180mcu_fd_sc_mcu7t5v0__aoi221_1
*I *1198:Z O *D gf180mcu_fd_sc_mcu7t5v0__xor2_1
*CAP
1 *1201:C 0.00013301
2 *1198:Z 0.00013301
3 *1201:C *1197:B 0.000206341
4 *155:8 *1201:C 4.40663e-05
*RES
1 *1198:Z *1201:C 19.14 
*END

*D_NET *172 0.000745092
*CONN
*I *1200:C I *D gf180mcu_fd_sc_mcu7t5v0__oai221_1
*I *1199:ZN O *D gf180mcu_fd_sc_mcu7t5v0__aoi22_1
*CAP
1 *1200:C 0.000195944
2 *1199:ZN 0.000195944
3 *1200:C *1200:A1 1.15275e-05
4 *1200:C *1203:A2 7.59985e-05
5 *1200:C *370:16 0
6 *1199:B2 *1200:C 0.00025334
7 *135:10 *1200:C 1.2339e-05
*RES
1 *1199:ZN *1200:C 10.672 
*END

*D_NET *173 0.00210037
*CONN
*I *1206:A2 I *D gf180mcu_fd_sc_mcu7t5v0__nor4_1
*I *1200:ZN O *D gf180mcu_fd_sc_mcu7t5v0__oai221_1
*CAP
1 *1206:A2 0.000195572
2 *1200:ZN 0.000195572
3 *1206:A2 *1199:B1 8.64281e-06
4 *1206:A2 *1204:A1 0.000309093
5 *1206:A2 *1206:A4 0.000243508
6 *1206:A2 *1513:I 0
7 *1206:A2 *179:16 0.000255283
8 *1206:A2 *318:56 0.000546323
9 *1199:B2 *1206:A2 0.000265463
10 *1205:A1 *1206:A2 5.47903e-05
11 *1206:A1 *1206:A2 2.6126e-05
*RES
1 *1200:ZN *1206:A2 21.42 
*END

*D_NET *174 0.00196314
*CONN
*I *1204:A1 I *D gf180mcu_fd_sc_mcu7t5v0__nand2_1
*I *1201:ZN O *D gf180mcu_fd_sc_mcu7t5v0__aoi221_1
*CAP
1 *1204:A1 0.00037097
2 *1201:ZN 0.00037097
3 *1204:A1 *1194:A2 0.000248691
4 *1204:A1 *1203:A2 7.45328e-07
5 *1204:A1 *1204:A2 4.58601e-06
6 *1204:A1 *1206:A3 0.000103199
7 *1204:A1 *179:16 5.23685e-05
8 *1200:B2 *1204:A1 2.03665e-05
9 *1201:A2 *1204:A1 0.000144931
10 *1206:A1 *1204:A1 0.000337216
11 *1206:A2 *1204:A1 0.000309093
*RES
1 *1201:ZN *1204:A1 13.56 
*END

*D_NET *175 0.000822183
*CONN
*I *1203:C I *D gf180mcu_fd_sc_mcu7t5v0__aoi221_1
*I *1202:Z O *D gf180mcu_fd_sc_mcu7t5v0__xor2_1
*CAP
1 *1203:C 0.000303213
2 *1202:Z 0.000303213
3 *1203:C *1161:I 4.52262e-05
4 *1203:C *1202:A2 0
5 *1203:C *1513:I 0
6 *1203:C *179:16 0.000113128
7 *135:10 *1203:C 5.74025e-05
*RES
1 *1202:Z *1203:C 11.432 
*END

*D_NET *176 0.000482817
*CONN
*I *1204:A2 I *D gf180mcu_fd_sc_mcu7t5v0__nand2_1
*I *1203:ZN O *D gf180mcu_fd_sc_mcu7t5v0__aoi221_1
*CAP
1 *1204:A2 9.70643e-05
2 *1203:ZN 9.70643e-05
3 *1204:A2 *1206:A3 1.02578e-05
4 *1204:A2 *179:16 2.52687e-05
5 *1200:B2 *1204:A2 0.000248576
6 *1204:A1 *1204:A2 4.58601e-06
*RES
1 *1203:ZN *1204:A2 9.912 
*END

*D_NET *177 0.000433318
*CONN
*I *1206:A3 I *D gf180mcu_fd_sc_mcu7t5v0__nor4_1
*I *1204:ZN O *D gf180mcu_fd_sc_mcu7t5v0__nand2_1
*CAP
1 *1206:A3 6.73381e-05
2 *1204:ZN 6.73381e-05
3 *1206:A3 *1206:A4 0.000185185
4 *1204:A1 *1206:A3 0.000103199
5 *1204:A2 *1206:A3 1.02578e-05
*RES
1 *1204:ZN *1206:A3 9.76 
*END

*D_NET *178 0.000963024
*CONN
*I *1206:A4 I *D gf180mcu_fd_sc_mcu7t5v0__nor4_1
*I *1205:ZN O *D gf180mcu_fd_sc_mcu7t5v0__oai222_1
*CAP
1 *1206:A4 0.000150498
2 *1205:ZN 0.000150498
3 *1206:A4 *1194:A2 3.08902e-05
4 *1206:A4 *318:56 0.000141148
5 *1206:A4 *328:34 2.93126e-05
6 *1205:A1 *1206:A4 3.19854e-05
7 *1206:A2 *1206:A4 0.000243508
8 *1206:A3 *1206:A4 0.000185185
*RES
1 *1205:ZN *1206:A4 19.52 
*END

*D_NET *179 0.00717825
*CONN
*I *1235:A1 I *D gf180mcu_fd_sc_mcu7t5v0__nor3_1
*I *1233:A1 I *D gf180mcu_fd_sc_mcu7t5v0__nor3_1
*I *1538:I I *D gf180mcu_fd_sc_mcu7t5v0__clkbuf_2
*I *1231:A1 I *D gf180mcu_fd_sc_mcu7t5v0__nor4_1
*I *1206:ZN O *D gf180mcu_fd_sc_mcu7t5v0__nor4_1
*CAP
1 *1235:A1 0.000156634
2 *1233:A1 0.00026984
3 *1538:I 0
4 *1231:A1 0.000538359
5 *1206:ZN 0.000352375
6 *179:38 0.000823926
7 *179:18 0.000792816
8 *179:16 0.00100428
9 *1231:A1 *1231:A2 0.00037608
10 *1231:A1 *302:10 0
11 *1231:A1 *325:27 9.34825e-05
12 *1231:A1 *372:36 0
13 *1233:A1 *1233:A2 9.72062e-05
14 *1233:A1 *1235:A2 4.68435e-05
15 *1233:A1 *300:25 0.000117074
16 *1233:A1 *370:16 5.77833e-05
17 *1235:A1 *1235:A2 0.000214849
18 *1235:A1 *1235:A3 4.83197e-05
19 *1235:A1 *325:27 5.52776e-05
20 *179:16 *1202:A2 0.000576586
21 *179:18 *1203:B1 0
22 *179:18 *325:27 0.000138789
23 *179:38 *1203:A2 0
24 *179:38 *1203:B1 0
25 *179:38 *1235:A3 1.85312e-05
26 *179:38 *1513:I 0
27 *179:38 *325:27 0.000264665
28 *1203:A1 *179:16 0
29 *1203:B2 *179:16 0.000264821
30 *1203:C *179:16 0.000113128
31 *1204:A1 *179:16 5.23685e-05
32 *1204:A2 *179:16 2.52687e-05
33 *1206:A1 *179:16 8.55242e-05
34 *1206:A2 *179:16 0.000255283
35 *1234:A1 *179:38 0.000229879
36 *1484:D *1235:A1 0.000100539
37 *1485:D *1233:A1 7.71175e-06
38 *135:10 *179:16 0
*RES
1 *1206:ZN *179:16 13.332 
2 *179:16 *179:18 1.9 
3 *179:18 *1231:A1 13.104 
4 *179:18 *1538:I 9 
5 *179:16 *179:38 3.572 
6 *179:38 *1233:A1 11.204 
7 *179:38 *1235:A1 10.596 
*END

*D_NET *180 0.00187583
*CONN
*I *1209:A1 I *D gf180mcu_fd_sc_mcu7t5v0__and2_1
*I *1213:C I *D gf180mcu_fd_sc_mcu7t5v0__aoi211_1
*I *1207:ZN O *D gf180mcu_fd_sc_mcu7t5v0__oai22_1
*CAP
1 *1209:A1 1.24779e-05
2 *1213:C 0.000303213
3 *1207:ZN 2.81184e-05
4 *180:6 0.000343809
5 *1209:A1 *1209:A2 2.59105e-05
6 *1213:C *1212:A2 3.40956e-05
7 *1213:C *1212:B1 0.000114943
8 *1213:C *1213:B 0.000254643
9 *1213:C *1220:A2 0.000264748
10 *1213:C *379:12 4.98282e-05
11 *180:6 *1209:A2 8.49129e-05
12 *1207:B1 *1209:A1 2.05156e-05
13 *165:6 *1209:A1 0.000142209
14 *165:6 *180:6 0.000196402
*RES
1 *1207:ZN *180:6 5.032 
2 *180:6 *1213:C 16.464 
3 *180:6 *1209:A1 4.88 
*END

*D_NET *181 0.00109383
*CONN
*I *1209:A2 I *D gf180mcu_fd_sc_mcu7t5v0__and2_1
*I *1208:ZN O *D gf180mcu_fd_sc_mcu7t5v0__nand2_1
*CAP
1 *1209:A2 0.000172717
2 *1208:ZN 0.000172717
3 *1209:A2 *1207:A1 9.40742e-05
4 *1209:A2 *1212:A2 0.000214218
5 *1209:A2 *1213:B 4.50449e-05
6 *1207:B1 *1209:A2 0.000254112
7 *1208:A2 *1209:A2 9.60894e-06
8 *1209:A1 *1209:A2 2.59105e-05
9 *165:6 *1209:A2 2.05156e-05
10 *180:6 *1209:A2 8.49129e-05
*RES
1 *1208:ZN *1209:A2 11.052 
*END

*D_NET *182 0.00709128
*CONN
*I *1220:A1 I *D gf180mcu_fd_sc_mcu7t5v0__oai211_1
*I *1209:Z O *D gf180mcu_fd_sc_mcu7t5v0__and2_1
*CAP
1 *1220:A1 0.00117454
2 *1209:Z 0.00117454
3 *1220:A1 *1212:A2 1.2339e-05
4 *1220:A1 *1212:B1 0
5 *1220:A1 *1220:A2 0.00044316
6 *1220:A1 *1220:B 3.08902e-05
7 *1220:A1 *1225:A2 1.15275e-05
8 *1220:A1 *1225:B1 0
9 *1220:A1 *1361:A2 0.0014886
10 *1220:A1 *1397:I 3.00299e-05
11 *1220:A1 *1534:I 0.000382269
12 *1220:A1 *283:12 0.00108082
13 *1220:A1 *381:18 0
14 *1220:A1 *382:8 5.14116e-06
15 *1207:B1 *1220:A1 0.000129883
16 *1360:A1 *1220:A1 3.07734e-05
17 *1443:RN *1220:A1 0.000429153
18 *1444:RN *1220:A1 0.00020108
19 *165:6 *1220:A1 0.00046655
*RES
1 *1209:Z *1220:A1 22.984 
*END

*D_NET *183 0.000767759
*CONN
*I *1213:A1 I *D gf180mcu_fd_sc_mcu7t5v0__aoi211_1
*I *1210:ZN O *D gf180mcu_fd_sc_mcu7t5v0__nand2_1
*CAP
1 *1213:A1 0.000135399
2 *1210:ZN 0.000135399
3 *1213:A1 *1207:B2 0
4 *1213:A1 *1210:A2 1.97747e-05
5 *1213:A1 *1212:B1 3.74244e-05
6 *1213:A1 *1213:A2 0.000124318
7 *1213:A1 *1220:A2 9.26705e-05
8 *1210:A1 *1213:A1 0.000220202
9 *1212:B2 *1213:A1 2.57058e-06
*RES
1 *1210:ZN *1213:A1 10.52 
*END

*D_NET *184 0.000814585
*CONN
*I *1213:A2 I *D gf180mcu_fd_sc_mcu7t5v0__aoi211_1
*I *1211:ZN O *D gf180mcu_fd_sc_mcu7t5v0__oai22_1
*CAP
1 *1213:A2 0.000243427
2 *1211:ZN 0.000243427
3 *1213:A2 *1211:B1 0
4 *1213:A2 *380:25 4.89622e-05
5 *1210:A1 *1213:A2 0.000154451
6 *1211:A1 *1213:A2 0
7 *1213:A1 *1213:A2 0.000124318
*RES
1 *1211:ZN *1213:A2 11.128 
*END

*D_NET *185 0.0011758
*CONN
*I *1213:B I *D gf180mcu_fd_sc_mcu7t5v0__aoi211_1
*I *1212:ZN O *D gf180mcu_fd_sc_mcu7t5v0__oai22_1
*CAP
1 *1213:B 0.000189072
2 *1212:ZN 0.000189072
3 *1213:B *1207:B2 0.000149579
4 *1213:B *1212:A2 0.00026286
5 *1213:B *1212:B1 0
6 *1207:B1 *1213:B 8.55242e-05
7 *1209:A2 *1213:B 4.50449e-05
8 *1213:C *1213:B 0.000254643
*RES
1 *1212:ZN *1213:B 20.432 
*END

*D_NET *186 0.00678412
*CONN
*I *1220:A2 I *D gf180mcu_fd_sc_mcu7t5v0__oai211_1
*I *1213:ZN O *D gf180mcu_fd_sc_mcu7t5v0__aoi211_1
*CAP
1 *1220:A2 0.00154498
2 *1213:ZN 0.00154498
3 *1220:A2 *1212:B1 0.000195224
4 *1220:A2 *1225:A2 1.02578e-05
5 *1220:A2 *1356:A1 0.000209085
6 *1220:A2 *1359:A2 7.98484e-05
7 *1220:A2 *1360:A2 0.000147932
8 *1220:A2 *1361:A2 0.000640608
9 *1220:A2 *1365:A4 0
10 *1220:A2 *1534:I 0.000492836
11 *1220:A2 *280:6 7.01996e-05
12 *1220:A2 *280:10 5.43717e-05
13 *1220:A2 *283:12 0.000490861
14 *1220:A2 *283:35 2.57058e-06
15 *1220:A2 *326:12 3.94662e-05
16 *1220:A2 *326:78 7.789e-05
17 *1220:A2 *379:12 9.68523e-05
18 *1220:A2 *380:25 0
19 *1220:A2 *381:12 0.00014216
20 *1220:A2 *381:18 0.000120115
21 *1213:A1 *1220:A2 9.26705e-05
22 *1213:C *1220:A2 0.000264748
23 *1220:A1 *1220:A2 0.00044316
24 *1364:A1 *1220:A2 2.33043e-05
*RES
1 *1213:ZN *1220:A2 33.58 
*END

*D_NET *187 0.00076767
*CONN
*I *1216:A1 I *D gf180mcu_fd_sc_mcu7t5v0__and2_1
*I *1221:B I *D gf180mcu_fd_sc_mcu7t5v0__oai21_1
*I *1214:ZN O *D gf180mcu_fd_sc_mcu7t5v0__aoi22_1
*CAP
1 *1216:A1 0.000106883
2 *1221:B 0.000191427
3 *1214:ZN 8.45441e-05
4 *1216:A1 *1216:A2 0.000149579
5 *1216:A1 *1219:A1 2.05156e-05
6 *1221:B *1216:A2 1.5015e-05
7 *1221:B *1217:A2 0.000193942
8 *1221:B *385:45 5.76373e-06
*RES
1 *1214:ZN *1221:B 9.76 
2 *1221:B *1216:A1 9.988 
*END

*D_NET *188 0.00298321
*CONN
*I *1216:A2 I *D gf180mcu_fd_sc_mcu7t5v0__and2_1
*I *1221:A1 I *D gf180mcu_fd_sc_mcu7t5v0__oai21_1
*I *1215:ZN O *D gf180mcu_fd_sc_mcu7t5v0__aoi22_1
*CAP
1 *1216:A2 9.33138e-05
2 *1221:A1 0
3 *1215:ZN 0.000606031
4 *188:18 0.000699345
5 *1216:A2 *1219:A1 0.000133669
6 *1216:A2 *1221:A2 2.22758e-05
7 *1216:A2 *385:45 0
8 *188:18 *1217:A2 1.4706e-05
9 *188:18 *1218:B1 0
10 *188:18 *1219:A2 0
11 *188:18 *1225:A2 1.59397e-05
12 *188:18 *1294:A1 0.000191711
13 *188:18 *283:35 0
14 *1214:A1 *188:18 0.000129252
15 *1214:B2 *188:18 0.000170779
16 *1215:A1 *188:18 0.000451108
17 *1216:A1 *1216:A2 0.000149579
18 *1217:B2 *188:18 2.10698e-05
19 *1218:B2 *188:18 2.10727e-05
20 *1221:B *1216:A2 1.5015e-05
21 *143:8 *188:18 3.16373e-05
22 *143:12 *188:18 0.000216708
*RES
1 *1215:ZN *188:18 27.44 
2 *188:18 *1221:A1 4.5 
3 *188:18 *1216:A2 5.564 
*END

*D_NET *189 0.00166073
*CONN
*I *1220:B I *D gf180mcu_fd_sc_mcu7t5v0__oai211_1
*I *1216:Z O *D gf180mcu_fd_sc_mcu7t5v0__and2_1
*CAP
1 *1220:B 0.000277712
2 *1216:Z 0.000277712
3 *1220:B *1219:A1 0.000218371
4 *1220:B *1219:A2 0.000126791
5 *1220:B *1220:C 0.000616399
6 *1220:B *1225:A1 3.26422e-05
7 *1220:B *1225:A2 8.02164e-05
8 *1220:A1 *1220:B 3.08902e-05
*RES
1 *1216:Z *1220:B 12.344 
*END

*D_NET *190 0.00158914
*CONN
*I *1221:A2 I *D gf180mcu_fd_sc_mcu7t5v0__oai21_1
*I *1219:A1 I *D gf180mcu_fd_sc_mcu7t5v0__nor2_1
*I *1217:ZN O *D gf180mcu_fd_sc_mcu7t5v0__oai22_1
*CAP
1 *1221:A2 2.49576e-05
2 *1219:A1 0.000221002
3 *1217:ZN 5.10122e-05
4 *190:10 0.000296971
5 *1219:A1 *1219:A2 0.000224243
6 *190:10 *1217:A2 8.45687e-05
7 *190:10 *1219:A2 0.000268655
8 *1214:B2 *1221:A2 2.57058e-06
9 *1214:B2 *190:10 1.0961e-05
10 *1216:A1 *1219:A1 2.05156e-05
11 *1216:A2 *1219:A1 0.000133669
12 *1216:A2 *1221:A2 2.22758e-05
13 *1220:B *1219:A1 0.000218371
14 *144:25 *1219:A1 4.2318e-06
15 *144:25 *1221:A2 5.14116e-06
*RES
1 *1217:ZN *190:10 14.336 
2 *190:10 *1219:A1 6.704 
3 *190:10 *1221:A2 4.728 
*END

*D_NET *191 0.0027304
*CONN
*I *1219:A2 I *D gf180mcu_fd_sc_mcu7t5v0__nor2_1
*I *1218:ZN O *D gf180mcu_fd_sc_mcu7t5v0__oai22_1
*CAP
1 *1219:A2 0.000486374
2 *1218:ZN 0.000486374
3 *1219:A2 *1217:B1 0.000241874
4 *1219:A2 *1225:A2 0.000172422
5 *1219:A2 *326:78 0.00019777
6 *1214:B2 *1219:A2 0.000237367
7 *1218:A1 *1219:A2 0.000255722
8 *1219:A1 *1219:A2 0.000224243
9 *1220:B *1219:A2 0.000126791
10 *144:25 *1219:A2 3.28093e-05
11 *188:18 *1219:A2 0
12 *190:10 *1219:A2 0.000268655
*RES
1 *1218:ZN *1219:A2 23.396 
*END

*D_NET *192 0.000955066
*CONN
*I *1220:C I *D gf180mcu_fd_sc_mcu7t5v0__oai211_1
*I *1219:ZN O *D gf180mcu_fd_sc_mcu7t5v0__nor2_1
*CAP
1 *1220:C 0.000169333
2 *1219:ZN 0.000169333
3 *1220:B *1220:C 0.000616399
*RES
1 *1219:ZN *1220:C 10.748 
*END

*D_NET *193 0.000703492
*CONN
*I *1225:A1 I *D gf180mcu_fd_sc_mcu7t5v0__aoi22_1
*I *1220:ZN O *D gf180mcu_fd_sc_mcu7t5v0__oai211_1
*CAP
1 *1225:A1 0.000211409
2 *1220:ZN 0.000211409
3 *1225:A1 *1225:A2 1.29413e-05
4 *1225:A1 *1534:I 0
5 *1225:A1 *283:35 8.69862e-05
6 *1225:A1 *326:78 0.000148104
7 *1220:B *1225:A1 3.26422e-05
*RES
1 *1220:ZN *1225:A1 19.444 
*END

*D_NET *194 0.00143164
*CONN
*I *1222:B I *D gf180mcu_fd_sc_mcu7t5v0__oai21_1
*I *1221:ZN O *D gf180mcu_fd_sc_mcu7t5v0__oai21_1
*CAP
1 *1222:B 0.000154681
2 *1221:ZN 0.000154681
3 *1222:B *1217:A2 0.000248576
4 *1222:B *1225:A2 3.03815e-05
5 *1222:B *385:45 0.000361824
6 *1214:B2 *1222:B 0.000135062
7 *1222:A1 *1222:B 0.000346437
*RES
1 *1221:ZN *1222:B 11.584 
*END

*D_NET *195 0.00354215
*CONN
*I *1225:A2 I *D gf180mcu_fd_sc_mcu7t5v0__aoi22_1
*I *1222:ZN O *D gf180mcu_fd_sc_mcu7t5v0__oai21_1
*CAP
1 *1225:A2 0.000731178
2 *1222:ZN 0.000731178
3 *1225:A2 *1217:A2 0.000151055
4 *1225:A2 *1222:A2 0
5 *1225:A2 *283:35 0.00019147
6 *1225:A2 *326:78 0.00108154
7 *1214:B2 *1225:A2 0.000203563
8 *1219:A2 *1225:A2 0.000172422
9 *1220:A1 *1225:A2 1.15275e-05
10 *1220:A2 *1225:A2 1.02578e-05
11 *1220:B *1225:A2 8.02164e-05
12 *1222:A1 *1225:A2 0.000118479
13 *1222:B *1225:A2 3.03815e-05
14 *1225:A1 *1225:A2 1.29413e-05
15 *188:18 *1225:A2 1.59397e-05
*RES
1 *1222:ZN *1225:A2 34.22 
*END

*D_NET *196 0.00847296
*CONN
*I *1225:B1 I *D gf180mcu_fd_sc_mcu7t5v0__aoi22_1
*I *1223:ZN O *D gf180mcu_fd_sc_mcu7t5v0__nor4_1
*CAP
1 *1225:B1 0.00256133
2 *1223:ZN 0.00256133
3 *1225:B1 *1212:A2 0.000940024
4 *1225:B1 *1534:I 2.7014e-05
5 *1225:B1 *199:76 0
6 *1225:B1 *283:35 0.000734813
7 *1225:B1 *339:12 0.000244121
8 *1225:B1 *339:25 0.000245211
9 *1225:B1 *382:8 0.000386421
10 *1208:A2 *1225:B1 0.000179609
11 *1220:A1 *1225:B1 0
12 *1297:A1 *1225:B1 2.6126e-05
13 *1444:RN *1225:B1 0
14 *1505:I *1225:B1 0.000545249
15 *165:6 *1225:B1 2.17248e-05
*RES
1 *1223:ZN *1225:B1 39.508 
*END

*D_NET *197 0.000156415
*CONN
*I *1225:B2 I *D gf180mcu_fd_sc_mcu7t5v0__aoi22_1
*I *1224:ZN O *D gf180mcu_fd_sc_mcu7t5v0__nor4_1
*CAP
1 *1225:B2 6.37983e-05
2 *1224:ZN 6.37983e-05
3 *1225:B2 *1170:I 2.88187e-05
*RES
1 *1224:ZN *1225:B2 9.532 
*END

*D_NET *198 0.00168836
*CONN
*I *1534:I I *D gf180mcu_fd_sc_mcu7t5v0__dlyb_1
*I *1225:ZN O *D gf180mcu_fd_sc_mcu7t5v0__aoi22_1
*CAP
1 *1534:I 0.000294518
2 *1225:ZN 0.000294518
3 *1534:I *283:35 0.000104535
4 *1534:I *326:78 9.26705e-05
5 *1220:A1 *1534:I 0.000382269
6 *1220:A2 *1534:I 0.000492836
7 *1225:A1 *1534:I 0
8 *1225:B1 *1534:I 2.7014e-05
*RES
1 *1225:ZN *1534:I 21.268 
*END

*D_NET *199 0.0240172
*CONN
*I *1374:A2 I *D gf180mcu_fd_sc_mcu7t5v0__nor3_1
*I *1376:A2 I *D gf180mcu_fd_sc_mcu7t5v0__nor3_1
*I *1365:A2 I *D gf180mcu_fd_sc_mcu7t5v0__nor4_1
*I *1362:A2 I *D gf180mcu_fd_sc_mcu7t5v0__nor3_1
*I *1358:A2 I *D gf180mcu_fd_sc_mcu7t5v0__nor3_1
*I *1355:A3 I *D gf180mcu_fd_sc_mcu7t5v0__nor3_1
*I *1368:A2 I *D gf180mcu_fd_sc_mcu7t5v0__nor4_1
*I *1371:A2 I *D gf180mcu_fd_sc_mcu7t5v0__nor3_1
*I *1227:A2 I *D gf180mcu_fd_sc_mcu7t5v0__nand2_1
*I *1234:A2 I *D gf180mcu_fd_sc_mcu7t5v0__xor2_1
*I *1226:Z O *D gf180mcu_fd_sc_mcu7t5v0__and2_1
*CAP
1 *1374:A2 3.28034e-05
2 *1376:A2 0
3 *1365:A2 0
4 *1362:A2 0
5 *1358:A2 0
6 *1355:A3 0.000280701
7 *1368:A2 0.000101307
8 *1371:A2 0
9 *1227:A2 0.000369865
10 *1234:A2 0.000270762
11 *1226:Z 3.28034e-05
12 *199:86 0.000782668
13 *199:78 0.00084238
14 *199:76 0.00157191
15 *199:53 0.00209339
16 *199:47 0.000875109
17 *199:45 0.000636104
18 *199:32 0.00080045
19 *199:17 0.000881668
20 *199:6 0.000503702
21 *1227:A2 *1227:A1 0.000243404
22 *1227:A2 *1232:A1 0.000255714
23 *1234:A2 *1161:I 8.97311e-05
24 *1234:A2 *1228:A2 8.18373e-05
25 *1234:A2 *1513:I 8.62341e-05
26 *1234:A2 *1519:I 0.000171927
27 *1234:A2 *370:16 0.00159312
28 *1355:A3 *1355:A1 5.43087e-05
29 *1355:A3 *1355:A2 0.000578327
30 *1355:A3 *1358:A3 0.000348614
31 *1355:A3 *1426:I 4.09047e-05
32 *1355:A3 *1471:CLK 0
33 *1355:A3 *1522:I 9.26705e-05
34 *1355:A3 *296:6 0
35 *1355:A3 *296:19 0
36 *1355:A3 *306:119 0.000787074
37 *1368:A2 *1368:A1 9.88736e-06
38 *1368:A2 *1418:I 3.42287e-06
39 *1368:A2 *1445:CLK 1.65795e-06
40 *1368:A2 *317:90 2.6126e-05
41 *199:6 *1228:A2 0
42 *199:17 *300:31 0.000119798
43 *199:17 *369:8 4.06416e-05
44 *199:17 *369:12 0.000166914
45 *199:17 *370:8 0
46 *199:17 *370:12 0
47 *199:32 *369:8 0.000471574
48 *199:32 *370:8 0
49 *199:45 *1370:A1 0
50 *199:45 *1370:A2 8.15665e-05
51 *199:45 *1374:A3 8.18282e-05
52 *199:45 *369:8 0.000124593
53 *199:45 *370:8 0
54 *199:47 *1374:A1 0.000765695
55 *199:47 *1376:A3 0.00032464
56 *199:47 *285:27 0
57 *199:47 *326:95 2.93945e-05
58 *199:53 *1368:A1 1.34535e-05
59 *199:53 *1368:A3 0.00032464
60 *199:53 *1368:A4 2.17248e-05
61 *199:53 *285:10 9.026e-05
62 *199:53 *325:23 0
63 *199:53 *326:95 0.000134922
64 *199:53 *383:14 3.94655e-05
65 *199:53 *383:20 1.91917e-06
66 *199:76 *1171:I 0.000109865
67 *199:76 *1224:A1 0.000424397
68 *199:76 *1224:A2 0.000343924
69 *199:76 *1224:A4 9.53573e-05
70 *199:76 *1365:A3 5.56966e-05
71 *199:76 *1530:I 0.000568975
72 *199:76 *283:35 0
73 *199:76 *317:66 2.68964e-05
74 *199:76 *317:90 5.19077e-05
75 *199:76 *341:25 0.000188895
76 *199:76 *383:20 0.000224902
77 *199:78 *1365:A3 1.5015e-05
78 *199:78 *1365:A4 0.000211119
79 *199:78 *280:10 0.000123108
80 *199:78 *326:12 2.40654e-06
81 *199:78 *326:14 0.000727975
82 *199:78 *341:25 0
83 *199:86 *1397:I 0.000468562
84 *199:86 *280:6 2.31659e-05
85 *199:86 *280:10 4.03461e-05
86 *199:86 *314:25 0.000151728
87 *199:86 *326:14 9.88736e-06
88 *199:86 *326:22 0
89 *1215:B2 *199:76 0.000123561
90 *1225:B1 *199:76 0
91 *1297:A1 *199:76 0
92 *1301:A1 *199:76 0
93 *1443:D *199:86 2.57365e-05
94 *1444:D *199:76 7.24161e-06
95 *1446:RN *199:45 2.25184e-05
96 *1446:RN *199:47 6.12935e-05
97 *1447:D *199:45 2.40867e-05
98 *1448:D *199:53 6.44359e-05
99 *1464:SETN *199:76 0.000942931
100 *146:10 *199:76 0
101 *146:23 *199:76 0.00150765
*RES
1 *1226:Z *199:6 4.728 
2 *199:6 *1234:A2 8.68 
3 *199:6 *199:17 6.248 
4 *199:17 *1227:A2 11.812 
5 *199:17 *199:32 3.42 
6 *199:32 *1371:A2 9 
7 *199:32 *199:45 8.3 
8 *199:45 *199:47 2.204 
9 *199:47 *199:53 6.004 
10 *199:53 *1368:A2 5.26 
11 *199:53 *199:76 23.212 
12 *199:76 *199:78 4.332 
13 *199:78 *199:86 13.56 
14 *199:86 *1355:A3 17.68 
15 *199:86 *1358:A2 4.5 
16 *199:78 *1362:A2 4.5 
17 *199:76 *1365:A2 4.5 
18 *199:47 *1376:A2 4.5 
19 *199:45 *1374:A2 4.728 
*END

*D_NET *200 0.0012248
*CONN
*I *1232:A2 I *D gf180mcu_fd_sc_mcu7t5v0__xor2_1
*I *1227:ZN O *D gf180mcu_fd_sc_mcu7t5v0__nand2_1
*CAP
1 *1232:A2 0.000199567
2 *1227:ZN 0.000199567
3 *1232:A2 *1227:A1 0.000185898
4 *1232:A2 *1485:CLK 0.00011704
5 *1232:A2 *300:27 2.22657e-05
6 *1485:D *1232:A2 0.000500461
*RES
1 *1227:ZN *1232:A2 11.356 
*END

*D_NET *201 0.00432705
*CONN
*I *1230:A2 I *D gf180mcu_fd_sc_mcu7t5v0__and2_1
*I *1229:A2 I *D gf180mcu_fd_sc_mcu7t5v0__nor2_1
*I *1324:A3 I *D gf180mcu_fd_sc_mcu7t5v0__nor3_1
*I *1228:ZN O *D gf180mcu_fd_sc_mcu7t5v0__nand4_1
*CAP
1 *1230:A2 0
2 *1229:A2 0
3 *1324:A3 0.000169909
4 *1228:ZN 0.000353247
5 *201:14 0.000437961
6 *201:8 0.000621299
7 *1324:A3 *1231:A2 1.0115e-05
8 *1324:A3 *1231:A4 5.40596e-05
9 *1324:A3 *1480:CLK 4.50449e-05
10 *1324:A3 *202:8 0.000395889
11 *201:8 *1228:A3 7.26556e-05
12 *201:8 *1389:I 0.000705383
13 *201:8 *300:31 0
14 *201:8 *300:33 0
15 *201:8 *377:10 8.66733e-05
16 *201:8 *377:16 0.000799702
17 *201:14 *1388:I 0
18 *201:14 *1480:CLK 0.000179609
19 *201:14 *300:33 0
20 *201:14 *377:10 9.34825e-05
21 *1229:A1 *1324:A3 6.00599e-05
22 *1324:A2 *1324:A3 0.000180655
23 *1480:D *201:14 6.13012e-05
*RES
1 *1228:ZN *201:8 14.244 
2 *201:8 *201:14 6.932 
3 *201:14 *1324:A3 6.856 
4 *201:14 *1229:A2 4.5 
5 *201:8 *1230:A2 9 
*END

*D_NET *202 0.00153637
*CONN
*I *1231:A3 I *D gf180mcu_fd_sc_mcu7t5v0__nor4_1
*I *1336:A2 I *D gf180mcu_fd_sc_mcu7t5v0__nor2_1
*I *1229:ZN O *D gf180mcu_fd_sc_mcu7t5v0__nor2_1
*CAP
1 *1231:A3 7.96778e-05
2 *1336:A2 0.000185444
3 *1229:ZN 3.13324e-05
4 *202:8 0.000296455
5 *1231:A3 *372:23 0
6 *1231:A3 *372:36 0
7 *1336:A2 *1336:A1 0
8 *1336:A2 *259:10 0
9 *1336:A2 *372:23 0
10 *202:8 *372:10 2.51117e-05
11 *1229:A1 *202:8 0.000255722
12 *1324:A1 *1336:A2 8.54817e-05
13 *1324:A3 *202:8 0.000395889
14 *1480:D *1336:A2 0
15 *134:10 *1231:A3 0.000158878
16 *134:10 *1336:A2 2.23783e-05
*RES
1 *1229:ZN *202:8 9.988 
2 *202:8 *1336:A2 10.292 
3 *202:8 *1231:A3 9.836 
*END

*D_NET *203 0.000721013
*CONN
*I *1231:A4 I *D gf180mcu_fd_sc_mcu7t5v0__nor4_1
*I *1230:Z O *D gf180mcu_fd_sc_mcu7t5v0__and2_1
*CAP
1 *1231:A4 0.000205924
2 *1230:Z 0.000205924
3 *1231:A4 *1480:CLK 0.000141897
4 *1230:A1 *1231:A4 0.000113209
5 *1324:A3 *1231:A4 5.40596e-05
*RES
1 *1230:Z *1231:A4 10.824 
*END

*D_NET *204 0.00123371
*CONN
*I *1233:A3 I *D gf180mcu_fd_sc_mcu7t5v0__nor3_1
*I *1232:Z O *D gf180mcu_fd_sc_mcu7t5v0__xor2_1
*CAP
1 *1233:A3 0.000269798
2 *1232:Z 0.000269798
3 *1233:A3 *1227:A1 0.000101621
4 *1233:A3 *300:25 0
5 *1484:D *1233:A3 0.000448201
6 *1485:D *1233:A3 0.000144293
*RES
1 *1232:Z *1233:A3 11.584 
*END

*D_NET *205 0.000312088
*CONN
*I *1235:A3 I *D gf180mcu_fd_sc_mcu7t5v0__nor3_1
*I *1234:Z O *D gf180mcu_fd_sc_mcu7t5v0__xor2_1
*CAP
1 *1235:A3 9.0394e-05
2 *1234:Z 9.0394e-05
3 *1235:A3 *1235:A2 1.15312e-05
4 *1235:A3 *1513:I 2.2145e-05
5 *1235:A3 *370:16 3.07734e-05
6 *1235:A1 *1235:A3 4.83197e-05
7 *179:38 *1235:A3 1.85312e-05
*RES
1 *1234:Z *1235:A3 18.912 
*END

*D_NET *206 0.00420322
*CONN
*I *1344:A1 I *D gf180mcu_fd_sc_mcu7t5v0__nor2_1
*I *1242:A1 I *D gf180mcu_fd_sc_mcu7t5v0__nand2_1
*I *1338:A2 I *D gf180mcu_fd_sc_mcu7t5v0__nand2_1
*I *1236:ZN O *D gf180mcu_fd_sc_mcu7t5v0__nor2_1
*CAP
1 *1344:A1 3.28034e-05
2 *1242:A1 0
3 *1338:A2 0.000496596
4 *1236:ZN 0.000209489
5 *206:8 0.000538366
6 *206:6 0.000284063
7 *1338:A2 *211:10 0.000105701
8 *1338:A2 *211:16 1.81333e-05
9 *1338:A2 *319:30 0.000633328
10 *1338:A2 *363:35 0.000140124
11 *1338:A2 *366:35 0
12 *206:6 *1237:A3 8.18373e-05
13 *206:6 *1270:A2 2.976e-05
14 *206:6 *211:16 9.17247e-05
15 *206:6 *231:29 0.000877362
16 *206:6 *319:30 0.000148799
17 *206:8 *1242:A2 0.000186796
18 *206:8 *1270:A2 2.03665e-05
19 *206:8 *231:29 0.000307974
20 *1493:RN *1338:A2 0
*RES
1 *1236:ZN *206:6 7.464 
2 *206:6 *206:8 0.836 
3 *206:8 *1338:A2 18.212 
4 *206:8 *1242:A1 4.5 
5 *206:6 *1344:A1 4.728 
*END

*D_NET *207 0.00537026
*CONN
*I *1345:A2 I *D gf180mcu_fd_sc_mcu7t5v0__and2_1
*I *1273:A2 I *D gf180mcu_fd_sc_mcu7t5v0__nand2_1
*I *1347:A1 I *D gf180mcu_fd_sc_mcu7t5v0__oai21_1
*I *1237:ZN O *D gf180mcu_fd_sc_mcu7t5v0__nor3_1
*CAP
1 *1345:A2 0.000320823
2 *1273:A2 0
3 *1347:A1 1.99575e-05
4 *1237:ZN 0.00034269
5 *207:25 0.00084273
6 *207:10 0.000884556
7 *1345:A2 *1345:A1 0.000262008
8 *1345:A2 *237:8 5.83634e-05
9 *1345:A2 *270:22 0
10 *1345:A2 *310:88 0
11 *1347:A1 *1348:A2 2.6126e-05
12 *1347:A1 *1353:A2 7.83779e-05
13 *1347:A1 *1353:B1 9.88736e-06
14 *1347:A1 *270:22 7.45328e-07
15 *207:10 *1353:A2 0
16 *207:10 *235:18 0.000878979
17 *207:10 *269:34 0
18 *207:10 *271:19 0.00104228
19 *207:10 *319:30 0.000435944
20 *207:10 *366:35 0
21 *207:25 *1384:I 2.6126e-05
22 *207:25 *1469:CLK 1.23313e-05
23 *207:25 *270:22 0
24 *207:25 *271:19 0.000105286
25 *207:25 *362:10 0
26 *207:25 *362:12 0
27 *207:25 *362:14 0
28 *1492:RN *1345:A2 0
29 *1494:RN *207:25 2.30549e-05
*RES
1 *1237:ZN *207:10 13.712 
2 *207:10 *1347:A1 9.228 
3 *207:10 *207:25 7.844 
4 *207:25 *1273:A2 4.5 
5 *207:25 *1345:A2 7.084 
*END

*D_NET *208 0.00559464
*CONN
*I *1350:A1 I *D gf180mcu_fd_sc_mcu7t5v0__nor2_1
*I *1249:B I *D gf180mcu_fd_sc_mcu7t5v0__oai31_1
*I *1238:Z O *D gf180mcu_fd_sc_mcu7t5v0__or3_1
*CAP
1 *1350:A1 0.000250883
2 *1249:B 0.000402812
3 *1238:Z 0.000136319
4 *208:8 0.000790014
5 *1249:B *1243:A1 0.000206717
6 *1249:B *1272:A2 0.0015792
7 *1249:B *1502:D 8.02751e-06
8 *1249:B *1504:CLK 0.000539835
9 *1350:A1 *1272:A2 0.000161058
10 *1350:A1 *327:67 6.73834e-05
11 *1238:A2 *1350:A1 5.1289e-05
12 *1243:A2 *1249:B 0.000803732
13 *1537:I *1249:B 0.000379274
14 *158:6 *1249:B 0.000191947
15 *158:6 *1350:A1 2.61529e-05
*RES
1 *1238:Z *208:8 5.26 
2 *208:8 *1249:B 12.024 
3 *208:8 *1350:A1 6.704 
*END

*D_NET *209 0.00380119
*CONN
*I *1243:A3 I *D gf180mcu_fd_sc_mcu7t5v0__and4_1
*I *1239:ZN O *D gf180mcu_fd_sc_mcu7t5v0__nor3_1
*CAP
1 *1243:A3 0.00104997
2 *1239:ZN 0.00104997
3 *1243:A3 *1246:B 2.96621e-05
4 *1243:A3 *1247:A1 0.000112284
5 *1243:A3 *1249:A1 0
6 *1243:A3 *1272:A2 0.00026286
7 *1243:A3 *1340:A2 3.34942e-05
8 *1243:A3 *1495:CLK 5.94067e-05
9 *1243:A3 *211:20 6.68265e-05
10 *1243:A3 *294:52 0.000379274
11 *1243:A3 *294:58 0.000410485
12 *1243:A3 *359:8 3.26577e-05
13 *1243:A3 *365:14 7.36325e-05
14 *1243:A3 *365:20 0.000240657
*RES
1 *1239:ZN *1243:A3 26.284 
*END

*D_NET *210 0.00331334
*CONN
*I *1266:A1 I *D gf180mcu_fd_sc_mcu7t5v0__aoi211_1
*I *1342:A1 I *D gf180mcu_fd_sc_mcu7t5v0__oai22_1
*I *1240:ZN O *D gf180mcu_fd_sc_mcu7t5v0__nor2_1
*CAP
1 *1266:A1 0.000631406
2 *1342:A1 0.000358065
3 *1240:ZN 4.97473e-05
4 *210:6 0.00103922
5 *1266:A1 *1270:A2 0.000403764
6 *1266:A1 *327:10 6.29079e-05
7 *1266:A1 *327:16 0.00013084
8 *1342:A1 *1186:I 4.04878e-05
9 *1342:A1 *1342:A2 1.45007e-05
10 *1342:A1 *1354:A2 1.25135e-05
11 *1342:A1 *270:22 2.45419e-05
12 *1342:A1 *366:35 0.000175231
13 *210:6 *1354:A2 0.000171927
14 *210:6 *366:35 0.00016204
15 *1342:B2 *1342:A1 3.61533e-05
16 *1493:RN *1342:A1 0
*RES
1 *1240:ZN *210:6 5.488 
2 *210:6 *1342:A1 7.008 
3 *210:6 *1266:A1 17.376 
*END

*D_NET *211 0.00789628
*CONN
*I *1242:A2 I *D gf180mcu_fd_sc_mcu7t5v0__nand2_1
*I *1248:A2 I *D gf180mcu_fd_sc_mcu7t5v0__nor3_1
*I *1250:A1 I *D gf180mcu_fd_sc_mcu7t5v0__nor2_1
*I *1243:A4 I *D gf180mcu_fd_sc_mcu7t5v0__and4_1
*I *1241:Z O *D gf180mcu_fd_sc_mcu7t5v0__or3_1
*CAP
1 *1242:A2 6.44054e-05
2 *1248:A2 0
3 *1250:A1 0.000279847
4 *1243:A4 0
5 *1241:Z 0.000256263
6 *211:20 0.00045951
7 *211:16 0.000822196
8 *211:10 0.000963201
9 *1242:A2 *1266:A2 1.44832e-05
10 *1242:A2 *1270:A2 5.54829e-05
11 *1250:A1 *1249:A1 0.000129836
12 *1250:A1 *1249:A2 0.000185185
13 *1250:A1 *1261:A2 0.000203975
14 *1250:A1 *1272:A2 3.2667e-05
15 *1250:A1 *1531:I 5.59566e-06
16 *1250:A1 *218:12 0.000384632
17 *1250:A1 *219:10 6.15468e-05
18 *1250:A1 *220:10 9.26705e-05
19 *211:10 *1351:A1 7.26556e-05
20 *211:10 *271:19 0.000232192
21 *211:10 *319:30 0
22 *211:10 *363:35 1.74176e-05
23 *211:10 *366:35 3.44928e-05
24 *211:16 *1184:I 2.23477e-05
25 *211:16 *1237:A3 2.25107e-05
26 *211:16 *1238:A1 4.6818e-05
27 *211:16 *1248:A3 0.000164594
28 *211:16 *1272:A2 0.000125262
29 *211:16 *1351:A1 7.8324e-05
30 *211:16 *1351:A2 0.000115426
31 *211:16 *1351:B 3.08902e-05
32 *211:16 *1504:D 0.000379274
33 *211:16 *218:12 0.000154451
34 *211:16 *231:29 0.00101753
35 *211:16 *358:12 0.000146479
36 *211:16 *363:35 8.64281e-06
37 *211:20 *1184:I 0.000154451
38 *211:20 *1272:A2 5.44227e-05
39 *211:20 *218:12 0.000343486
40 *211:20 *359:42 0.000193933
41 *1243:A3 *211:20 6.68265e-05
42 *1338:A2 *211:10 0.000105701
43 *1338:A2 *211:16 1.81333e-05
44 *206:6 *211:16 9.17247e-05
45 *206:8 *1242:A2 0.000186796
*RES
1 *1241:Z *211:10 11.28 
2 *211:10 *211:16 11.796 
3 *211:16 *211:20 2.432 
4 *211:20 *1243:A4 4.5 
5 *211:20 *1250:A1 7.996 
6 *211:16 *1248:A2 4.5 
7 *211:10 *1242:A2 9.684 
*END

*D_NET *212 0.00337733
*CONN
*I *1271:B I *D gf180mcu_fd_sc_mcu7t5v0__aoi211_1
*I *1267:A2 I *D gf180mcu_fd_sc_mcu7t5v0__aoi21_1
*I *1266:B I *D gf180mcu_fd_sc_mcu7t5v0__aoi211_1
*I *1242:ZN O *D gf180mcu_fd_sc_mcu7t5v0__nand2_1
*CAP
1 *1271:B 0
2 *1267:A2 6.10813e-05
3 *1266:B 0.000260901
4 *1242:ZN 0
5 *212:23 0.000221679
6 *212:4 0.000421498
7 *1266:B *1266:A2 0.00102142
8 *1266:B *1270:A2 0.000526781
9 *1267:A2 *1270:A1 0
10 *1267:A2 *1271:C 0.000286604
11 *1267:A2 *327:29 3.08902e-05
12 *212:23 *1271:A1 0.000222333
13 *212:23 *1352:A2 0
14 *212:23 *363:35 0.000174563
15 *1493:D *1267:A2 0.000149579
*RES
1 *1242:ZN *212:4 4.5 
2 *212:4 *1266:B 16.996 
3 *212:4 *212:23 10.292 
4 *212:23 *1267:A2 5.564 
5 *212:23 *1271:B 4.5 
*END

*D_NET *213 0.0013565
*CONN
*I *1249:A1 I *D gf180mcu_fd_sc_mcu7t5v0__oai31_1
*I *1243:Z O *D gf180mcu_fd_sc_mcu7t5v0__and4_1
*CAP
1 *1249:A1 0.000276817
2 *1243:Z 0.000276817
3 *1249:A1 *1272:A2 0.000673025
4 *1243:A3 *1249:A1 0
5 *1250:A1 *1249:A1 0.000129836
*RES
1 *1243:Z *1249:A1 20.584 
*END

*D_NET *214 0.00176841
*CONN
*I *1245:A3 I *D gf180mcu_fd_sc_mcu7t5v0__nor3_1
*I *1343:A3 I *D gf180mcu_fd_sc_mcu7t5v0__oai32_1
*I *1269:A1 I *D gf180mcu_fd_sc_mcu7t5v0__nor2_1
*I *1244:ZN O *D gf180mcu_fd_sc_mcu7t5v0__nand2_1
*CAP
1 *1245:A3 9.23959e-05
2 *1343:A3 6.31836e-05
3 *1269:A1 0
4 *1244:ZN 0.000187853
5 *214:19 0.00017804
6 *214:10 0.000210313
7 *1245:A3 *1269:A2 0.000127068
8 *1245:A3 *235:6 1.44832e-05
9 *1245:A3 *360:29 5.76373e-06
10 *1343:A3 *235:6 0.000162031
11 *214:10 *215:8 6.87063e-06
12 *214:10 *360:29 0
13 *214:19 *1269:A2 4.50449e-05
14 *214:19 *235:6 8.55327e-05
15 *1245:A2 *1245:A3 1.5015e-05
16 *1343:A2 *1245:A3 0.000448201
17 *1343:A2 *1343:A3 0.000126613
*RES
1 *1244:ZN *214:10 14.336 
2 *214:10 *1269:A1 4.5 
3 *214:10 *214:19 0.456 
4 *214:19 *1343:A3 5.64 
5 *214:19 *1245:A3 6.02 
*END

*D_NET *215 0.0018662
*CONN
*I *1250:A2 I *D gf180mcu_fd_sc_mcu7t5v0__nor2_1
*I *1249:A2 I *D gf180mcu_fd_sc_mcu7t5v0__oai31_1
*I *1245:ZN O *D gf180mcu_fd_sc_mcu7t5v0__nor3_1
*CAP
1 *1250:A2 0
2 *1249:A2 0.000140112
3 *1245:ZN 0.000600405
4 *215:8 0.000740517
5 *1249:A2 *1261:A2 5.59457e-05
6 *1249:A2 *219:10 8.07935e-05
7 *1249:A2 *358:47 8.64281e-06
8 *215:8 *1244:A2 4.42172e-05
9 *215:8 *358:47 3.50638e-06
10 *1250:A1 *1249:A2 0.000185185
11 *214:10 *215:8 6.87063e-06
*RES
1 *1245:ZN *215:8 11.964 
2 *215:8 *1249:A2 10.216 
3 *215:8 *1250:A2 9 
*END

*D_NET *216 0.00392805
*CONN
*I *1247:A2 I *D gf180mcu_fd_sc_mcu7t5v0__nor2_1
*I *1248:A3 I *D gf180mcu_fd_sc_mcu7t5v0__nor3_1
*I *1246:ZN O *D gf180mcu_fd_sc_mcu7t5v0__oai31_1
*CAP
1 *1247:A2 0.000126172
2 *1248:A3 0.000339451
3 *1246:ZN 0.00012242
4 *216:8 0.000588044
5 *1247:A2 *1247:A1 0.000422916
6 *1247:A2 *269:32 3.09849e-05
7 *1248:A3 *1394:I 6.31034e-05
8 *1248:A3 *217:16 0.00052226
9 *1248:A3 *218:12 0.000154451
10 *1248:A3 *311:31 0.00019357
11 *1248:A3 *358:10 7.6687e-05
12 *1248:A3 *358:12 9.74225e-05
13 *1248:A3 *358:43 0.000134564
14 *216:8 *217:16 0.000635588
15 *216:8 *311:31 0.000255821
16 *211:16 *1248:A3 0.000164594
*RES
1 *1246:ZN *216:8 10.748 
2 *216:8 *1248:A3 12.8 
3 *216:8 *1247:A2 10.216 
*END

*D_NET *217 0.0121489
*CONN
*I *1339:A1 I *D gf180mcu_fd_sc_mcu7t5v0__and2_1
*I *1523:I I *D gf180mcu_fd_sc_mcu7t5v0__dlyb_1
*I *1288:S I *D gf180mcu_fd_sc_mcu7t5v0__mux2_2
*I *1247:ZN O *D gf180mcu_fd_sc_mcu7t5v0__nor2_1
*CAP
1 *1339:A1 0.000275597
2 *1523:I 0.000658546
3 *1288:S 0
4 *1247:ZN 0.000171493
5 *217:16 0.000984941
6 *217:12 0.000773485
7 *1339:A1 *1392:I 0.00150997
8 *1339:A1 *1531:I 0.00206984
9 *1339:A1 *269:16 0
10 *1339:A1 *311:14 0.000431535
11 *1339:A1 *319:30 0.00028423
12 *1523:I *1264:A2 1.28891e-05
13 *1523:I *1287:S 0
14 *1523:I *1288:I0 0.000968616
15 *1523:I *1323:I1 0
16 *1523:I *1449:CLK 0.000143649
17 *1523:I *348:10 0.000248576
18 *217:12 *1394:I 0.000167138
19 *217:12 *311:14 0.000192419
20 *217:12 *311:31 4.66861e-05
21 *217:12 *319:30 0.000201535
22 *217:16 *1246:B 0.000161652
23 *217:16 *1449:CLK 0.000651006
24 *217:16 *270:22 0.000118153
25 *217:16 *294:52 3.57052e-05
26 *217:16 *311:31 1.12495e-05
27 *217:16 *358:10 0.000807932
28 *1248:A3 *217:16 0.00052226
29 *1502:SETN *1339:A1 0
30 *1504:SETN *217:12 6.42585e-05
31 *216:8 *217:16 0.000635588
*RES
1 *1247:ZN *217:12 15.172 
2 *217:12 *217:16 9.896 
3 *217:16 *1288:S 9 
4 *217:16 *1523:I 14.7 
5 *217:12 *1339:A1 11.188 
*END

*D_NET *218 0.0134619
*CONN
*I *1261:A2 I *D gf180mcu_fd_sc_mcu7t5v0__nor2_1
*I *1249:A3 I *D gf180mcu_fd_sc_mcu7t5v0__oai31_1
*I *1248:ZN O *D gf180mcu_fd_sc_mcu7t5v0__nor3_1
*CAP
1 *1261:A2 0.00224764
2 *1249:A3 0
3 *1248:ZN 0.00035282
4 *218:12 0.00260046
5 *1261:A2 *1252:A1 0
6 *1261:A2 *1255:A2 0.000149579
7 *1261:A2 *1255:B1 0
8 *1261:A2 *1258:A1 0.000484832
9 *1261:A2 *1260:A1 1.15275e-05
10 *1261:A2 *1260:A2 4.50449e-05
11 *1261:A2 *1262:A1 5.65586e-05
12 *1261:A2 *1272:A2 0.000290197
13 *1261:A2 *1478:CLK 0.000258182
14 *1261:A2 *1481:CLK 0.000865512
15 *1261:A2 *1483:CLK 0.000379274
16 *1261:A2 *1503:CLK 0.0006213
17 *1261:A2 *1531:I 2.71577e-05
18 *1261:A2 *219:10 0
19 *1261:A2 *225:26 2.57058e-06
20 *1261:A2 *298:23 0.00133747
21 *1261:A2 *345:10 0
22 *1261:A2 *345:14 0.000171706
23 *1261:A2 *358:47 0.000149555
24 *218:12 *1531:I 1.2339e-05
25 *218:12 *220:10 0
26 *218:12 *358:43 0.0005755
27 sda *1261:A2 3.25235e-05
28 *1248:A3 *218:12 0.000154451
29 *1249:A2 *1261:A2 5.59457e-05
30 *1250:A1 *1261:A2 0.000203975
31 *1250:A1 *218:12 0.000384632
32 *1272:A1 *1261:A2 0.000733203
33 *1480:D *1261:A2 7.24795e-05
34 *1481:D *1261:A2 9.58397e-05
35 *1482:D *1261:A2 0.000434294
36 *10:19 *1261:A2 0.000157386
37 *211:16 *218:12 0.000154451
38 *211:20 *218:12 0.000343486
*RES
1 *1248:ZN *218:12 9.668 
2 *218:12 *1249:A3 4.5 
3 *218:12 *1261:A2 45.756 
*END

*D_NET *219 0.00501482
*CONN
*I *1540:I I *D gf180mcu_fd_sc_mcu7t5v0__clkbuf_1
*I *1255:B2 I *D gf180mcu_fd_sc_mcu7t5v0__oai22_1
*I *1249:ZN O *D gf180mcu_fd_sc_mcu7t5v0__oai31_1
*CAP
1 *1540:I 0.000306614
2 *1255:B2 0
3 *1249:ZN 0.000928361
4 *219:10 0.00123497
5 *1540:I *1252:A1 0
6 *1540:I *1253:A1 0.000255714
7 *1540:I *1253:A2 1.44832e-05
8 *1540:I *1254:A2 3.86561e-05
9 *1540:I *1489:CLK 0
10 *1540:I *222:10 0
11 *1540:I *223:6 2.6126e-05
12 *219:10 *1252:A1 6.00599e-05
13 *219:10 *1255:B1 0.000317494
14 *219:10 *1272:A2 0.000544478
15 *219:10 *220:10 0.000810906
16 *219:10 *222:10 0
17 sda *219:10 2.97523e-05
18 *1249:A2 *219:10 8.07935e-05
19 *1250:A1 *219:10 6.15468e-05
20 *1255:A1 *1540:I 0
21 *1261:A2 *219:10 0
22 *1272:A1 *219:10 2.38111e-05
23 *1478:D *219:10 6.44359e-05
24 *1483:RN *1540:I 0.000111858
25 *10:19 *219:10 0.000104751
*RES
1 *1249:ZN *219:10 18.728 
2 *219:10 *1255:B2 9 
3 *219:10 *1540:I 11.736 
*END

*D_NET *220 0.00620586
*CONN
*I *1259:A2 I *D gf180mcu_fd_sc_mcu7t5v0__oai22_1
*I *1254:A1 I *D gf180mcu_fd_sc_mcu7t5v0__nand2_1
*I *1252:A1 I *D gf180mcu_fd_sc_mcu7t5v0__aoi21_1
*I *1250:ZN O *D gf180mcu_fd_sc_mcu7t5v0__nor2_1
*CAP
1 *1259:A2 0.000262848
2 *1254:A1 0
3 *1252:A1 0.000571649
4 *1250:ZN 0.000700098
5 *220:10 0.0010089
6 *1252:A1 *1253:A2 3.94525e-05
7 *1252:A1 *1255:A2 0
8 *1252:A1 *1255:B1 0.000376901
9 *1252:A1 *1339:A2 0
10 *1252:A1 *223:6 0
11 *1259:A2 *1251:A1 2.40654e-06
12 *1259:A2 *1251:A2 0.000502835
13 *1259:A2 *1260:B 1.02578e-05
14 *1259:A2 *221:8 0.000336522
15 *1259:A2 *304:23 0.000665078
16 *1259:A2 *346:14 6.22405e-05
17 *220:10 *1339:A2 0
18 *220:10 *1531:I 0.000127707
19 *1250:A1 *220:10 9.26705e-05
20 *1255:A1 *1252:A1 5.54728e-05
21 *1261:A2 *1252:A1 0
22 *1503:SETN *220:10 0.000519856
23 *1540:I *1252:A1 0
24 *218:12 *220:10 0
25 *219:10 *1252:A1 6.00599e-05
26 *219:10 *220:10 0.000810906
*RES
1 *1250:ZN *220:10 12.176 
2 *220:10 *1252:A1 7.084 
3 *220:10 *1254:A1 4.5 
4 *1252:A1 *1259:A2 13.256 
*END

*D_NET *221 0.00150048
*CONN
*I *1253:A2 I *D gf180mcu_fd_sc_mcu7t5v0__nor2_1
*I *1252:A2 I *D gf180mcu_fd_sc_mcu7t5v0__aoi21_1
*I *1251:ZN O *D gf180mcu_fd_sc_mcu7t5v0__nand3_1
*CAP
1 *1253:A2 0.000199424
2 *1252:A2 0
3 *1251:ZN 0.000280477
4 *221:8 0.000479901
5 *1253:A2 *1253:A1 6.22304e-05
6 *1253:A2 *304:12 7.83779e-05
7 *221:8 *1251:A1 0
8 *221:8 *1253:A1 9.61205e-06
9 *1252:A1 *1253:A2 3.94525e-05
10 *1259:A2 *221:8 0.000336522
11 *1483:RN *221:8 0
12 *1540:I *1253:A2 1.44832e-05
*RES
1 *1251:ZN *221:8 6.932 
2 *221:8 *1252:A2 4.5 
3 *221:8 *1253:A2 6.096 
*END

*D_NET *222 0.00316522
*CONN
*I *1258:A1 I *D gf180mcu_fd_sc_mcu7t5v0__nor2_1
*I *1255:A2 I *D gf180mcu_fd_sc_mcu7t5v0__oai22_1
*I *1252:ZN O *D gf180mcu_fd_sc_mcu7t5v0__aoi21_1
*CAP
1 *1258:A1 0.000273526
2 *1255:A2 9.03721e-05
3 *1252:ZN 0.000203159
4 *222:10 0.000567056
5 *1258:A1 *1257:A2 2.05156e-05
6 *1258:A1 *304:23 0.000117374
7 *1258:A1 *345:29 3.08902e-05
8 *1252:A1 *1255:A2 0
9 *1255:A1 *222:10 0.000269865
10 *1261:A2 *1255:A2 0.000149579
11 *1261:A2 *1258:A1 0.000484832
12 *1482:D *1258:A1 0.000154451
13 *1483:D *1255:A2 0.000238978
14 *1483:D *1258:A1 0.000564624
15 *1540:I *222:10 0
16 *219:10 *222:10 0
*RES
1 *1252:ZN *222:10 14.792 
2 *222:10 *1255:A2 5.716 
3 *222:10 *1258:A1 8.528 
*END

*D_NET *223 0.00411295
*CONN
*I *1254:A2 I *D gf180mcu_fd_sc_mcu7t5v0__nand2_1
*I *1339:A2 I *D gf180mcu_fd_sc_mcu7t5v0__and2_1
*I *1253:ZN O *D gf180mcu_fd_sc_mcu7t5v0__nor2_1
*CAP
1 *1254:A2 0.000136898
2 *1339:A2 0.00102038
3 *1253:ZN 0.000164775
4 *223:6 0.00132205
5 *1339:A2 *1432:I 0.000441055
6 *1339:A2 *1500:CLK 0
7 *1339:A2 *1528:I 0
8 *1339:A2 *1531:I 0.000734664
9 *1339:A2 *318:31 0
10 *1339:A2 *360:23 0
11 *1252:A1 *1339:A2 0
12 *1252:A1 *223:6 0
13 *1478:SETN *1339:A2 0.00016204
14 *1502:SETN *1339:A2 0
15 *1503:SETN *1254:A2 3.37776e-05
16 *1503:SETN *1339:A2 3.25356e-05
17 *1540:I *1254:A2 3.86561e-05
18 *1540:I *223:6 2.6126e-05
19 *220:10 *1339:A2 0
*RES
1 *1253:ZN *223:6 5.488 
2 *223:6 *1339:A2 12.708 
3 *223:6 *1254:A2 14.64 
*END

*D_NET *224 0.000750806
*CONN
*I *1255:B1 I *D gf180mcu_fd_sc_mcu7t5v0__oai22_1
*I *1254:ZN O *D gf180mcu_fd_sc_mcu7t5v0__nand2_1
*CAP
1 *1255:B1 2.82057e-05
2 *1254:ZN 2.82057e-05
3 *1252:A1 *1255:B1 0.000376901
4 *1261:A2 *1255:B1 0
5 *219:10 *1255:B1 0.000317494
*RES
1 *1254:ZN *1255:B1 9.988 
*END

*D_NET *225 0.00383112
*CONN
*I *1262:A1 I *D gf180mcu_fd_sc_mcu7t5v0__nor2_1
*I *1260:A2 I *D gf180mcu_fd_sc_mcu7t5v0__aoi21_1
*I *1259:B1 I *D gf180mcu_fd_sc_mcu7t5v0__oai22_1
*I *1257:A2 I *D gf180mcu_fd_sc_mcu7t5v0__aoi21_1
*I *1256:ZN O *D gf180mcu_fd_sc_mcu7t5v0__nor2_1
*CAP
1 *1262:A1 0.000146652
2 *1260:A2 3.97845e-05
3 *1259:B1 0
4 *1257:A2 7.38433e-05
5 *1256:ZN 5.46724e-05
6 *225:26 0.000397859
7 *225:8 0.000137077
8 *225:6 0.000329328
9 *1257:A2 *304:23 0.000389469
10 *1257:A2 *345:29 0.000171927
11 *1262:A1 *1544:I 0
12 *225:8 *1256:A2 0.000772841
13 *225:8 *1260:B 4.10312e-05
14 *225:8 *304:23 3.08902e-05
15 *225:8 *345:14 0.000374234
16 *225:8 *345:29 6.00599e-05
17 *225:26 *1260:A1 0.000255722
18 *225:26 *1260:B 0.000211119
19 *225:26 *1262:A2 2.57058e-06
20 *225:26 *344:25 0
21 *225:26 *345:14 0.000217351
22 *1258:A1 *1257:A2 2.05156e-05
23 *1261:A2 *1260:A2 4.50449e-05
24 *1261:A2 *1262:A1 5.65586e-05
25 *1261:A2 *225:26 2.57058e-06
*RES
1 *1256:ZN *225:6 4.88 
2 *225:6 *225:8 2.356 
3 *225:8 *1257:A2 5.868 
4 *225:8 *1259:B1 4.5 
5 *225:6 *225:26 2.736 
6 *225:26 *1260:A2 4.956 
7 *225:26 *1262:A1 5.488 
*END

*D_NET *226 0.00025759
*CONN
*I *1258:A2 I *D gf180mcu_fd_sc_mcu7t5v0__nor2_1
*I *1257:ZN O *D gf180mcu_fd_sc_mcu7t5v0__aoi21_1
*CAP
1 *1258:A2 6.17382e-05
2 *1257:ZN 6.17382e-05
3 *1258:A2 *298:14 0
4 *1258:A2 *345:29 0.000134113
*RES
1 *1257:ZN *1258:A2 18.684 
*END

*D_NET *227 0.00175213
*CONN
*I *1260:B I *D gf180mcu_fd_sc_mcu7t5v0__aoi21_1
*I *1259:ZN O *D gf180mcu_fd_sc_mcu7t5v0__oai22_1
*CAP
1 *1260:B 0.00044356
2 *1259:ZN 0.00044356
3 *1260:B *1251:A3 0.000146163
4 *1260:B *1256:A2 0.000344204
5 *1260:B *1262:A2 0
6 *1260:B *304:23 2.57058e-06
7 *1260:B *344:25 0.000109662
8 *1259:A2 *1260:B 1.02578e-05
9 *225:8 *1260:B 4.10312e-05
10 *225:26 *1260:B 0.000211119
*RES
1 *1259:ZN *1260:B 13.636 
*END

*D_NET *228 0.000197222
*CONN
*I *1262:A2 I *D gf180mcu_fd_sc_mcu7t5v0__nor2_1
*I *1261:ZN O *D gf180mcu_fd_sc_mcu7t5v0__nor2_1
*CAP
1 *1262:A2 9.60406e-05
2 *1261:ZN 9.60406e-05
3 *1262:A2 *1544:I 2.57058e-06
4 *1260:B *1262:A2 0
5 *225:26 *1262:A2 2.57058e-06
*RES
1 *1261:ZN *1262:A2 9.684 
*END

*D_NET *229 0.00202211
*CONN
*I *1265:A1 I *D gf180mcu_fd_sc_mcu7t5v0__nand2_1
*I *1263:ZN O *D gf180mcu_fd_sc_mcu7t5v0__nor4_1
*CAP
1 *1265:A1 0.000336727
2 *1263:ZN 0.000336727
3 *1265:A1 *1263:A2 0.00011703
4 *1265:A1 *1265:A2 0.000195484
5 *1265:A1 *1285:S 0.00010255
6 *1265:A1 *1509:I 0
7 *1265:A1 *308:82 8.49853e-05
8 *1265:A1 *351:16 0.000193933
9 *1265:A1 *352:14 0.000255722
10 *1265:A1 *352:39 0.000398951
*RES
1 *1263:ZN *1265:A1 13.028 
*END

*D_NET *230 0.000822934
*CONN
*I *1265:A2 I *D gf180mcu_fd_sc_mcu7t5v0__nand2_1
*I *1264:ZN O *D gf180mcu_fd_sc_mcu7t5v0__nor4_1
*CAP
1 *1265:A2 9.86238e-05
2 *1264:ZN 9.86238e-05
3 *1265:A2 *1516:I 0.000255714
4 *1265:A2 *308:82 0.000171918
5 *1265:A2 *352:39 2.57058e-06
6 *1265:A1 *1265:A2 0.000195484
*RES
1 *1264:ZN *1265:A2 10.672 
*END

*D_NET *231 0.0130846
*CONN
*I *1266:A2 I *D gf180mcu_fd_sc_mcu7t5v0__aoi211_1
*I *1271:A2 I *D gf180mcu_fd_sc_mcu7t5v0__aoi211_1
*I *1350:A2 I *D gf180mcu_fd_sc_mcu7t5v0__nor2_1
*I *1265:ZN O *D gf180mcu_fd_sc_mcu7t5v0__nand2_1
*CAP
1 *1266:A2 0.00032825
2 *1271:A2 4.65073e-05
3 *1350:A2 9.26657e-05
4 *1265:ZN 0.00209248
5 *231:29 0.000492594
6 *231:14 0.00230298
7 *1266:A2 *1267:B 0.000353732
8 *1266:A2 *1270:A2 7.67669e-06
9 *1266:A2 *1271:A1 2.22758e-05
10 *1266:A2 *1271:C 2.22533e-05
11 *1266:A2 *319:30 1.49066e-06
12 *1266:A2 *327:29 5.14116e-06
13 *1271:A2 *1267:B 0
14 *1271:A2 *1272:A2 7.24161e-06
15 *1350:A2 *1237:A1 0.00030161
16 *1350:A2 *1352:A1 0
17 *1350:A2 *327:67 9.52854e-05
18 *231:14 *1237:A1 0.000387765
19 *231:14 *1284:I1 0.00018127
20 *231:14 *1285:S 1.83298e-05
21 *231:14 *1287:I0 3.62154e-05
22 *231:14 *1318:A1 0
23 *231:14 *1320:I0 0
24 *231:14 *1348:A1 0
25 *231:14 *1349:A1 1.34641e-06
26 *231:14 *1352:A1 0
27 *231:14 *1471:CLK 6.31119e-05
28 *231:14 *1507:I 0.00030983
29 *231:14 *253:42 0.00114338
30 *231:14 *269:32 0.000357798
31 *231:14 *294:12 0.000201628
32 *231:14 *308:82 1.72912e-05
33 *231:14 *330:12 0
34 *231:14 *349:83 7.89194e-05
35 *231:14 *351:22 0.000381743
36 *231:14 *352:39 0.00032464
37 *231:14 *366:45 7.55407e-05
38 *231:29 *1272:A2 0
39 *231:29 *1351:B 2.41898e-05
40 *1242:A2 *1266:A2 1.44832e-05
41 *1266:B *1266:A2 0.00102142
42 *1472:D *231:14 6.54913e-05
43 *1493:D *1266:A2 0
44 *1493:D *1271:A2 5.14116e-06
45 *206:6 *231:29 0.000877362
46 *206:8 *231:29 0.000307974
47 *211:16 *231:29 0.00101753
*RES
1 *1265:ZN *231:14 26.784 
2 *231:14 *1350:A2 9.988 
3 *231:14 *231:29 7.996 
4 *231:29 *1271:A2 4.956 
5 *231:29 *1266:A2 8.756 
*END

*D_NET *232 0.00137639
*CONN
*I *1267:B I *D gf180mcu_fd_sc_mcu7t5v0__aoi21_1
*I *1266:ZN O *D gf180mcu_fd_sc_mcu7t5v0__aoi211_1
*CAP
1 *1267:B 0.000155884
2 *1266:ZN 0.000155884
3 *1267:B *319:30 0
4 *1267:B *327:16 6.00599e-05
5 *1267:B *327:29 0.000650825
6 *1266:A2 *1267:B 0.000353732
7 *1271:A2 *1267:B 0
*RES
1 *1266:ZN *1267:B 11.584 
*END

*D_NET *233 0.00107947
*CONN
*I *1270:A1 I *D gf180mcu_fd_sc_mcu7t5v0__nor2_1
*I *1267:ZN O *D gf180mcu_fd_sc_mcu7t5v0__aoi21_1
*CAP
1 *1270:A1 0.000265224
2 *1267:ZN 0.000265224
3 *1270:A1 *1493:CLK 0.000187321
4 *1270:A1 *327:16 0
5 *1270:A1 *327:29 0.000212121
6 *1267:A2 *1270:A1 0
7 *1493:D *1270:A1 0.000149579
*RES
1 *1267:ZN *1270:A1 11.812 
*END

*D_NET *234 0.00117293
*CONN
*I *1269:A2 I *D gf180mcu_fd_sc_mcu7t5v0__nor2_1
*I *1268:Z O *D gf180mcu_fd_sc_mcu7t5v0__xor2_1
*CAP
1 *1269:A2 0.000149141
2 *1268:Z 0.000149141
3 *1269:A2 *1245:A1 0.000145457
4 *1269:A2 *360:23 0.000333512
5 *1269:A2 *360:29 2.80809e-05
6 *1245:A2 *1269:A2 7.59351e-05
7 *1245:A3 *1269:A2 0.000127068
8 *1343:A2 *1269:A2 0
9 *157:24 *1269:A2 0.00011955
10 *214:19 *1269:A2 4.50449e-05
*RES
1 *1268:Z *1269:A2 11.432 
*END

*D_NET *235 0.0102675
*CONN
*I *1340:A1 I *D gf180mcu_fd_sc_mcu7t5v0__or2_1
*I *1344:A2 I *D gf180mcu_fd_sc_mcu7t5v0__nor2_1
*I *1270:A2 I *D gf180mcu_fd_sc_mcu7t5v0__nor2_1
*I *1269:ZN O *D gf180mcu_fd_sc_mcu7t5v0__nor2_1
*CAP
1 *1340:A1 0
2 *1344:A2 0
3 *1270:A2 0.000531703
4 *1269:ZN 0.000229857
5 *235:18 0.00199933
6 *235:6 0.00169748
7 *1270:A2 *319:30 0.00170955
8 *1270:A2 *327:16 2.79936e-05
9 *235:6 *1268:A1 2.40654e-06
10 *235:6 *1343:B1 0
11 *235:6 *359:8 2.73945e-05
12 *235:6 *360:29 0.000555104
13 *235:18 *1349:A1 0
14 *235:18 *1352:A1 0.000140723
15 *235:18 *1353:A2 2.05876e-05
16 *235:18 *271:19 4.7151e-05
17 *235:18 *301:12 0.00107805
18 *1242:A2 *1270:A2 5.54829e-05
19 *1245:A3 *235:6 1.44832e-05
20 *1266:A1 *1270:A2 0.000403764
21 *1266:A2 *1270:A2 7.67669e-06
22 *1266:B *1270:A2 0.000526781
23 *1343:A3 *235:6 0.000162031
24 *1495:D *235:6 1.52691e-05
25 *206:6 *1270:A2 2.976e-05
26 *206:8 *1270:A2 2.03665e-05
27 *207:10 *235:18 0.000878979
28 *214:19 *235:6 8.55327e-05
*RES
1 *1269:ZN *235:6 7.008 
2 *235:6 *235:18 28.792 
3 *235:18 *1270:A2 20.188 
4 *235:18 *1344:A2 4.5 
5 *235:6 *1340:A1 4.5 
*END

*D_NET *236 0.00836689
*CONN
*I *1272:A2 I *D gf180mcu_fd_sc_mcu7t5v0__nor2_1
*I *1271:ZN O *D gf180mcu_fd_sc_mcu7t5v0__aoi211_1
*CAP
1 *1272:A2 0.00121741
2 *1271:ZN 0.00121741
3 *1272:A2 *1184:I 6.3307e-05
4 *1272:A2 *1238:A1 0.000128724
5 *1272:A2 *1271:C 0
6 *1272:A2 *1351:A2 0.000349833
7 *1272:A2 *1351:B 1.33594e-05
8 *1272:A2 *1352:A1 0.000153906
9 *1272:A2 *1504:D 7.57767e-05
10 *1272:A2 *327:67 0.000116963
11 *1272:A2 *359:42 3.6043e-05
12 *1238:A2 *1272:A2 0.000140167
13 *1243:A3 *1272:A2 0.00026286
14 *1249:A1 *1272:A2 0.000673025
15 *1249:B *1272:A2 0.0015792
16 *1250:A1 *1272:A2 3.2667e-05
17 *1261:A2 *1272:A2 0.000290197
18 *1271:A2 *1272:A2 7.24161e-06
19 *1350:A1 *1272:A2 0.000161058
20 *1493:D *1272:A2 0.000104535
21 *158:6 *1272:A2 0.00101904
22 *211:16 *1272:A2 0.000125262
23 *211:20 *1272:A2 5.44227e-05
24 *219:10 *1272:A2 0.000544478
25 *231:29 *1272:A2 0
*RES
1 *1271:ZN *1272:A2 25.644 
*END

*D_NET *237 0.00663405
*CONN
*I *1277:A2 I *D gf180mcu_fd_sc_mcu7t5v0__aoi21_1
*I *1274:A2 I *D gf180mcu_fd_sc_mcu7t5v0__nor2_1
*I *1275:A2 I *D gf180mcu_fd_sc_mcu7t5v0__aoi21_1
*I *1276:A2 I *D gf180mcu_fd_sc_mcu7t5v0__nor2_1
*I *1354:A1 I *D gf180mcu_fd_sc_mcu7t5v0__nand2_1
*I *1273:ZN O *D gf180mcu_fd_sc_mcu7t5v0__nand2_1
*CAP
1 *1277:A2 0
2 *1274:A2 7.65413e-05
3 *1275:A2 0.00031008
4 *1276:A2 4.82664e-05
5 *1354:A1 0.000252591
6 *1273:ZN 0.000355042
7 *237:34 0.00105757
8 *237:19 0.00105317
9 *237:8 0.000941583
10 *1274:A2 *1275:B 0
11 *1275:A2 *1275:B 1.59806e-05
12 *1275:A2 *1277:B 2.9378e-06
13 *1275:A2 *1477:CLK 0
14 *1275:A2 *1541:I 0
15 *1276:A2 *1292:I0 3.08902e-05
16 *1276:A2 *310:88 0.000111858
17 *1276:A2 *348:24 9.68431e-05
18 *1354:A1 *366:12 3.49712e-05
19 *237:8 *1345:A1 0.000262008
20 *237:8 *1514:I 0.000179609
21 *237:8 *270:22 0.000161539
22 *237:8 *293:18 1.15312e-05
23 *237:19 *310:96 0
24 *237:19 *366:12 4.1019e-05
25 *237:34 *1274:A1 3.07531e-05
26 *237:34 *1277:B 3.84832e-06
27 *237:34 *1476:CLK 0
28 *237:34 *310:96 0
29 *237:34 *366:12 3.34531e-06
30 *1275:A1 *1275:A2 0.000610759
31 *1345:A2 *237:8 5.83634e-05
32 *1476:D *237:34 0.000203876
33 *1477:D *1275:A2 0.00032464
34 *1501:D *237:8 0
35 *1501:RN *237:34 0.000354434
*RES
1 *1273:ZN *237:8 12.572 
2 *237:8 *1354:A1 10.596 
3 *237:8 *237:19 2.052 
4 *237:19 *1276:A2 9.684 
5 *237:19 *237:34 9.82 
6 *237:34 *1275:A2 7.464 
7 *237:34 *1274:A2 5.032 
8 *237:34 *1277:A2 4.5 
*END

*D_NET *238 0.000864915
*CONN
*I *1275:B I *D gf180mcu_fd_sc_mcu7t5v0__aoi21_1
*I *1274:ZN O *D gf180mcu_fd_sc_mcu7t5v0__nor2_1
*CAP
1 *1275:B 0.000325137
2 *1274:ZN 0.000325137
3 *1275:B *1431:I 0
4 *1274:A2 *1275:B 0
5 *1275:A1 *1275:B 0.000198661
6 *1275:A2 *1275:B 1.59806e-05
7 *1310:A1 *1275:B 0
*RES
1 *1274:ZN *1275:B 11.356 
*END

*D_NET *239 0.00114869
*CONN
*I *1277:B I *D gf180mcu_fd_sc_mcu7t5v0__aoi21_1
*I *1276:ZN O *D gf180mcu_fd_sc_mcu7t5v0__nor2_1
*CAP
1 *1277:B 0.000435512
2 *1276:ZN 0.000435512
3 *1277:B *1292:I0 0
4 *1277:B *366:12 0
5 *1275:A2 *1277:B 2.9378e-06
6 *1476:D *1277:B 0.00027088
7 *237:34 *1277:B 3.84832e-06
*RES
1 *1276:ZN *1277:B 12.04 
*END

*D_NET *240 0.000391438
*CONN
*I *1279:B I *D gf180mcu_fd_sc_mcu7t5v0__oai21_1
*I *1278:ZN O *D gf180mcu_fd_sc_mcu7t5v0__nand2_1
*CAP
1 *1279:B 0.000101353
2 *1278:ZN 0.000101353
3 *1279:B *1321:A1 0
4 *1279:B *354:48 0.000188733
*RES
1 *1278:ZN *1279:B 9.912 
*END

*D_NET *241 0.000407494
*CONN
*I *1281:B I *D gf180mcu_fd_sc_mcu7t5v0__aoi21_1
*I *1280:ZN O *D gf180mcu_fd_sc_mcu7t5v0__nor2_1
*CAP
1 *1281:B 0.000112684
2 *1280:ZN 0.000112684
3 *1281:B *1280:A1 9.14083e-05
4 *1281:B *253:42 9.07169e-05
*RES
1 *1280:ZN *1281:B 9.988 
*END

*D_NET *242 0.00016968
*CONN
*I *1283:B I *D gf180mcu_fd_sc_mcu7t5v0__oai21_1
*I *1282:ZN O *D gf180mcu_fd_sc_mcu7t5v0__nand2_1
*CAP
1 *1283:B 8.48399e-05
2 *1282:ZN 8.48399e-05
*RES
1 *1282:ZN *1283:B 9.456 
*END

*D_NET *243 0.00668485
*CONN
*I *1290:S I *D gf180mcu_fd_sc_mcu7t5v0__mux2_2
*I *1291:S I *D gf180mcu_fd_sc_mcu7t5v0__mux2_2
*I *1292:S I *D gf180mcu_fd_sc_mcu7t5v0__mux2_2
*I *1289:ZN O *D gf180mcu_fd_sc_mcu7t5v0__nand3_1
*CAP
1 *1290:S 0.000235177
2 *1291:S 0.000572083
3 *1292:S 0.000463952
4 *1289:ZN 0.00011684
5 *243:8 0.000917699
6 *1290:S *1290:I1 0
7 *1290:S *1291:I1 0.000585196
8 *1290:S *1306:A1 0.000269881
9 *1290:S *1467:CLK 9.26705e-05
10 *1290:S *1527:I 7.50331e-05
11 *1290:S *319:62 3.42838e-05
12 *1291:S *1289:A1 0.000333388
13 *1291:S *1291:I1 4.02664e-05
14 *1291:S *310:66 2.07359e-05
15 *1291:S *319:62 0
16 *1291:S *349:25 0.00027144
17 *1291:S *349:33 9.32046e-05
18 *1291:S *357:10 0.000206333
19 *1292:S *1274:A1 4.60055e-05
20 *1292:S *1292:I0 0.00020124
21 *1292:S *1292:I1 2.6126e-05
22 *1292:S *1477:CLK 0.000301222
23 *1292:S *310:66 0.000237037
24 *1292:S *349:25 4.43032e-05
25 *243:8 *1274:A1 0
26 *243:8 *349:12 2.85624e-05
27 *1277:A1 *1291:S 2.47642e-05
28 *1277:A1 *1292:S 0.000911953
29 *1277:A1 *243:8 0.000243544
30 *1466:D *1291:S 0.000110874
31 *1467:D *1290:S 1.52768e-05
32 *140:14 *243:8 0.000165756
*RES
1 *1289:ZN *243:8 10.14 
2 *243:8 *1292:S 14.168 
3 *243:8 *1291:S 13.028 
4 *1291:S *1290:S 20.812 
*END

*D_NET *244 0.0104051
*CONN
*I *1522:I I *D gf180mcu_fd_sc_mcu7t5v0__dlyb_1
*I *1521:I I *D gf180mcu_fd_sc_mcu7t5v0__dlyb_1
*I *1293:ZN O *D gf180mcu_fd_sc_mcu7t5v0__nand3_1
*CAP
1 *1522:I 0.00144795
2 *1521:I 0
3 *1293:ZN 0.000885281
4 *244:12 0.00233323
5 *1522:I *1355:A2 0
6 *1522:I *1425:I 0.00011955
7 *1522:I *1426:I 7.57844e-05
8 *1522:I *1457:CLK 0.000116355
9 *1522:I *1527:I 0.00338835
10 *1522:I *296:6 0
11 *1522:I *306:119 0
12 *1522:I *314:6 3.00299e-05
13 *1522:I *326:22 0
14 *244:12 *1290:I1 9.52854e-05
15 *244:12 *1457:CLK 0.00010286
16 *244:12 *1527:I 0.000636086
17 *244:12 *349:25 0.000159849
18 *244:12 *349:33 5.2631e-05
19 *244:12 *350:8 0
20 *244:12 *350:14 0.000151844
21 *1264:A3 *1522:I 0.000181778
22 *1299:A1 *1522:I 0.000379283
23 *1355:A3 *1522:I 9.26705e-05
24 *1441:D *1522:I 0.000103895
25 *1442:D *1522:I 1.52768e-05
26 *1462:D *1522:I 1.97747e-05
27 *1471:RN *1522:I 1.72912e-05
*RES
1 *1293:ZN *244:12 20.492 
2 *244:12 *1521:I 4.5 
3 *244:12 *1522:I 19.32 
*END

*D_NET *245 0.00143834
*CONN
*I *1295:B I *D gf180mcu_fd_sc_mcu7t5v0__oai21_1
*I *1294:ZN O *D gf180mcu_fd_sc_mcu7t5v0__nand2_1
*CAP
1 *1295:B 0.000469088
2 *1294:ZN 0.000469088
3 *1295:B *1295:A2 7.45328e-07
4 *1295:B *299:14 0.000441063
5 *1295:B *299:16 0
6 *1464:D *1295:B 5.83557e-05
*RES
1 *1294:ZN *1295:B 12.648 
*END

*D_NET *246 0.000521837
*CONN
*I *1297:B I *D gf180mcu_fd_sc_mcu7t5v0__aoi21_1
*I *1296:ZN O *D gf180mcu_fd_sc_mcu7t5v0__nor2_1
*CAP
1 *1297:B 8.62288e-05
2 *1296:ZN 8.62288e-05
3 *1297:B *1409:I 0
4 *1297:B *307:32 0.00034938
*RES
1 *1296:ZN *1297:B 18.988 
*END

*D_NET *247 0.00104702
*CONN
*I *1299:B I *D gf180mcu_fd_sc_mcu7t5v0__oai21_1
*I *1298:ZN O *D gf180mcu_fd_sc_mcu7t5v0__nand2_1
*CAP
1 *1299:B 0.000154679
2 *1298:ZN 0.000154679
3 *1299:B *1298:A1 7.98048e-05
4 *1299:B *1299:A2 0.000657859
5 *1299:B *296:55 0
*RES
1 *1298:ZN *1299:B 20.052 
*END

*D_NET *248 0.000805099
*CONN
*I *1301:B I *D gf180mcu_fd_sc_mcu7t5v0__aoi21_1
*I *1300:ZN O *D gf180mcu_fd_sc_mcu7t5v0__nor2_1
*CAP
1 *1301:B 0.00024701
2 *1300:ZN 0.00024701
3 *1301:B *1321:A1 0.000150858
4 *1301:B *1461:CLK 4.26315e-06
5 *1301:B *1463:CLK 0.000155958
*RES
1 *1300:ZN *1301:B 10.596 
*END

*D_NET *249 0.00117101
*CONN
*I *1303:B I *D gf180mcu_fd_sc_mcu7t5v0__aoi21_1
*I *1302:ZN O *D gf180mcu_fd_sc_mcu7t5v0__nor2_1
*CAP
1 *1303:B 0.00037618
2 *1302:ZN 0.00037618
3 *1303:B *1302:A2 0.000241831
4 *1303:B *1303:A2 5.76749e-06
5 *1303:B *1395:I 0
6 *1303:B *306:21 0
7 *1303:B *306:25 5.49899e-05
8 *1211:B2 *1303:B 0.000116057
*RES
1 *1302:ZN *1303:B 20.736 
*END

*D_NET *250 0.000533003
*CONN
*I *1305:B I *D gf180mcu_fd_sc_mcu7t5v0__aoi21_1
*I *1304:ZN O *D gf180mcu_fd_sc_mcu7t5v0__nor2_1
*CAP
1 *1305:B 0.0001351
2 *1304:ZN 0.0001351
3 *1305:B *1306:A1 9.88736e-06
4 *1305:B *1307:B 0.000176089
5 *1305:B *313:48 7.68276e-05
*RES
1 *1304:ZN *1305:B 10.14 
*END

*D_NET *251 0.00180609
*CONN
*I *1307:B I *D gf180mcu_fd_sc_mcu7t5v0__aoi21_1
*I *1306:ZN O *D gf180mcu_fd_sc_mcu7t5v0__nor2_1
*CAP
1 *1307:B 0.00042184
2 *1306:ZN 0.00042184
3 *1307:B *1306:A1 0.000510823
4 *1307:B *1306:A2 1.02386e-05
5 *1307:B *295:87 1.6526e-05
6 *1307:B *306:41 7.46015e-06
7 *1307:B *313:48 5.08937e-06
8 *1305:A1 *1307:B 9.92577e-05
9 *1305:B *1307:B 0.000176089
10 *1459:D *1307:B 7.64222e-05
11 *1467:RN *1307:B 6.05076e-05
*RES
1 *1306:ZN *1307:B 12.952 
*END

*D_NET *252 0.00252867
*CONN
*I *1309:B I *D gf180mcu_fd_sc_mcu7t5v0__aoi21_1
*I *1308:ZN O *D gf180mcu_fd_sc_mcu7t5v0__nor2_1
*CAP
1 *1309:B 0.000329868
2 *1308:ZN 0.000329868
3 *1309:B *1308:A2 0.00148547
4 *1309:B *292:119 1.70914e-05
5 *1309:B *295:31 0.000136491
6 *1457:D *1309:B 0.000229879
*RES
1 *1308:ZN *1309:B 22.636 
*END

*D_NET *253 0.0198185
*CONN
*I *1321:A2 I *D gf180mcu_fd_sc_mcu7t5v0__nand2_1
*I *1322:A2 I *D gf180mcu_fd_sc_mcu7t5v0__oai21_1
*I *1319:A2 I *D gf180mcu_fd_sc_mcu7t5v0__oai21_1
*I *1520:I I *D gf180mcu_fd_sc_mcu7t5v0__dlyb_1
*I *1310:Z O *D gf180mcu_fd_sc_mcu7t5v0__and3_1
*CAP
1 *1321:A2 0.000224917
2 *1322:A2 1.53886e-05
3 *1319:A2 0.00052781
4 *1520:I 0.00171608
5 *1310:Z 0.000628521
6 *253:65 0.00117053
7 *253:42 0.00254559
8 *1319:A2 *1319:B 0.000387765
9 *1319:A2 *305:58 0
10 *1319:A2 *331:8 3.07734e-05
11 *1321:A2 *1321:A1 1.5015e-05
12 *1321:A2 *1322:B 0.000193621
13 *1321:A2 *1512:I 0.000103105
14 *1321:A2 *292:72 1.63284e-05
15 *1322:A2 *1450:CLK 7.3227e-05
16 *1520:I *1166:I 3.50638e-06
17 *1520:I *1285:I1 8.69862e-05
18 *1520:I *1470:CLK 8.39435e-05
19 *1520:I *1471:CLK 8.59638e-05
20 *1520:I *292:119 0.000169997
21 *1520:I *295:27 2.51345e-05
22 *1520:I *330:12 0.00068268
23 *1520:I *350:25 6.79538e-05
24 *1520:I *350:38 7.22169e-05
25 *253:42 *1278:A2 4.28981e-05
26 *253:42 *1280:A1 1.14293e-05
27 *253:42 *1285:S 2.8143e-05
28 *253:42 *1313:A1 0.000215472
29 *253:42 *1471:CLK 0.000372137
30 *253:42 *1475:CLK 2.24173e-05
31 *253:42 *308:52 0.000538421
32 *253:42 *308:82 0
33 *253:42 *308:96 0.000246194
34 *253:42 *328:27 8.26511e-05
35 *253:42 *330:43 0.000102186
36 *253:42 *349:83 0.000431362
37 *253:42 *352:39 0.000418561
38 *253:42 *354:38 0
39 *253:42 *354:48 0.000604022
40 *253:65 *1311:A2 0.000841708
41 *253:65 *1312:B 2.68222e-05
42 *253:65 *1313:A1 0.00032464
43 *253:65 *1313:A2 0.000221732
44 *253:65 *1314:B 0.000545567
45 *253:65 *1450:CLK 6.95491e-06
46 *253:65 *1475:CLK 0.000216972
47 *253:65 *1518:I 0
48 *253:65 *292:72 8.15735e-05
49 *253:65 *299:60 0.0013744
50 *253:65 *328:34 0.000169642
51 *253:65 *354:48 1.66121e-06
52 *1279:A1 *253:42 0.000317494
53 *1281:B *253:42 9.07169e-05
54 *1312:A1 *253:65 0
55 *1316:A1 *1319:A2 1.2339e-05
56 *1319:A1 *1319:A2 3.80391e-05
57 *1322:A1 *1321:A2 0.000140663
58 *1322:A1 *253:65 0.000140658
59 *1450:D *1321:A2 0.00026141
60 *1450:D *1322:A2 7.3227e-05
61 *1452:D *1319:A2 3.26059e-05
62 *1471:D *1520:I 0.000693133
63 *1471:D *253:42 0
64 *1472:D *253:42 0.000308754
65 *1474:D *253:42 0.000276008
66 *1475:D *253:42 0.000254684
67 *140:8 *1520:I 0.000166035
68 *141:29 *253:65 0
69 *152:10 *1319:A2 1.47007e-05
70 *231:14 *253:42 0.00114338
*RES
1 *1310:Z *1520:I 25.144 
2 *1520:I *253:42 23.364 
3 *253:42 *1319:A2 12.648 
4 *253:42 *253:65 19.792 
5 *253:65 *1322:A2 9.228 
6 *253:65 *1321:A2 11.28 
*END

*D_NET *254 0.00130305
*CONN
*I *1312:B I *D gf180mcu_fd_sc_mcu7t5v0__aoi21_1
*I *1311:ZN O *D gf180mcu_fd_sc_mcu7t5v0__nor2_1
*CAP
1 *1312:B 0.000398386
2 *1311:ZN 0.000398386
3 *1312:B *1311:A2 1.20079e-05
4 *1312:B *1321:A1 5.97075e-05
5 *1312:B *1518:I 5.15667e-05
6 *1312:B *299:51 0.000317503
7 *1456:D *1312:B 3.867e-05
8 *253:65 *1312:B 2.68222e-05
*RES
1 *1311:ZN *1312:B 12.42 
*END

*D_NET *255 0.00230008
*CONN
*I *1314:B I *D gf180mcu_fd_sc_mcu7t5v0__oai21_1
*I *1313:ZN O *D gf180mcu_fd_sc_mcu7t5v0__nand2_1
*CAP
1 *1314:B 0.000154282
2 *1313:ZN 0.000154282
3 *1314:B *1300:A1 0.000371757
4 *1314:B *1313:A2 0.000378609
5 *1314:B *1475:CLK 0.000431535
6 *1314:B *1510:I 7.08226e-05
7 *1314:B *299:60 0.00013063
8 *151:12 *1314:B 6.25956e-05
9 *253:65 *1314:B 0.000545567
*RES
1 *1313:ZN *1314:B 21.192 
*END

*D_NET *256 0.00106838
*CONN
*I *1316:B I *D gf180mcu_fd_sc_mcu7t5v0__oai21_1
*I *1315:ZN O *D gf180mcu_fd_sc_mcu7t5v0__nand2_1
*CAP
1 *1316:B 0.000218265
2 *1315:ZN 0.000218265
3 *1316:B *305:58 8.02144e-07
4 *1316:B *333:8 0.000440583
5 *1316:B *352:60 3.60156e-05
6 *1316:A1 *1316:B 0.000154451
*RES
1 *1315:ZN *1316:B 11.432 
*END

*D_NET *257 0.006403
*CONN
*I *1319:B I *D gf180mcu_fd_sc_mcu7t5v0__oai21_1
*I *1318:ZN O *D gf180mcu_fd_sc_mcu7t5v0__nand2_1
*CAP
1 *1319:B 0.000696467
2 *1318:ZN 0.000696467
3 *1319:B *1178:I 0.000141888
4 *1319:B *1195:A2 3.83835e-06
5 *1319:B *1287:S 0
6 *1319:B *1315:A1 6.5719e-05
7 *1319:B *1323:S 0
8 *1319:B *1403:I 4.71416e-05
9 *1319:B *1427:I 6.61008e-05
10 *1319:B *1472:CLK 0.0012733
11 *1319:B *305:58 0.000309567
12 *1319:B *330:43 0.00214698
13 *1319:B *333:8 6.94987e-05
14 *1319:A2 *1319:B 0.000387765
15 *1449:SETN *1319:B 0.00032464
16 *1473:RN *1319:B 7.14388e-05
17 *152:10 *1319:B 0.000102192
*RES
1 *1318:ZN *1319:B 28.944 
*END

*D_NET *258 0.00133936
*CONN
*I *1322:B I *D gf180mcu_fd_sc_mcu7t5v0__oai21_1
*I *1321:ZN O *D gf180mcu_fd_sc_mcu7t5v0__nand2_1
*CAP
1 *1322:B 0.000393807
2 *1321:ZN 0.000393807
3 *1322:B *1194:A2 1.34641e-06
4 *1322:B *1512:I 2.11395e-05
5 *1322:B *1513:I 0
6 *1322:B *318:56 0.000335637
7 *1321:A2 *1322:B 0.000193621
*RES
1 *1321:ZN *1322:B 21.04 
*END

*D_NET *259 0.00370881
*CONN
*I *1337:A3 I *D gf180mcu_fd_sc_mcu7t5v0__nor4_1
*I *1539:I I *D gf180mcu_fd_sc_mcu7t5v0__buf_1
*I *1324:ZN O *D gf180mcu_fd_sc_mcu7t5v0__nor3_1
*CAP
1 *1337:A3 0
2 *1539:I 0.000868466
3 *1324:ZN 0.000411045
4 *259:10 0.00127951
5 *1539:I *1335:A2 0
6 *1539:I *1377:I0 3.22701e-05
7 *1539:I *1434:I 2.17248e-05
8 *1539:I *1544:I 0
9 *1539:I *303:18 5.09842e-05
10 *1539:I *316:27 4.78437e-05
11 *1539:I *325:31 0
12 *1539:I *345:10 0.000234067
13 *259:10 *1336:A1 0.00033338
14 *259:10 *1377:I0 2.97354e-06
15 *259:10 *1388:I 7.57844e-05
16 *259:10 *316:62 2.13506e-05
17 *259:10 *325:31 0
18 *259:10 *372:10 0.000171927
19 *1336:A2 *259:10 0
20 *1377:S *259:10 0
21 *1481:RN *1539:I 0.000157477
22 *1487:RN *259:10 0
*RES
1 *1324:ZN *259:10 12.344 
2 *259:10 *1539:I 14.624 
3 *259:10 *1337:A3 9 
*END

*D_NET *260 0.000369432
*CONN
*I *1332:A2 I *D gf180mcu_fd_sc_mcu7t5v0__xor2_1
*I *1325:ZN O *D gf180mcu_fd_sc_mcu7t5v0__nand2_1
*CAP
1 *1332:A2 0.000136767
2 *1325:ZN 0.000136767
3 *1332:A2 *1193:I 7.36325e-05
4 *1332:A2 *1333:A2 2.22657e-05
5 *1332:A2 *318:31 0
*RES
1 *1325:ZN *1332:A2 9.988 
*END

*D_NET *261 0.00102011
*CONN
*I *1330:A2 I *D gf180mcu_fd_sc_mcu7t5v0__xor2_1
*I *1326:ZN O *D gf180mcu_fd_sc_mcu7t5v0__nand3_1
*CAP
1 *1330:A2 0.000221617
2 *1326:ZN 0.000221617
3 *1330:A2 *1326:A1 0.000144931
4 *1330:A2 *1326:A2 8.55242e-05
5 *1330:A2 *1330:A1 0.000346418
*RES
1 *1326:ZN *1330:A2 11.204 
*END

*D_NET *262 0.000356803
*CONN
*I *1328:A2 I *D gf180mcu_fd_sc_mcu7t5v0__xor2_1
*I *1327:ZN O *D gf180mcu_fd_sc_mcu7t5v0__nand4_1
*CAP
1 *1328:A2 0.000112581
2 *1327:ZN 0.000112581
3 *1328:A2 *374:27 0.000131642
*RES
1 *1327:ZN *1328:A2 9.836 
*END

*D_NET *263 0.000799241
*CONN
*I *1329:A3 I *D gf180mcu_fd_sc_mcu7t5v0__nor3_1
*I *1328:Z O *D gf180mcu_fd_sc_mcu7t5v0__xor2_1
*CAP
1 *1329:A3 8.09775e-05
2 *1328:Z 8.09775e-05
3 *1329:A3 *1198:A2 0.00014967
4 *1329:A3 *1332:A1 0.000278996
5 *1329:A3 *315:69 0
6 *1329:A3 *374:27 0.00020862
*RES
1 *1328:Z *1329:A3 19.292 
*END

*D_NET *264 0.000594571
*CONN
*I *1331:A3 I *D gf180mcu_fd_sc_mcu7t5v0__nor3_1
*I *1330:Z O *D gf180mcu_fd_sc_mcu7t5v0__xor2_1
*CAP
1 *1331:A3 0.000156361
2 *1330:Z 0.000156361
3 *1331:A3 *1330:A1 0
4 *1331:A3 *325:55 0.000255722
5 *1331:A3 *325:61 2.6126e-05
*RES
1 *1330:Z *1331:A3 10.216 
*END

*D_NET *265 0.0012045
*CONN
*I *1333:A3 I *D gf180mcu_fd_sc_mcu7t5v0__nor3_1
*I *1332:Z O *D gf180mcu_fd_sc_mcu7t5v0__xor2_1
*CAP
1 *1333:A3 0.000189678
2 *1332:Z 0.000189678
3 *1333:A3 *1333:A1 0.00014664
4 *1333:A3 *1333:A2 0.000638254
5 *1333:A3 *318:31 4.02499e-05
*RES
1 *1332:Z *1333:A3 11.356 
*END

*D_NET *266 0.000221198
*CONN
*I *1335:A3 I *D gf180mcu_fd_sc_mcu7t5v0__nor3_1
*I *1334:ZN O *D gf180mcu_fd_sc_mcu7t5v0__xnor2_1
*CAP
1 *1335:A3 5.57903e-05
2 *1334:ZN 5.57903e-05
3 *1335:A3 *302:16 5.48085e-05
4 *1488:D *1335:A3 5.48085e-05
*RES
1 *1334:ZN *1335:A3 9.532 
*END

*D_NET *267 0.00083074
*CONN
*I *1337:A4 I *D gf180mcu_fd_sc_mcu7t5v0__nor4_1
*I *1336:ZN O *D gf180mcu_fd_sc_mcu7t5v0__nor2_1
*CAP
1 *1337:A4 0.00036372
2 *1336:ZN 0.00036372
3 *1337:A4 *1193:I 0
4 *1337:A4 *1336:A1 0
5 *1337:A4 *1377:I1 2.72304e-05
6 *1337:A4 *1388:I 0
7 *1337:A4 *302:23 7.45328e-07
8 *1487:RN *1337:A4 0
9 *27:10 *1337:A4 7.53241e-05
*RES
1 *1336:ZN *1337:A4 11.432 
*END

*D_NET *268 0.00265202
*CONN
*I *1341:A2 I *D gf180mcu_fd_sc_mcu7t5v0__oai22_1
*I *1342:A2 I *D gf180mcu_fd_sc_mcu7t5v0__oai22_1
*I *1338:ZN O *D gf180mcu_fd_sc_mcu7t5v0__nand2_1
*CAP
1 *1341:A2 0
2 *1342:A2 0.000250621
3 *1338:ZN 0.000401979
4 *268:14 0.0006526
5 *1342:A2 *1186:I 5.09383e-06
6 *1342:A2 *1341:B1 0.000405961
7 *1342:A2 *310:36 0.000620262
8 *1342:A2 *327:10 0
9 *268:14 *1338:A1 2.14834e-05
10 *268:14 *319:30 2.19987e-05
11 *1341:B2 *1342:A2 3.54258e-05
12 *1342:A1 *1342:A2 1.45007e-05
13 *1479:RN *268:14 0.000115046
14 *1493:RN *268:14 0.000107051
*RES
1 *1338:ZN *268:14 7.616 
2 *268:14 *1342:A2 15.704 
3 *268:14 *1341:A2 4.5 
*END

*D_NET *269 0.00863362
*CONN
*I *1340:A2 I *D gf180mcu_fd_sc_mcu7t5v0__or2_1
*I *1346:A2 I *D gf180mcu_fd_sc_mcu7t5v0__nand2_1
*I *1349:A2 I *D gf180mcu_fd_sc_mcu7t5v0__nand2_1
*I *1353:A2 I *D gf180mcu_fd_sc_mcu7t5v0__aoi22_1
*I *1339:Z O *D gf180mcu_fd_sc_mcu7t5v0__and2_1
*CAP
1 *1340:A2 0.000273497
2 *1346:A2 0
3 *1349:A2 0
4 *1353:A2 0.000342964
5 *1339:Z 0.000468456
6 *269:34 0.000461714
7 *269:32 0.00122164
8 *269:16 0.00184484
9 *1340:A2 *294:58 0
10 *1340:A2 *360:29 1.75634e-05
11 *1353:A2 *1240:A1 8.55242e-05
12 *1353:A2 *1348:A2 0.000147025
13 *1353:A2 *1349:A1 0.000464498
14 *1353:A2 *1353:B1 8.2746e-05
15 *1353:A2 *1492:CLK 0.000325908
16 *1353:A2 *270:22 0
17 *1353:A2 *294:12 3.73535e-05
18 *1353:A2 *366:45 1.04712e-05
19 *269:16 *1244:A1 6.12832e-05
20 *269:16 *1392:I 0
21 *269:16 *359:8 0.000418645
22 *269:16 *360:23 1.38714e-05
23 *269:16 *360:29 4.52258e-06
24 *269:32 *1247:A1 0.000320783
25 *269:32 *1348:A1 0
26 *269:32 *1349:A1 8.06717e-06
27 *269:32 *1352:A1 0
28 *269:32 *1392:I 1.15312e-05
29 *269:32 *1394:I 2.89664e-05
30 *269:32 *311:14 5.86666e-05
31 *269:32 *319:30 0.000160263
32 *269:32 *359:8 0.000512303
33 *269:34 *1348:A1 4.58601e-06
34 *269:34 *1349:A1 0
35 *269:34 *294:12 0
36 *269:34 *319:30 0
37 *269:34 *366:35 0.000246194
38 *1243:A3 *1340:A2 3.34942e-05
39 *1247:A2 *269:32 3.09849e-05
40 *1339:A1 *269:16 0
41 *1347:A1 *1353:A2 7.83779e-05
42 *1494:D *1353:A2 8.55242e-05
43 *1502:SETN *269:16 6.67061e-05
44 *1504:SETN *269:32 0.000326259
45 *207:10 *1353:A2 0
46 *207:10 *269:34 0
47 *231:14 *269:32 0.000357798
48 *235:18 *1353:A2 2.05876e-05
*RES
1 *1339:Z *269:16 8.3 
2 *269:16 *269:32 17.664 
3 *269:32 *269:34 0.988 
4 *269:34 *1353:A2 17.3 
5 *269:34 *1349:A2 4.5 
6 *269:32 *1346:A2 4.5 
7 *269:16 *1340:A2 14.944 
*END

*D_NET *270 0.00923805
*CONN
*I *1343:B1 I *D gf180mcu_fd_sc_mcu7t5v0__oai32_1
*I *1342:B1 I *D gf180mcu_fd_sc_mcu7t5v0__oai22_1
*I *1341:B1 I *D gf180mcu_fd_sc_mcu7t5v0__oai22_1
*I *1340:Z O *D gf180mcu_fd_sc_mcu7t5v0__or2_1
*CAP
1 *1343:B1 0.000126733
2 *1342:B1 0
3 *1341:B1 0.000166252
4 *1340:Z 0.00206384
5 *270:22 0.00210336
6 *1341:B1 *1186:I 5.55321e-05
7 *1341:B1 *310:36 0.000109136
8 *1341:B1 *327:10 0
9 *1343:B1 *1268:A1 3.73627e-05
10 *270:22 *1186:I 1.99952e-05
11 *270:22 *1187:I 0
12 *270:22 *1240:A1 0
13 *270:22 *1348:A2 6.92605e-05
14 *270:22 *1353:B1 6.12935e-05
15 *270:22 *1354:A2 3.89084e-05
16 *270:22 *1384:I 0
17 *270:22 *1449:CLK 8.15645e-05
18 *270:22 *1514:I 0.000116355
19 *270:22 *293:18 0
20 *270:22 *294:31 0.00115073
21 *270:22 *294:44 7.44184e-05
22 *270:22 *310:36 0.000101909
23 *270:22 *311:31 0.000315086
24 *270:22 *365:14 0.00034129
25 *270:22 *365:20 5.71282e-05
26 *270:22 *366:12 2.1182e-05
27 *1342:A1 *270:22 2.45419e-05
28 *1342:A2 *1341:B1 0.000405961
29 *1342:B2 *1341:B1 0.000320921
30 *1342:B2 *270:22 0.00014967
31 *1343:A2 *1343:B1 5.76373e-06
32 *1345:A2 *270:22 0
33 *1347:A1 *270:22 7.45328e-07
34 *1353:A2 *270:22 0
35 *1492:D *270:22 0.000263484
36 *1495:D *1343:B1 0.000360819
37 *1495:D *270:22 0.00031512
38 *207:25 *270:22 0
39 *217:16 *270:22 0.000118153
40 *235:6 *1343:B1 0
41 *237:8 *270:22 0.000161539
*RES
1 *1340:Z *270:22 34.416 
2 *270:22 *1341:B1 10.9 
3 *270:22 *1342:B1 9 
4 *1340:Z *1343:B1 10.368 
*END

*D_NET *271 0.00312499
*CONN
*I *1347:A2 I *D gf180mcu_fd_sc_mcu7t5v0__oai21_1
*I *1353:B1 I *D gf180mcu_fd_sc_mcu7t5v0__aoi22_1
*I *1351:A1 I *D gf180mcu_fd_sc_mcu7t5v0__oai21_1
*I *1344:ZN O *D gf180mcu_fd_sc_mcu7t5v0__nor2_1
*CAP
1 *1347:A2 0
2 *1353:B1 0.000122246
3 *1351:A1 0.000167571
4 *1344:ZN 0
5 *271:19 0.000467083
6 *271:6 0.000512408
7 *1351:A1 *1271:A1 0
8 *1351:A1 *1352:A1 9.13064e-05
9 *1351:A1 *363:35 0
10 *271:19 *1241:A2 8.4137e-06
11 *271:19 *1352:A1 1.14422e-05
12 *271:19 *362:14 1.27047e-05
13 *271:19 *363:35 0
14 *1347:A1 *1353:B1 9.88736e-06
15 *1353:A2 *1353:B1 8.2746e-05
16 *207:10 *271:19 0.00104228
17 *207:25 *271:19 0.000105286
18 *211:10 *1351:A1 7.26556e-05
19 *211:10 *271:19 0.000232192
20 *211:16 *1351:A1 7.8324e-05
21 *235:18 *271:19 4.7151e-05
22 *270:22 *1353:B1 6.12935e-05
*RES
1 *1344:ZN *271:6 9 
2 *271:6 *1351:A1 10.292 
3 *271:6 *271:19 8.072 
4 *271:19 *1353:B1 5.564 
5 *271:19 *1347:A2 4.5 
*END

*D_NET *272 0.00120456
*CONN
*I *1348:A1 I *D gf180mcu_fd_sc_mcu7t5v0__nand2_1
*I *1346:ZN O *D gf180mcu_fd_sc_mcu7t5v0__nand2_1
*CAP
1 *1348:A1 0.000567026
2 *1346:ZN 0.000567026
3 *1348:A1 *1349:A1 5.27532e-05
4 *1348:A1 *311:31 0
5 *1348:A1 *367:38 1.3174e-05
6 *231:14 *1348:A1 0
7 *269:32 *1348:A1 0
8 *269:34 *1348:A1 4.58601e-06
*RES
1 *1346:ZN *1348:A1 20.888 
*END

*D_NET *273 0.0017893
*CONN
*I *1348:A2 I *D gf180mcu_fd_sc_mcu7t5v0__nand2_1
*I *1347:ZN O *D gf180mcu_fd_sc_mcu7t5v0__oai21_1
*CAP
1 *1348:A2 0.00032087
2 *1347:ZN 0.00032087
3 *1348:A2 *1246:A2 0
4 *1348:A2 *294:31 5.86759e-05
5 *1347:A1 *1348:A2 2.6126e-05
6 *1353:A2 *1348:A2 0.000147025
7 *1494:D *1348:A2 0.000846472
8 *270:22 *1348:A2 6.92605e-05
*RES
1 *1347:ZN *1348:A2 12.496 
*END

*D_NET *274 0.00185404
*CONN
*I *1352:A1 I *D gf180mcu_fd_sc_mcu7t5v0__nand2_1
*I *1349:ZN O *D gf180mcu_fd_sc_mcu7t5v0__nand2_1
*CAP
1 *1352:A1 0.0006233
2 *1349:ZN 0.0006233
3 *1352:A1 *1349:A1 3.42922e-06
4 *1352:A1 *1352:A2 2.70198e-05
5 *1352:A1 *327:67 0.000179609
6 *1272:A2 *1352:A1 0.000153906
7 *1350:A2 *1352:A1 0
8 *1351:A1 *1352:A1 9.13064e-05
9 *231:14 *1352:A1 0
10 *235:18 *1352:A1 0.000140723
11 *269:32 *1352:A1 0
12 *271:19 *1352:A1 1.14422e-05
*RES
1 *1349:ZN *1352:A1 22.712 
*END

*D_NET *275 0.000860264
*CONN
*I *1351:A2 I *D gf180mcu_fd_sc_mcu7t5v0__oai21_1
*I *1350:ZN O *D gf180mcu_fd_sc_mcu7t5v0__nor2_1
*CAP
1 *1351:A2 0.000197503
2 *1350:ZN 0.000197503
3 *1272:A2 *1351:A2 0.000349833
4 *211:16 *1351:A2 0.000115426
*RES
1 *1350:ZN *1351:A2 11.128 
*END

*D_NET *276 0.000415768
*CONN
*I *1352:A2 I *D gf180mcu_fd_sc_mcu7t5v0__nand2_1
*I *1351:ZN O *D gf180mcu_fd_sc_mcu7t5v0__oai21_1
*CAP
1 *1352:A2 0.000194374
2 *1351:ZN 0.000194374
3 *1352:A1 *1352:A2 2.70198e-05
4 *212:23 *1352:A2 0
*RES
1 *1351:ZN *1352:A2 18.988 
*END

*D_NET *277 0.00190938
*CONN
*I *1354:A2 I *D gf180mcu_fd_sc_mcu7t5v0__nand2_1
*I *1353:ZN O *D gf180mcu_fd_sc_mcu7t5v0__aoi22_1
*CAP
1 *1354:A2 0.000281918
2 *1353:ZN 0.000281918
3 *1354:A2 *1240:A1 8.6555e-05
4 *1354:A2 *1240:A2 0.000502835
5 *1354:A2 *366:35 2.17248e-05
6 *1354:A2 *367:23 0.000106816
7 *1342:A1 *1354:A2 1.25135e-05
8 *1492:D *1354:A2 0.000404264
9 *210:6 *1354:A2 0.000171927
10 *270:22 *1354:A2 3.89084e-05
*RES
1 *1353:ZN *1354:A2 12.648 
*END

*D_NET *278 0.000495479
*CONN
*I *1360:A2 I *D gf180mcu_fd_sc_mcu7t5v0__nand2_1
*I *1356:ZN O *D gf180mcu_fd_sc_mcu7t5v0__nand2_1
*CAP
1 *1360:A2 0.000141028
2 *1356:ZN 0.000141028
3 *1360:A2 *379:12 6.54913e-05
4 *1220:A2 *1360:A2 0.000147932
*RES
1 *1356:ZN *1360:A2 19.292 
*END

*D_NET *279 0.00104196
*CONN
*I *1358:A3 I *D gf180mcu_fd_sc_mcu7t5v0__nor3_1
*I *1357:ZN O *D gf180mcu_fd_sc_mcu7t5v0__xnor2_1
*CAP
1 *1358:A3 0.000215571
2 *1357:ZN 0.000215571
3 *1358:A3 *1357:A1 3.99555e-05
4 *1358:A3 *306:119 4.73774e-05
5 *1358:A3 *314:29 3.42838e-05
6 *1355:A3 *1358:A3 0.000348614
7 *1442:RN *1358:A3 0.000140588
*RES
1 *1357:ZN *1358:A3 11.508 
*END

*D_NET *280 0.00301947
*CONN
*I *1361:A1 I *D gf180mcu_fd_sc_mcu7t5v0__nand2_1
*I *1364:A2 I *D gf180mcu_fd_sc_mcu7t5v0__and2_1
*I *1363:A2 I *D gf180mcu_fd_sc_mcu7t5v0__nor2_1
*I *1359:ZN O *D gf180mcu_fd_sc_mcu7t5v0__nand3_1
*CAP
1 *1361:A1 0
2 *1364:A2 0
3 *1363:A2 0.000138304
4 *1359:ZN 0.000323553
5 *280:10 0.000443121
6 *280:6 0.000628369
7 *280:6 *1359:A2 9.26705e-05
8 *280:6 *381:12 0.000701541
9 *280:6 *381:18 0.000154451
10 *1220:A2 *280:6 7.01996e-05
11 *1220:A2 *280:10 5.43717e-05
12 *1364:A1 *1363:A2 0.000158886
13 *1364:A1 *280:10 6.73834e-05
14 *199:78 *280:10 0.000123108
15 *199:86 *280:6 2.31659e-05
16 *199:86 *280:10 4.03461e-05
*RES
1 *1359:ZN *280:6 7.768 
2 *280:6 *280:10 2.584 
3 *280:10 *1363:A2 14.64 
4 *280:10 *1364:A2 4.5 
5 *280:6 *1361:A1 4.5 
*END

*D_NET *281 0.00276236
*CONN
*I *1361:A2 I *D gf180mcu_fd_sc_mcu7t5v0__nand2_1
*I *1360:ZN O *D gf180mcu_fd_sc_mcu7t5v0__nand2_1
*CAP
1 *1361:A2 0.000314575
2 *1360:ZN 0.000314575
3 *1361:A2 *381:12 0
4 *1361:A2 *381:18 3.9992e-06
5 *1220:A1 *1361:A2 0.0014886
6 *1220:A2 *1361:A2 0.000640608
*RES
1 *1360:ZN *1361:A2 22.864 
*END

*D_NET *282 0.000109345
*CONN
*I *1362:A3 I *D gf180mcu_fd_sc_mcu7t5v0__nor3_1
*I *1361:ZN O *D gf180mcu_fd_sc_mcu7t5v0__nand2_1
*CAP
1 *1362:A3 5.46724e-05
2 *1361:ZN 5.46724e-05
*RES
1 *1361:ZN *1362:A3 9.38 
*END

*D_NET *283 0.0110414
*CONN
*I *1366:A2 I *D gf180mcu_fd_sc_mcu7t5v0__and2_1
*I *1367:A2 I *D gf180mcu_fd_sc_mcu7t5v0__nor2_1
*I *1365:A3 I *D gf180mcu_fd_sc_mcu7t5v0__nor4_1
*I *1363:ZN O *D gf180mcu_fd_sc_mcu7t5v0__nor2_1
*CAP
1 *1366:A2 0
2 *1367:A2 5.99148e-05
3 *1365:A3 0.000138178
4 *1363:ZN 0.000213887
5 *283:35 0.000853694
6 *283:12 0.00114584
7 *1365:A3 *326:12 3.15412e-05
8 *1367:A2 *317:90 0.000523943
9 *1367:A2 *383:14 9.98117e-05
10 *283:12 *1398:I 3.59375e-05
11 *283:12 *326:12 1.85245e-05
12 *283:35 *1218:A2 0.000202974
13 *283:35 *317:96 1.3758e-05
14 *283:35 *326:12 8.55327e-05
15 *283:35 *326:78 0.00242085
16 *283:35 *326:80 0.000910617
17 *283:35 *383:20 0
18 *283:35 *384:14 0
19 *1220:A1 *283:12 0.00108082
20 *1220:A2 *283:12 0.000490861
21 *1220:A2 *283:35 2.57058e-06
22 *1225:A1 *283:35 8.69862e-05
23 *1225:A2 *283:35 0.00019147
24 *1225:B1 *283:35 0.000734813
25 *1297:A1 *283:35 0.000116995
26 *1505:I *283:12 0.000237951
27 *1534:I *283:35 0.000104535
28 *144:25 *283:35 0.00116873
29 *188:18 *283:35 0
30 *199:76 *1365:A3 5.56966e-05
31 *199:76 *283:35 0
32 *199:78 *1365:A3 1.5015e-05
*RES
1 *1363:ZN *283:12 17.604 
2 *283:12 *1365:A3 5.564 
3 *283:12 *283:35 30.236 
4 *283:35 *1367:A2 14.792 
5 *283:35 *1366:A2 4.5 
*END

*D_NET *284 0.000778732
*CONN
*I *1365:A4 I *D gf180mcu_fd_sc_mcu7t5v0__nor4_1
*I *1364:Z O *D gf180mcu_fd_sc_mcu7t5v0__and2_1
*CAP
1 *1365:A4 0.000283806
2 *1364:Z 0.000283806
3 *1220:A2 *1365:A4 0
4 *199:78 *1365:A4 0.000211119
*RES
1 *1364:Z *1365:A4 11.128 
*END

*D_NET *285 0.00766345
*CONN
*I *1372:A3 I *D gf180mcu_fd_sc_mcu7t5v0__nand3_1
*I *1369:A2 I *D gf180mcu_fd_sc_mcu7t5v0__nand2_1
*I *1370:A2 I *D gf180mcu_fd_sc_mcu7t5v0__xnor2_1
*I *1368:A3 I *D gf180mcu_fd_sc_mcu7t5v0__nor4_1
*I *1366:Z O *D gf180mcu_fd_sc_mcu7t5v0__and2_1
*CAP
1 *1372:A3 9.25524e-05
2 *1369:A2 0
3 *1370:A2 0.00068723
4 *1368:A3 0.000456939
5 *1366:Z 0.000183833
6 *285:27 0.000980932
7 *285:23 0.000505098
8 *285:10 0.000759615
9 *1368:A3 *1368:A1 0.000304954
10 *1368:A3 *1402:I 5.97259e-05
11 *1368:A3 *383:14 0
12 *1370:A2 *1371:A3 0
13 *1370:A2 *1373:A1 0
14 *1370:A2 *1374:A1 7.45328e-07
15 *1370:A2 *1374:A3 0
16 *1370:A2 *1376:A3 0
17 *1370:A2 *1447:CLK 8.81157e-05
18 *1370:A2 *384:49 4.06416e-05
19 *1372:A3 *1402:I 1.78155e-05
20 *1372:A3 *383:8 0
21 *285:10 *326:80 0.000670651
22 *285:10 *326:95 5.4634e-05
23 *285:10 *383:14 0
24 *285:23 *1402:I 1.86291e-05
25 *285:23 *383:14 0
26 *285:27 *1369:A1 3.73535e-05
27 *285:27 *1376:A3 0
28 *285:27 *317:96 0.00166681
29 *285:27 *326:95 0.000235145
30 *1445:D *1368:A3 8.73421e-05
31 *1445:RN *1372:A3 3.28611e-05
32 *1446:RN *285:27 4.60244e-05
33 *1447:D *1370:A2 0.000139333
34 *199:45 *1370:A2 8.15665e-05
35 *199:47 *285:27 0
36 *199:53 *1368:A3 0.00032464
37 *199:53 *285:10 9.026e-05
*RES
1 *1366:Z *285:10 11.128 
2 *285:10 *1368:A3 13.104 
3 *285:10 *285:23 0.684 
4 *285:23 *285:27 8.832 
5 *285:27 *1370:A2 18.212 
6 *285:27 *1369:A2 4.5 
7 *285:23 *1372:A3 9.684 
*END

*D_NET *286 0.000282489
*CONN
*I *1368:A4 I *D gf180mcu_fd_sc_mcu7t5v0__nor4_1
*I *1367:ZN O *D gf180mcu_fd_sc_mcu7t5v0__nor2_1
*CAP
1 *1368:A4 8.40469e-05
2 *1367:ZN 8.40469e-05
3 *1368:A4 *383:14 9.26705e-05
4 *199:53 *1368:A4 2.17248e-05
*RES
1 *1367:ZN *1368:A4 9.76 
*END

*D_NET *287 0.00122515
*CONN
*I *1373:A2 I *D gf180mcu_fd_sc_mcu7t5v0__xor2_1
*I *1369:ZN O *D gf180mcu_fd_sc_mcu7t5v0__nand2_1
*CAP
1 *1373:A2 8.03319e-05
2 *1369:ZN 8.03319e-05
3 *1373:A2 *1369:A1 8.04139e-05
4 *1373:A2 *1370:A1 0.000658842
5 *1373:A2 *317:96 0.000325232
*RES
1 *1369:ZN *1373:A2 10.9 
*END

*D_NET *288 0.000522903
*CONN
*I *1371:A3 I *D gf180mcu_fd_sc_mcu7t5v0__nor3_1
*I *1370:ZN O *D gf180mcu_fd_sc_mcu7t5v0__xnor2_1
*CAP
1 *1371:A3 0.000226201
2 *1370:ZN 0.000226201
3 *1371:A3 *1439:I 1.1971e-05
4 *1371:A3 *1447:CLK 7.24161e-06
5 *1370:A2 *1371:A3 0
6 *1446:D *1371:A3 5.1289e-05
*RES
1 *1370:ZN *1371:A3 10.596 
*END

*D_NET *289 0.00194187
*CONN
*I *1375:A2 I *D gf180mcu_fd_sc_mcu7t5v0__xor2_1
*I *1372:ZN O *D gf180mcu_fd_sc_mcu7t5v0__nand3_1
*CAP
1 *1375:A2 0.000202527
2 *1372:ZN 0.000202527
3 *1375:A2 *1375:A1 0.000134564
4 *1375:A2 *1399:I 0
5 *1375:A2 *1402:I 0.000160608
6 *1375:A2 *385:27 0.00102586
7 *1375:A2 *386:10 1.47056e-05
8 *1448:RN *1375:A2 0.00020108
*RES
1 *1372:ZN *1375:A2 12.496 
*END

*D_NET *290 0.000880569
*CONN
*I *1374:A3 I *D gf180mcu_fd_sc_mcu7t5v0__nor3_1
*I *1373:Z O *D gf180mcu_fd_sc_mcu7t5v0__xor2_1
*CAP
1 *1374:A3 0.000242283
2 *1373:Z 0.000242283
3 *1370:A2 *1374:A3 0
4 *1446:RN *1374:A3 0.000314174
5 *1447:D *1374:A3 0
6 *199:45 *1374:A3 8.18282e-05
*RES
1 *1373:Z *1374:A3 11.28 
*END

*D_NET *291 0.00107177
*CONN
*I *1376:A3 I *D gf180mcu_fd_sc_mcu7t5v0__nor3_1
*I *1375:Z O *D gf180mcu_fd_sc_mcu7t5v0__xor2_1
*CAP
1 *1376:A3 0.000361406
2 *1375:Z 0.000361406
3 *1376:A3 *326:95 2.43212e-05
4 *1370:A2 *1376:A3 0
5 *199:47 *1376:A3 0.00032464
6 *285:27 *1376:A3 0
*RES
1 *1375:Z *1376:A3 20.584 
*END

*D_NET *292 0.0244835
*CONN
*I *1509:I I *D gf180mcu_fd_sc_mcu7t5v0__clkbuf_16
*I *1508:I I *D gf180mcu_fd_sc_mcu7t5v0__clkbuf_16
*I *1511:I I *D gf180mcu_fd_sc_mcu7t5v0__clkbuf_16
*I *1512:I I *D gf180mcu_fd_sc_mcu7t5v0__clkbuf_16
*I *1513:I I *D gf180mcu_fd_sc_mcu7t5v0__clkbuf_16
*I *1506:I I *D gf180mcu_fd_sc_mcu7t5v0__clkbuf_16
*I *1510:I I *D gf180mcu_fd_sc_mcu7t5v0__clkbuf_16
*I *1507:I I *D gf180mcu_fd_sc_mcu7t5v0__clkbuf_16
*I *1505:Z O *D gf180mcu_fd_sc_mcu7t5v0__clkbuf_16
*CAP
1 *1509:I 0.00104947
2 *1508:I 8.51654e-05
3 *1511:I 0
4 *1512:I 0.000340818
5 *1513:I 0.000798013
6 *1506:I 0.00118457
7 *1510:I 0.00148551
8 *1507:I 0.00177799
9 *1505:Z 0.00200955
10 *292:119 0.00170479
11 *292:72 0.00167633
12 *292:66 0.00117703
13 *1506:I *1423:I 0.000443321
14 *1506:I *1451:CLK 0.000328485
15 *1506:I *310:96 2.85944e-05
16 *1506:I *348:18 0.000384048
17 *1506:I *349:12 0
18 *1506:I *349:64 0
19 *1507:I *1318:A1 6.07743e-06
20 *1507:I *1318:A2 2.85944e-05
21 *1507:I *1320:I0 2.42253e-05
22 *1507:I *1320:I1 0
23 *1507:I *1323:I0 0.000105958
24 *1507:I *1472:CLK 0.000170249
25 *1507:I *296:61 0.000197177
26 *1507:I *305:22 0
27 *1507:I *328:27 0.000595627
28 *1507:I *330:43 0.000711689
29 *1507:I *353:10 9.83736e-05
30 *1508:I *1286:S 7.54718e-06
31 *1508:I *1467:CLK 2.87799e-05
32 *1508:I *1527:I 5.87953e-05
33 *1509:I *1263:A2 1.72881e-05
34 *1509:I *1263:A4 0.000114947
35 *1509:I *1285:I0 0
36 *1509:I *1286:S 4.82048e-05
37 *1509:I *1426:I 0.000199786
38 *1509:I *1527:I 0.000651321
39 *1509:I *351:16 0
40 *1510:I *1177:I 0.000108775
41 *1510:I *1300:A1 0.00015269
42 *1510:I *305:70 0
43 *1510:I *328:27 0.000866006
44 *1510:I *330:43 0.000195662
45 *1512:I *1321:A1 0.000103957
46 *1512:I *1450:CLK 0
47 *1512:I *1518:I 9.67157e-05
48 *1513:I *1161:I 6.61154e-05
49 *1513:I *1199:B1 4.56413e-05
50 *1513:I *1450:CLK 0.00034396
51 *1513:I *318:56 0
52 *1513:I *329:12 0
53 *1513:I *370:16 2.485e-05
54 *292:66 *1198:A1 0.000753284
55 *292:66 *1407:I 1.43366e-05
56 *292:66 *315:65 0
57 *292:72 *1194:A2 0.000389181
58 *292:72 *1201:B1 0.000148068
59 *292:72 *318:56 0.000343819
60 *292:72 *374:44 0.000115735
61 *292:119 *1308:A1 0.000250699
62 *292:119 *1308:A2 0.000269886
63 *292:119 *1466:CLK 0
64 *292:119 *295:21 0.000125508
65 *292:119 *295:27 7.5555e-05
66 *292:119 *295:31 5.11114e-06
67 *292:119 *349:12 7.46682e-05
68 *1203:C *1513:I 0
69 *1206:A2 *1513:I 0
70 *1234:A1 *1513:I 0
71 *1234:A2 *1513:I 8.62341e-05
72 *1235:A3 *1513:I 2.2145e-05
73 *1265:A1 *1509:I 0
74 *1309:B *292:119 1.70914e-05
75 *1310:A1 *292:119 9.17324e-06
76 *1314:B *1510:I 7.08226e-05
77 *1321:A2 *1512:I 0.000103105
78 *1321:A2 *292:72 1.63284e-05
79 *1322:A1 *292:72 0.000104481
80 *1322:B *1512:I 2.11395e-05
81 *1322:B *1513:I 0
82 *1450:D *1512:I 5.7261e-06
83 *1450:D *1513:I 0.000279369
84 *1453:RN *292:66 0.000144725
85 *1472:RN *1509:I 0.000171927
86 *1501:RN *1506:I 9.32691e-05
87 *1520:I *292:119 0.000169997
88 *135:10 *1513:I 1.70865e-05
89 *140:8 *292:119 5.16257e-05
90 *140:14 *292:119 4.68029e-05
91 *151:12 *1510:I 3.09285e-05
92 *151:22 *1510:I 1.94613e-05
93 *153:27 *292:66 0.000502108
94 *179:38 *1513:I 0
95 *231:14 *1507:I 0.00030983
96 *253:65 *292:72 8.15735e-05
*RES
1 *1505:Z *1507:I 29.856 
2 *1505:Z *1510:I 25.6 
3 *1507:I *1506:I 15.46 
4 *1510:I *292:66 11.264 
5 *292:66 *292:72 14.396 
6 *292:72 *1513:I 19.58 
7 *292:72 *1512:I 7.236 
8 *292:66 *1511:I 4.5 
9 *1506:I *292:119 19.124 
10 *292:119 *1508:I 5.184 
11 *292:119 *1509:I 12.936 
*END

*D_NET *293 0.0109081
*CONN
*I *1476:CLK I *D gf180mcu_fd_sc_mcu7t5v0__dffrnq_1
*I *1501:CLK I *D gf180mcu_fd_sc_mcu7t5v0__dffrnq_1
*I *1477:CLK I *D gf180mcu_fd_sc_mcu7t5v0__dffrnq_1
*I *1465:CLK I *D gf180mcu_fd_sc_mcu7t5v0__dffrnq_1
*I *1496:CLK I *D gf180mcu_fd_sc_mcu7t5v0__dffrnq_1
*I *1493:CLK I *D gf180mcu_fd_sc_mcu7t5v0__dffrnq_1
*I *1479:CLK I *D gf180mcu_fd_sc_mcu7t5v0__dffrnq_1
*I *1497:CLK I *D gf180mcu_fd_sc_mcu7t5v0__dffrnq_1
*I *1514:I I *D gf180mcu_fd_sc_mcu7t5v0__clkbuf_2
*I *1506:Z O *D gf180mcu_fd_sc_mcu7t5v0__clkbuf_16
*CAP
1 *1476:CLK 0.000155732
2 *1501:CLK 0
3 *1477:CLK 0.000318122
4 *1465:CLK 0.000204145
5 *1496:CLK 0
6 *1493:CLK 0.000260098
7 *1479:CLK 0
8 *1497:CLK 0.000271632
9 *1514:I 5.84204e-05
10 *1506:Z 0.000468285
11 *293:39 0.000623975
12 *293:30 0.00121495
13 *293:26 0.000679637
14 *293:24 0.000635863
15 *293:22 0.000821564
16 *293:18 0.000426054
17 *1465:CLK *1186:I 0
18 *1465:CLK *1189:I 0.000111867
19 *1465:CLK *319:62 1.19401e-05
20 *1476:CLK *1292:I0 5.14116e-06
21 *1476:CLK *348:24 4.52262e-05
22 *1477:CLK *1292:I1 9.88736e-06
23 *1477:CLK *310:47 9.45347e-06
24 *1477:CLK *310:53 0.000145096
25 *1477:CLK *310:66 0.000444436
26 *1477:CLK *319:62 5.91499e-05
27 *1493:CLK *327:16 0
28 *293:22 *310:53 4.10388e-05
29 *293:22 *310:88 3.17466e-06
30 *293:24 *310:36 6.67751e-05
31 *293:24 *310:47 2.97354e-06
32 *293:24 *319:62 0.000227337
33 *293:26 *319:62 1.4683e-05
34 *293:30 *1383:I 9.17565e-06
35 *293:30 *310:10 3.02683e-05
36 *293:30 *319:30 0.000609606
37 *293:30 *319:62 4.52788e-06
38 *1270:A1 *1493:CLK 0.000187321
39 *1275:A2 *1477:CLK 0
40 *1292:S *1477:CLK 0.000301222
41 *1341:A1 *293:24 3.62067e-05
42 *1341:A1 *293:26 1.68882e-05
43 *1341:A1 *293:30 1.56436e-05
44 *1341:B2 *1465:CLK 0.000310356
45 *1465:D *1465:CLK 4.12978e-05
46 *1476:D *1476:CLK 2.57058e-06
47 *1477:D *1477:CLK 0
48 *1479:D *1493:CLK 9.58397e-05
49 *1479:D *293:39 1.02578e-05
50 *1493:D *1493:CLK 7.24161e-06
51 *1493:RN *1465:CLK 0.000123105
52 *1496:RN *1477:CLK 0.000104577
53 *1496:RN *293:22 7.91349e-05
54 *1496:RN *293:24 7.2647e-05
55 *1497:D *1497:CLK 7.98048e-05
56 *1497:D *293:30 0.000284689
57 *1497:D *293:39 1.91184e-05
58 *1501:D *1477:CLK 0
59 *1501:D *293:18 0.000346195
60 *1501:D *293:22 1.45007e-05
61 *1536:I *1497:CLK 0.000372137
62 *1536:I *293:30 4.03922e-06
63 *1536:I *293:39 8.55327e-05
64 *237:8 *1514:I 0.000179609
65 *237:8 *293:18 1.15312e-05
66 *237:34 *1476:CLK 0
67 *270:22 *1514:I 0.000116355
68 *270:22 *293:18 0
*RES
1 *1506:Z *1514:I 9.988 
2 *1506:Z *293:18 6.552 
3 *293:18 *293:22 5.64 
4 *293:22 *293:24 3.116 
5 *293:24 *293:26 0.532 
6 *293:26 *293:30 9.288 
7 *293:30 *1497:CLK 6.704 
8 *293:30 *293:39 2.204 
9 *293:39 *1479:CLK 4.5 
10 *293:39 *1493:CLK 6.704 
11 *293:26 *1496:CLK 9 
12 *293:24 *1465:CLK 11.204 
13 *293:22 *1477:CLK 12.344 
14 *293:18 *1501:CLK 4.5 
15 *1506:Z *1476:CLK 9.988 
*END

*D_NET *294 0.0150846
*CONN
*I *1469:CLK I *D gf180mcu_fd_sc_mcu7t5v0__dffrnq_1
*I *1468:CLK I *D gf180mcu_fd_sc_mcu7t5v0__dffrnq_1
*I *1495:CLK I *D gf180mcu_fd_sc_mcu7t5v0__dffrnq_1
*I *1502:CLK I *D gf180mcu_fd_sc_mcu7t5v0__dffsnq_1
*I *1504:CLK I *D gf180mcu_fd_sc_mcu7t5v0__dffsnq_1
*I *1449:CLK I *D gf180mcu_fd_sc_mcu7t5v0__dffsnq_1
*I *1494:CLK I *D gf180mcu_fd_sc_mcu7t5v0__dffrnq_1
*I *1492:CLK I *D gf180mcu_fd_sc_mcu7t5v0__dffrnq_1
*I *1507:Z O *D gf180mcu_fd_sc_mcu7t5v0__clkbuf_16
*CAP
1 *1469:CLK 0.000142862
2 *1468:CLK 0
3 *1495:CLK 1.30197e-05
4 *1502:CLK 0.000298388
5 *1504:CLK 0.000232404
6 *1449:CLK 9.38712e-05
7 *1494:CLK 0
8 *1492:CLK 0.000203519
9 *1507:Z 0.00064662
10 *294:58 0.00104678
11 *294:52 0.000824185
12 *294:44 0.00044497
13 *294:31 0.000480103
14 *294:12 0.000470836
15 *1449:CLK *1288:I0 0.000657859
16 *1449:CLK *311:31 0.00024584
17 *1449:CLK *311:50 0.000447577
18 *1469:CLK *1384:I 0.000222453
19 *1492:CLK *1240:A1 0.000493315
20 *1492:CLK *1347:B 0.000407323
21 *1492:CLK *363:31 0.000369754
22 *1492:CLK *366:35 2.28313e-05
23 *1495:CLK *365:14 2.22758e-05
24 *1502:CLK *1243:A1 0.000148889
25 *1502:CLK *1502:D 3.08902e-05
26 *1504:CLK *1243:A1 2.22657e-05
27 *294:12 *1349:A1 0.000239048
28 *294:12 *366:35 1.07237e-05
29 *294:12 *366:45 0.00012926
30 *294:31 *1246:A2 5.76749e-06
31 *294:31 *1246:A3 0.000255714
32 *294:31 *365:20 1.66121e-06
33 *294:31 *366:45 0
34 *294:44 *1288:I1 0
35 *294:52 *1246:B 8.06717e-06
36 *294:52 *365:14 9.935e-05
37 *294:58 *1243:A1 0.000380904
38 *294:58 *311:10 4.8978e-06
39 *294:58 *359:27 0.0011196
40 *1243:A2 *1502:CLK 8.22324e-05
41 *1243:A3 *1495:CLK 5.94067e-05
42 *1243:A3 *294:52 0.000379274
43 *1243:A3 *294:58 0.000410485
44 *1249:B *1504:CLK 0.000539835
45 *1340:A2 *294:58 0
46 *1348:A2 *294:31 5.86759e-05
47 *1353:A2 *1492:CLK 0.000325908
48 *1353:A2 *294:12 3.73535e-05
49 *1468:D *294:44 6.12935e-05
50 *1469:D *1469:CLK 2.07594e-05
51 *1494:D *294:12 4.58601e-06
52 *1494:RN *1469:CLK 0.000509981
53 *1523:I *1449:CLK 0.000143649
54 *207:25 *1469:CLK 1.23313e-05
55 *217:16 *1449:CLK 0.000651006
56 *217:16 *294:52 3.57052e-05
57 *231:14 *294:12 0.000201628
58 *269:34 *294:12 0
59 *270:22 *1449:CLK 8.15645e-05
60 *270:22 *294:31 0.00115073
61 *270:22 *294:44 7.44184e-05
*RES
1 *1507:Z *294:12 15.78 
2 *294:12 *1492:CLK 7.768 
3 *294:12 *1494:CLK 4.5 
4 *1507:Z *294:31 7.616 
5 *294:31 *1449:CLK 17.376 
6 *294:31 *294:44 1.14 
7 *294:44 *294:52 11.432 
8 *294:52 *294:58 14.244 
9 *294:58 *1504:CLK 6.552 
10 *294:58 *1502:CLK 6.856 
11 *294:52 *1495:CLK 4.728 
12 *294:44 *1468:CLK 4.5 
13 *1507:Z *1469:CLK 11.052 
*END

*D_NET *295 0.0164977
*CONN
*I *1460:CLK I *D gf180mcu_fd_sc_mcu7t5v0__dffrnq_1
*I *1458:CLK I *D gf180mcu_fd_sc_mcu7t5v0__dffrnq_1
*I *1459:CLK I *D gf180mcu_fd_sc_mcu7t5v0__dffrnq_1
*I *1467:CLK I *D gf180mcu_fd_sc_mcu7t5v0__dffrnq_1
*I *1515:I I *D gf180mcu_fd_sc_mcu7t5v0__clkbuf_2
*I *1470:CLK I *D gf180mcu_fd_sc_mcu7t5v0__dffrnq_1
*I *1466:CLK I *D gf180mcu_fd_sc_mcu7t5v0__dffrnq_1
*I *1451:CLK I *D gf180mcu_fd_sc_mcu7t5v0__dffsnq_1
*I *1457:CLK I *D gf180mcu_fd_sc_mcu7t5v0__dffrnq_1
*I *1508:Z O *D gf180mcu_fd_sc_mcu7t5v0__clkbuf_16
*CAP
1 *1460:CLK 0
2 *1458:CLK 0
3 *1459:CLK 0.000151222
4 *1467:CLK 0.000547079
5 *1515:I 0
6 *1470:CLK 0.000244599
7 *1466:CLK 0.000632282
8 *1451:CLK 0.000337291
9 *1457:CLK 0.000270305
10 *1508:Z 0.000153101
11 *295:87 0.000459972
12 *295:83 0.000371751
13 *295:33 0.00106016
14 *295:31 0.000483737
15 *295:27 0.000356443
16 *295:21 0.0010111
17 *295:8 0.00061654
18 *1451:CLK *1308:A1 0.00138586
19 *1451:CLK *348:18 0.000741951
20 *1457:CLK *306:21 9.03836e-06
21 *1459:CLK *1306:A2 0.000502994
22 *1466:CLK *1289:A1 5.87561e-06
23 *1466:CLK *1293:A2 0.000562487
24 *1466:CLK *1310:A3 0.000780633
25 *1466:CLK *1431:I 8.45695e-05
26 *1467:CLK *1286:S 0.000965185
27 *1467:CLK *1527:I 0
28 *1467:CLK *349:33 0.000247596
29 *1467:CLK *350:25 2.17451e-05
30 *1470:CLK *1166:I 0.000104176
31 *1470:CLK *1293:A2 1.0115e-05
32 *295:8 *1308:A2 7.71704e-05
33 *295:21 *1308:A2 0.000106715
34 *295:27 *350:25 0.00040612
35 *295:31 *1308:A1 0.0003062
36 *295:33 *1308:A1 0.000435526
37 *295:83 *306:29 0
38 *295:87 *1306:A2 9.69336e-05
39 *295:87 *306:29 0
40 *295:87 *306:35 0
41 *295:87 *306:41 0.000193567
42 *295:87 *313:48 0
43 *1290:S *1467:CLK 9.26705e-05
44 *1293:A1 *1466:CLK 0.000171421
45 *1307:A1 *1459:CLK 0.00031512
46 *1307:A1 *295:87 0.000172494
47 *1307:B *295:87 1.6526e-05
48 *1309:B *295:31 0.000136491
49 *1310:A1 *1466:CLK 2.49878e-05
50 *1457:D *1457:CLK 6.77492e-05
51 *1457:RN *295:83 0.00011955
52 *1459:D *1459:CLK 7.01965e-05
53 *1460:D *295:83 0.000179609
54 *1460:D *295:87 1.5015e-05
55 *1466:D *1466:CLK 0.000185036
56 *1466:RN *1467:CLK 2.9378e-06
57 *1467:D *1467:CLK 6.38782e-05
58 *1470:D *1470:CLK 7.24161e-06
59 *1470:RN *295:8 2.67619e-05
60 *1476:RN *1466:CLK 0.00011076
61 *1477:RN *1466:CLK 5.48085e-05
62 *1506:I *1451:CLK 0.000328485
63 *1508:I *1467:CLK 2.87799e-05
64 *1520:I *1470:CLK 8.39435e-05
65 *1520:I *295:27 2.51345e-05
66 *1522:I *1457:CLK 0.000116355
67 *139:10 *1466:CLK 3.2657e-05
68 *244:12 *1457:CLK 0.00010286
69 *292:119 *1466:CLK 0
70 *292:119 *295:21 0.000125508
71 *292:119 *295:27 7.5555e-05
72 *292:119 *295:31 5.11114e-06
*RES
1 *1508:Z *295:8 9.988 
2 *295:8 *1457:CLK 11.052 
3 *295:8 *295:21 2.128 
4 *295:21 *295:27 6.172 
5 *295:27 *295:31 6.096 
6 *295:31 *295:33 1.14 
7 *295:33 *1451:CLK 14.32 
8 *295:33 *1466:CLK 15.764 
9 *295:31 *1470:CLK 11.508 
10 *295:27 *1515:I 4.5 
11 *295:21 *1467:CLK 13.636 
12 *1508:Z *295:83 5.488 
13 *295:83 *295:87 2.432 
14 *295:87 *1459:CLK 6.704 
15 *295:87 *1458:CLK 4.5 
16 *295:83 *1460:CLK 4.5 
*END

*D_NET *296 0.0172198
*CONN
*I *1444:CLK I *D gf180mcu_fd_sc_mcu7t5v0__dffrnq_1
*I *1462:CLK I *D gf180mcu_fd_sc_mcu7t5v0__dffsnq_1
*I *1474:CLK I *D gf180mcu_fd_sc_mcu7t5v0__dffrnq_1
*I *1516:I I *D gf180mcu_fd_sc_mcu7t5v0__clkbuf_2
*I *1472:CLK I *D gf180mcu_fd_sc_mcu7t5v0__dffrnq_1
*I *1443:CLK I *D gf180mcu_fd_sc_mcu7t5v0__dffrnq_1
*I *1442:CLK I *D gf180mcu_fd_sc_mcu7t5v0__dffrnq_1
*I *1471:CLK I *D gf180mcu_fd_sc_mcu7t5v0__dffrnq_1
*I *1441:CLK I *D gf180mcu_fd_sc_mcu7t5v0__dffrnq_1
*I *1509:Z O *D gf180mcu_fd_sc_mcu7t5v0__clkbuf_16
*CAP
1 *1444:CLK 9.31505e-05
2 *1462:CLK 0
3 *1474:CLK 0
4 *1516:I 0.000490462
5 *1472:CLK 0.00039239
6 *1443:CLK 0
7 *1442:CLK 0
8 *1471:CLK 0.000790053
9 *1441:CLK 0.000154847
10 *1509:Z 0.000373216
11 *296:63 0.000882852
12 *296:61 0.000228625
13 *296:55 0.000518325
14 *296:51 0.000752114
15 *296:44 0.00050446
16 *296:19 0.00092598
17 *296:6 0.000528793
18 *1441:CLK *306:119 8.38119e-05
19 *1444:CLK *326:14 0
20 *1444:CLK *341:10 2.88187e-05
21 *1471:CLK *1263:A3 5.89191e-05
22 *1471:CLK *1263:A4 0
23 *1471:CLK *1320:S 0
24 *1471:CLK *330:12 2.13219e-05
25 *1471:CLK *330:43 0.000171927
26 *1471:CLK *351:22 6.03784e-05
27 *1471:CLK *352:8 0
28 *1472:CLK *1264:A2 0
29 *1472:CLK *1318:A1 7.98466e-05
30 *1472:CLK *1318:A2 1.97747e-05
31 *1472:CLK *1323:S 0
32 *1472:CLK *305:22 3.94593e-05
33 *1472:CLK *330:43 0.000848846
34 *1516:I *1264:A2 0
35 *1516:I *1281:A2 1.43092e-05
36 *1516:I *308:65 2.99905e-05
37 *1516:I *308:82 0.000124452
38 *1516:I *349:83 0
39 *1516:I *352:39 0.00010197
40 *296:6 *1426:I 2.9378e-06
41 *296:6 *306:119 5.87561e-06
42 *296:19 *1355:A2 0
43 *296:44 *314:29 2.96977e-05
44 *296:51 *314:29 7.43203e-06
45 *296:51 *314:38 0.000520891
46 *296:51 *314:51 1.97747e-05
47 *296:51 *326:14 0
48 *296:55 *1298:A1 0
49 *296:55 *1299:A2 0
50 *296:55 *1428:I 0.00149029
51 *296:61 *1281:A2 0.000215472
52 *296:61 *1428:I 0.000213194
53 *296:61 *308:65 0.000498136
54 *296:61 *328:27 0.000433917
55 *296:61 *354:10 0
56 *1265:A2 *1516:I 0.000255714
57 *1299:A1 *296:55 0.000394625
58 *1299:A1 *296:61 0.000550848
59 *1299:B *296:55 0
60 *1319:B *1472:CLK 0.0012733
61 *1355:A3 *1471:CLK 0
62 *1355:A3 *296:6 0
63 *1355:A3 *296:19 0
64 *1441:D *1441:CLK 0.000119866
65 *1441:D *296:6 7.14125e-05
66 *1441:D *296:19 0
67 *1442:D *296:6 0.000305765
68 *1442:D *296:19 0.000262996
69 *1442:RN *296:44 0.000111858
70 *1443:D *296:44 7.45328e-07
71 *1443:D *296:51 2.57365e-05
72 *1462:SETN *1444:CLK 0.000414937
73 *1462:SETN *296:51 2.6126e-05
74 *1471:D *1471:CLK 3.08902e-05
75 *1472:RN *1471:CLK 0.000134113
76 *1507:I *1472:CLK 0.000170249
77 *1507:I *296:61 0.000197177
78 *1520:I *1471:CLK 8.59638e-05
79 *1522:I *296:6 0
80 *142:25 *296:61 5.211e-05
81 *142:36 *296:61 0.000543373
82 *231:14 *1471:CLK 6.31119e-05
83 *253:42 *1471:CLK 0.000372137
*RES
1 *1509:Z *296:6 6.552 
2 *296:6 *1441:CLK 5.868 
3 *296:6 *296:19 5.64 
4 *296:19 *1471:CLK 15.08 
5 *296:19 *1442:CLK 9 
6 *1509:Z *296:44 5.488 
7 *296:44 *1443:CLK 4.5 
8 *296:44 *296:51 3.268 
9 *296:51 *296:55 8.528 
10 *296:55 *296:61 9.212 
11 *296:61 *296:63 4.5 
12 *296:63 *1472:CLK 14.32 
13 *296:63 *1516:I 12.8 
14 *296:61 *1474:CLK 4.5 
15 *296:55 *1462:CLK 9 
16 *296:51 *1444:CLK 5.64 
*END

*D_NET *297 0.0112343
*CONN
*I *1453:CLK I *D gf180mcu_fd_sc_mcu7t5v0__dffrnq_1
*I *1452:CLK I *D gf180mcu_fd_sc_mcu7t5v0__dffrnq_1
*I *1473:CLK I *D gf180mcu_fd_sc_mcu7t5v0__dffrnq_1
*I *1454:CLK I *D gf180mcu_fd_sc_mcu7t5v0__dffrnq_1
*I *1491:CLK I *D gf180mcu_fd_sc_mcu7t5v0__dffrnq_1
*I *1500:CLK I *D gf180mcu_fd_sc_mcu7t5v0__dffsnq_1
*I *1503:CLK I *D gf180mcu_fd_sc_mcu7t5v0__dffsnq_1
*I *1478:CLK I *D gf180mcu_fd_sc_mcu7t5v0__dffsnq_1
*I *1510:Z O *D gf180mcu_fd_sc_mcu7t5v0__clkbuf_16
*CAP
1 *1453:CLK 0
2 *1452:CLK 0
3 *1473:CLK 0.000469399
4 *1454:CLK 0
5 *1491:CLK 0.000340841
6 *1500:CLK 0.000358761
7 *1503:CLK 0.000145278
8 *1478:CLK 7.05501e-05
9 *1510:Z 0.000348561
10 *297:67 0.00104827
11 *297:61 0.000931104
12 *297:57 0.000700789
13 *297:18 0.000791344
14 *297:10 0.00134712
15 *297:4 0.000753687
16 *1473:CLK *1385:I 0.000179609
17 *1491:CLK *1333:A2 5.76373e-06
18 *1500:CLK *1432:I 0
19 *1500:CLK *1528:I 0.000787065
20 *1500:CLK *360:8 2.333e-05
21 *1500:CLK *360:23 2.57058e-06
22 *297:10 *1545:I 5.94765e-05
23 *297:18 *1393:I 0
24 *297:61 *1183:I 0.000111867
25 *297:67 *1268:A1 0
26 *297:67 *1288:I1 0
27 *1261:A2 *1478:CLK 0.000258182
28 *1261:A2 *1503:CLK 0.0006213
29 *1268:A2 *297:61 0
30 *1339:A2 *1500:CLK 0
31 *1454:D *1473:CLK 9.88736e-06
32 *1473:D *1473:CLK 0
33 *1478:SETN *1500:CLK 5.07244e-05
34 *1491:D *1491:CLK 5.76373e-06
35 *1500:SETN *297:61 2.89664e-05
36 *10:12 *297:10 0.000708302
37 *10:12 *297:18 0.00107583
*RES
1 *1510:Z *297:4 4.5 
2 *297:4 *297:10 7.692 
3 *297:10 *297:18 8.984 
4 *297:18 *1478:CLK 5.184 
5 *297:18 *1503:CLK 6.096 
6 *297:10 *1500:CLK 12.192 
7 *297:4 *1491:CLK 6.552 
8 *1510:Z *297:57 6.552 
9 *297:57 *297:61 2.432 
10 *297:61 *297:67 8.148 
11 *297:67 *1454:CLK 9 
12 *297:67 *1473:CLK 12.192 
13 *297:61 *1452:CLK 4.5 
14 *297:57 *1453:CLK 4.5 
*END

*D_NET *298 0.0140999
*CONN
*I *1490:CLK I *D gf180mcu_fd_sc_mcu7t5v0__dffrnq_1
*I *1498:CLK I *D gf180mcu_fd_sc_mcu7t5v0__dffrnq_1
*I *1487:CLK I *D gf180mcu_fd_sc_mcu7t5v0__dffrnq_1
*I *1488:CLK I *D gf180mcu_fd_sc_mcu7t5v0__dffrnq_1
*I *1489:CLK I *D gf180mcu_fd_sc_mcu7t5v0__dffrnq_1
*I *1517:I I *D gf180mcu_fd_sc_mcu7t5v0__clkbuf_2
*I *1481:CLK I *D gf180mcu_fd_sc_mcu7t5v0__dffrnq_1
*I *1482:CLK I *D gf180mcu_fd_sc_mcu7t5v0__dffrnq_1
*I *1483:CLK I *D gf180mcu_fd_sc_mcu7t5v0__dffrnq_1
*I *1511:Z O *D gf180mcu_fd_sc_mcu7t5v0__clkbuf_16
*CAP
1 *1490:CLK 0.000212822
2 *1498:CLK 0.000404357
3 *1487:CLK 0
4 *1488:CLK 0
5 *1489:CLK 0.000460885
6 *1517:I 3.79205e-05
7 *1481:CLK 0.000194934
8 *1482:CLK 0
9 *1483:CLK 9.67552e-05
10 *1511:Z 0.000458936
11 *298:64 0.0010022
12 *298:55 0.000781318
13 *298:46 0.000644359
14 *298:23 0.000503038
15 *298:14 0.000840184
16 *298:10 0.000771756
17 *298:8 0.000544624
18 *1489:CLK *318:31 0.000107151
19 *1489:CLK *347:10 4.6818e-05
20 *1490:CLK *1326:A3 0.000163201
21 *1490:CLK *1330:A1 2.83038e-05
22 *1490:CLK *325:61 0.000170582
23 *1498:CLK *1434:I 0
24 *1498:CLK *303:18 5.4634e-05
25 *1498:CLK *344:12 2.2165e-05
26 *1517:I *1251:A1 0.000493315
27 *1517:I *1251:A2 7.83779e-05
28 *1517:I *1251:A3 0.000116995
29 *1517:I *1529:I 0.000154451
30 *298:8 *1529:I 1.56971e-05
31 *298:8 *318:56 5.07443e-05
32 *298:10 *1251:A2 8.15645e-05
33 *298:10 *1529:I 2.4337e-05
34 *298:14 *1251:A2 0.000396896
35 *298:14 *345:29 0
36 *298:55 *1251:A3 0
37 *298:55 *1436:I 2.39036e-05
38 *298:55 *318:31 1.85449e-05
39 *298:64 *1335:A2 0
40 *298:64 *303:18 0.00200626
41 *298:64 *346:14 0.000105696
42 *1258:A2 *298:14 0
43 *1261:A2 *1481:CLK 0.000865512
44 *1261:A2 *1483:CLK 0.000379274
45 *1261:A2 *298:23 0.00133747
46 *1482:RN *298:55 4.52262e-05
47 *1482:RN *298:64 2.48239e-05
48 *1483:RN *1489:CLK 5.22183e-05
49 *1487:D *1498:CLK 5.76373e-06
50 *1487:D *298:64 0.000119271
51 *1488:D *298:64 0.000113803
52 *1490:D *1490:CLK 4.27813e-05
53 *1540:I *1489:CLK 0
*RES
1 *1511:Z *298:8 10.444 
2 *298:8 *298:10 1.444 
3 *298:10 *298:14 7.312 
4 *298:14 *1483:CLK 5.488 
5 *298:14 *298:23 3.42 
6 *298:23 *1482:CLK 4.5 
7 *298:23 *1481:CLK 6.704 
8 *298:10 *1517:I 10.292 
9 *298:8 *298:46 4.5 
10 *298:46 *1489:CLK 7.616 
11 *298:46 *298:55 1.292 
12 *298:55 *1488:CLK 4.5 
13 *298:55 *298:64 6.688 
14 *298:64 *1487:CLK 4.5 
15 *298:64 *1498:CLK 6.932 
16 *1511:Z *1490:CLK 11.052 
*END

*D_NET *299 0.0160929
*CONN
*I *1450:CLK I *D gf180mcu_fd_sc_mcu7t5v0__dffrnq_1
*I *1445:CLK I *D gf180mcu_fd_sc_mcu7t5v0__dffrnq_1
*I *1518:I I *D gf180mcu_fd_sc_mcu7t5v0__clkbuf_2
*I *1455:CLK I *D gf180mcu_fd_sc_mcu7t5v0__dffrnq_1
*I *1475:CLK I *D gf180mcu_fd_sc_mcu7t5v0__dffrnq_1
*I *1456:CLK I *D gf180mcu_fd_sc_mcu7t5v0__dffrnq_1
*I *1464:CLK I *D gf180mcu_fd_sc_mcu7t5v0__dffsnq_1
*I *1463:CLK I *D gf180mcu_fd_sc_mcu7t5v0__dffrnq_1
*I *1461:CLK I *D gf180mcu_fd_sc_mcu7t5v0__dffrnq_1
*I *1512:Z O *D gf180mcu_fd_sc_mcu7t5v0__clkbuf_16
*CAP
1 *1450:CLK 0.000312267
2 *1445:CLK 0.000432058
3 *1518:I 0.000530242
4 *1455:CLK 7.49593e-05
5 *1475:CLK 0.000133631
6 *1456:CLK 3.28034e-05
7 *1464:CLK 0
8 *1463:CLK 0.000378994
9 *1461:CLK 3.37539e-05
10 *1512:Z 0.000451648
11 *299:60 0.00043819
12 *299:51 0.000614292
13 *299:43 0.000834456
14 *299:16 0.000757001
15 *299:14 0.000735851
16 *299:6 0.000675782
17 *1445:CLK *1368:A1 6.63909e-05
18 *1445:CLK *1530:I 5.18727e-05
19 *1445:CLK *317:66 9.026e-05
20 *1445:CLK *317:90 4.52293e-05
21 *1445:CLK *318:87 4.33819e-05
22 *1445:CLK *318:94 2.22758e-05
23 *1445:CLK *329:12 3.73627e-05
24 *1450:CLK *1194:A2 1.97747e-05
25 *1450:CLK *1200:A1 1.53689e-05
26 *1450:CLK *370:16 4.58601e-06
27 *1455:CLK *1195:A1 0.000203643
28 *1455:CLK *1313:A2 0.000582656
29 *1455:CLK *305:66 0.00014967
30 *1455:CLK *334:8 0.000142185
31 *1463:CLK *1300:A2 1.44832e-05
32 *1463:CLK *1321:A1 0
33 *1463:CLK *307:45 0
34 *1475:CLK *328:27 0.00125664
35 *1518:I *1321:A1 3.83835e-06
36 *299:6 *335:10 7.83779e-05
37 *299:14 *1295:A2 0
38 *299:14 *335:10 0.000193933
39 *299:16 *1295:A2 2.22657e-05
40 *299:16 *1321:A1 0
41 *299:43 *335:10 0.00127024
42 *299:51 *1312:A2 0
43 *299:51 *1321:A1 4.13816e-05
44 *299:51 *335:10 2.78305e-05
45 *299:51 *335:12 1.53748e-05
46 *299:60 *328:27 0.000741493
47 *299:60 *328:34 7.24161e-06
48 *1199:A2 *1450:CLK 7.49908e-05
49 *1295:A1 *299:14 0
50 *1295:B *299:14 0.000441063
51 *1295:B *299:16 0
52 *1301:B *1461:CLK 4.26315e-06
53 *1301:B *1463:CLK 0.000155958
54 *1312:B *1518:I 5.15667e-05
55 *1312:B *299:51 0.000317503
56 *1314:B *1475:CLK 0.000431535
57 *1314:B *299:60 0.00013063
58 *1322:A1 *1450:CLK 0.000206995
59 *1322:A2 *1450:CLK 7.3227e-05
60 *1368:A2 *1445:CLK 1.65795e-06
61 *1450:D *1450:CLK 2.03179e-05
62 *1456:RN *299:6 5.87561e-06
63 *1456:RN *299:14 3.23271e-05
64 *1461:D *1463:CLK 0.000139333
65 *1461:D *299:16 1.5015e-05
66 *1464:D *299:14 4.58601e-06
67 *1464:D *299:16 4.71416e-05
68 *1475:D *1475:CLK 7.24161e-06
69 *1512:I *1450:CLK 0
70 *1512:I *1518:I 9.67157e-05
71 *1513:I *1450:CLK 0.00034396
72 *154:8 *1450:CLK 0.000286604
73 *253:42 *1475:CLK 2.24173e-05
74 *253:65 *1450:CLK 6.95491e-06
75 *253:65 *1475:CLK 0.000216972
76 *253:65 *1518:I 0
77 *253:65 *299:60 0.0013744
*RES
1 *1512:Z *299:6 4.728 
2 *299:6 *299:14 12.192 
3 *299:14 *299:16 2.204 
4 *299:16 *1461:CLK 4.728 
5 *299:16 *1463:CLK 7.236 
6 *299:14 *1464:CLK 4.5 
7 *299:6 *299:43 12.116 
8 *299:43 *299:51 11.432 
9 *299:51 *1456:CLK 4.728 
10 *299:51 *299:60 4.332 
11 *299:60 *1475:CLK 7.768 
12 *299:60 *1455:CLK 15.4 
13 *299:43 *1518:I 6.172 
14 *1512:Z *1445:CLK 12.116 
15 *1518:I *1450:CLK 12.648 
*END

*D_NET *300 0.00977682
*CONN
*I *1447:CLK I *D gf180mcu_fd_sc_mcu7t5v0__dffrnq_1
*I *1448:CLK I *D gf180mcu_fd_sc_mcu7t5v0__dffrnq_1
*I *1446:CLK I *D gf180mcu_fd_sc_mcu7t5v0__dffrnq_1
*I *1484:CLK I *D gf180mcu_fd_sc_mcu7t5v0__dffrnq_1
*I *1485:CLK I *D gf180mcu_fd_sc_mcu7t5v0__dffrnq_1
*I *1499:CLK I *D gf180mcu_fd_sc_mcu7t5v0__dffrnq_1
*I *1486:CLK I *D gf180mcu_fd_sc_mcu7t5v0__dffrnq_1
*I *1480:CLK I *D gf180mcu_fd_sc_mcu7t5v0__dffrnq_1
*I *1519:I I *D gf180mcu_fd_sc_mcu7t5v0__clkbuf_2
*I *1513:Z O *D gf180mcu_fd_sc_mcu7t5v0__clkbuf_16
*CAP
1 *1447:CLK 0.000496346
2 *1448:CLK 0.000184553
3 *1446:CLK 8.92547e-05
4 *1484:CLK 5.66573e-05
5 *1485:CLK 0.000129657
6 *1499:CLK 0.000297618
7 *1486:CLK 0
8 *1480:CLK 0.00015483
9 *1519:I 0.000227148
10 *1513:Z 0.000281039
11 *300:93 0.0006809
12 *300:33 0.00027954
13 *300:31 0.00113849
14 *300:27 0.000990701
15 *300:25 0.000383569
16 *300:8 0.000600964
17 *1446:CLK *1439:I 0.000386421
18 *1447:CLK *1374:A1 0
19 *1447:CLK *326:95 0
20 *1448:CLK *325:23 9.026e-05
21 *1448:CLK *326:95 0
22 *1485:CLK *1228:A1 2.22758e-05
23 *1485:CLK *370:16 7.42484e-05
24 *1499:CLK *377:16 0.00011703
25 *1519:I *1161:I 2.84711e-05
26 *1519:I *325:27 0.000394617
27 *300:8 *325:25 0.000269857
28 *300:8 *325:27 0.000365142
29 *300:25 *370:16 0.000213955
30 *300:27 *370:16 0.000115954
31 *300:31 *1160:I 4.81095e-05
32 *300:31 *1161:I 0
33 *300:31 *1228:A3 0
34 *300:31 *1389:I 0
35 *300:31 *369:12 1.94858e-05
36 *300:31 *370:12 3.57979e-05
37 *300:31 *371:10 5.16188e-05
38 *300:31 *377:16 0
39 *1230:A1 *1480:CLK 1.02823e-05
40 *1230:A1 *1499:CLK 0.000123787
41 *1231:A4 *1480:CLK 0.000141897
42 *1232:A2 *1485:CLK 0.00011704
43 *1232:A2 *300:27 2.22657e-05
44 *1233:A1 *300:25 0.000117074
45 *1233:A3 *300:25 0
46 *1234:A2 *1519:I 0.000171927
47 *1324:A3 *1480:CLK 4.50449e-05
48 *1370:A2 *1447:CLK 8.81157e-05
49 *1371:A3 *1447:CLK 7.24161e-06
50 *1446:D *1447:CLK 0
51 *1484:D *300:25 0
52 *1484:RN *1447:CLK 0
53 *1484:RN *1448:CLK 0
54 *1485:D *1484:CLK 4.50449e-05
55 *1485:D *300:25 6.05076e-05
56 *1485:D *300:27 5.05494e-05
57 *1486:D *1499:CLK 9.88736e-06
58 *134:8 *300:31 0.000105155
59 *134:8 *300:33 3.40956e-05
60 *134:10 *1480:CLK 5.23469e-05
61 *134:10 *300:33 2.1182e-05
62 *164:10 *300:31 2.94576e-05
63 *199:17 *300:31 0.000119798
64 *201:8 *300:31 0
65 *201:8 *300:33 0
66 *201:14 *1480:CLK 0.000179609
67 *201:14 *300:33 0
*RES
1 *1513:Z *300:8 10.596 
2 *300:8 *1519:I 11.204 
3 *300:8 *300:25 6.4 
4 *300:25 *300:27 1.292 
5 *300:27 *300:31 10.352 
6 *300:31 *300:33 0.836 
7 *300:33 *1480:CLK 10.824 
8 *300:33 *1486:CLK 9 
9 *300:31 *1499:CLK 11.204 
10 *300:27 *1485:CLK 5.64 
11 *300:25 *1484:CLK 5.108 
12 *1513:Z *1446:CLK 9.988 
13 *1513:Z *300:93 4.5 
14 *300:93 *1448:CLK 5.792 
15 *300:93 *1447:CLK 7.616 
*END

*D_NET *301 0.0205993
*CONN
*I *1498:D I *D gf180mcu_fd_sc_mcu7t5v0__dffrnq_1
*I *1377:I0 I *D gf180mcu_fd_sc_mcu7t5v0__mux2_2
*I *1535:Z O *D gf180mcu_fd_sc_mcu7t5v0__dlyb_1
*CAP
1 *1498:D 0.000597615
2 *1377:I0 0.000160464
3 *1535:Z 0.000266217
4 *301:12 0.00650623
5 *301:10 0.00601437
6 *301:10 *367:8 0
7 *301:10 *367:23 0
8 *301:12 *367:23 0.00330534
9 *301:12 *367:38 0.00216741
10 *1480:D *1377:I0 0
11 *1480:RN *1498:D 0
12 *1493:RN *301:10 9.52854e-05
13 *1496:D *301:12 0.000373118
14 *1539:I *1377:I0 3.22701e-05
15 *235:18 *301:12 0.00107805
16 *259:10 *1377:I0 2.97354e-06
*RES
1 *1535:Z *301:10 15.096 
2 *301:10 *301:12 40.204 
3 *301:12 *1377:I0 14.488 
4 *301:12 *1498:D 17.3 
*END

*D_NET *302 0.00830275
*CONN
*I *1331:A1 I *D gf180mcu_fd_sc_mcu7t5v0__nor3_1
*I *1329:A1 I *D gf180mcu_fd_sc_mcu7t5v0__nor3_1
*I *1333:A1 I *D gf180mcu_fd_sc_mcu7t5v0__nor3_1
*I *1377:I1 I *D gf180mcu_fd_sc_mcu7t5v0__mux2_2
*I *1337:A1 I *D gf180mcu_fd_sc_mcu7t5v0__nor4_1
*I *1335:A1 I *D gf180mcu_fd_sc_mcu7t5v0__nor3_1
*I *1538:Z O *D gf180mcu_fd_sc_mcu7t5v0__clkbuf_2
*CAP
1 *1331:A1 0
2 *1329:A1 0
3 *1333:A1 0.000565967
4 *1377:I1 0.000210761
5 *1337:A1 0
6 *1335:A1 0
7 *1538:Z 0.000696309
8 *302:43 0.000941079
9 *302:39 0.000375112
10 *302:23 0.00047705
11 *302:16 0.000540099
12 *302:10 0.000970119
13 *1333:A1 *1193:I 3.19119e-05
14 *1333:A1 *1198:A2 0
15 *1333:A1 *1332:A1 0.000255298
16 *1333:A1 *1333:A2 1.76665e-05
17 *1333:A1 *1437:I 0.000105471
18 *1333:A1 *315:71 6.03906e-05
19 *1333:A1 *318:31 7.17003e-05
20 *1333:A1 *325:61 9.88736e-06
21 *1333:A1 *374:8 0
22 *302:10 *372:36 0
23 *302:10 *375:10 0
24 *302:16 *1193:I 0
25 *302:16 *1335:A2 1.5015e-05
26 *302:16 *316:51 0.000587475
27 *302:23 *1193:I 0
28 *302:23 *1335:A2 0.000186933
29 *302:23 *1337:A2 0.000141897
30 *302:43 *1193:I 0.000445196
31 *302:43 *316:51 7.83779e-05
32 *302:43 *325:61 0.000316833
33 *1231:A1 *302:10 0
34 *1333:A3 *1333:A1 0.00014664
35 *1335:A3 *302:16 5.48085e-05
36 *1337:A4 *1377:I1 2.72304e-05
37 *1337:A4 *302:23 7.45328e-07
38 *1487:D *1377:I1 3.10417e-05
39 *1488:D *302:16 7.71175e-06
40 *1488:RN *302:43 0.000502835
41 *1489:D *1333:A1 4.14761e-05
42 *1490:D *302:10 0.000254652
43 *1491:D *1333:A1 0.000135062
*RES
1 *1538:Z *302:10 13.56 
2 *302:10 *302:16 6.932 
3 *302:16 *1335:A1 4.5 
4 *302:16 *302:23 2.204 
5 *302:23 *1337:A1 4.5 
6 *302:23 *1377:I1 5.868 
7 *302:10 *302:39 4.5 
8 *302:39 *302:43 4.56 
9 *302:43 *1333:A1 18.136 
10 *302:43 *1329:A1 4.5 
11 *302:39 *1331:A1 4.5 
*END

*D_NET *303 0.00959893
*CONN
*I *1327:A4 I *D gf180mcu_fd_sc_mcu7t5v0__nand4_1
*I *1326:A3 I *D gf180mcu_fd_sc_mcu7t5v0__nand3_1
*I *1325:A2 I *D gf180mcu_fd_sc_mcu7t5v0__nand2_1
*I *1334:A2 I *D gf180mcu_fd_sc_mcu7t5v0__xnor2_1
*I *1539:Z O *D gf180mcu_fd_sc_mcu7t5v0__buf_1
*CAP
1 *1327:A4 9.74216e-05
2 *1326:A3 0.000128757
3 *1325:A2 0.000106119
4 *1334:A2 0
5 *1539:Z 0.000745257
6 *303:40 0.000336403
7 *303:27 0.000460581
8 *303:18 0.000989495
9 *1325:A2 *1193:I 0
10 *1325:A2 *1325:A1 0.00032464
11 *1325:A2 *1334:A1 5.4634e-05
12 *1325:A2 *318:31 2.9965e-05
13 *1326:A3 *1326:A2 3.23062e-05
14 *1326:A3 *1330:A1 7.24161e-06
15 *1326:A3 *373:6 5.22865e-05
16 *1326:A3 *373:8 9.32538e-05
17 *1327:A4 *325:61 2.64786e-05
18 *1327:A4 *373:8 5.22519e-05
19 *1327:A4 *373:12 0.000379274
20 *303:18 *1434:I 0
21 *303:18 *1529:I 0
22 *303:18 *316:10 0.000191889
23 *303:18 *316:27 4.66599e-05
24 *303:18 *316:51 0.000449842
25 *303:18 *346:14 0.000121697
26 *303:27 *1334:A1 0.000787845
27 *303:27 *318:31 6.85645e-06
28 *303:40 *318:56 0.000550942
29 *303:40 *373:36 0.00113406
30 *1481:RN *303:18 1.08231e-05
31 *1482:RN *303:18 8.62803e-05
32 *1488:D *303:27 2.05921e-05
33 *1490:CLK *1326:A3 0.000163201
34 *1498:CLK *303:18 5.4634e-05
35 *1539:I *303:18 5.09842e-05
36 *298:64 *303:18 0.00200626
*RES
1 *1539:Z *303:18 21.632 
2 *303:18 *1334:A2 4.5 
3 *303:18 *303:27 2.432 
4 *303:27 *1325:A2 5.64 
5 *303:27 *303:40 11.964 
6 *303:40 *1326:A3 6.096 
7 *303:40 *1327:A4 5.64 
*END

*D_NET *304 0.00416726
*CONN
*I *1256:A2 I *D gf180mcu_fd_sc_mcu7t5v0__nor2_1
*I *1259:A1 I *D gf180mcu_fd_sc_mcu7t5v0__oai22_1
*I *1252:B I *D gf180mcu_fd_sc_mcu7t5v0__aoi21_1
*I *1540:Z O *D gf180mcu_fd_sc_mcu7t5v0__clkbuf_1
*CAP
1 *1256:A2 6.41208e-05
2 *1259:A1 0
3 *1252:B 0
4 *1540:Z 0.000166058
5 *304:23 0.000438716
6 *304:12 0.000540653
7 *1256:A2 *1251:A3 0
8 *304:12 *1253:A1 2.96621e-05
9 *304:23 *1251:A3 0
10 *1253:A2 *304:12 7.83779e-05
11 *1255:A1 *304:12 0.00045128
12 *1257:A2 *304:23 0.000389469
13 *1258:A1 *304:23 0.000117374
14 *1259:A2 *304:23 0.000665078
15 *1260:B *1256:A2 0.000344204
16 *1260:B *304:23 2.57058e-06
17 *1483:D *304:23 7.59633e-05
18 *225:8 *1256:A2 0.000772841
19 *225:8 *304:23 3.08902e-05
*RES
1 *1540:Z *304:12 14.868 
2 *304:12 *1252:B 4.5 
3 *304:12 *304:23 4.636 
4 *304:23 *1259:A1 4.5 
5 *304:23 *1256:A2 6.552 
*END

*D_NET *305 0.0160383
*CONN
*I *1318:A2 I *D gf180mcu_fd_sc_mcu7t5v0__nand2_1
*I *1316:A2 I *D gf180mcu_fd_sc_mcu7t5v0__oai21_1
*I *1317:S I *D gf180mcu_fd_sc_mcu7t5v0__mux2_2
*I *1313:A2 I *D gf180mcu_fd_sc_mcu7t5v0__nand2_1
*I *1312:A2 I *D gf180mcu_fd_sc_mcu7t5v0__aoi21_1
*I *1311:A2 I *D gf180mcu_fd_sc_mcu7t5v0__nor2_1
*I *1314:A2 I *D gf180mcu_fd_sc_mcu7t5v0__oai21_1
*I *1315:A2 I *D gf180mcu_fd_sc_mcu7t5v0__nand2_1
*I *1323:S I *D gf180mcu_fd_sc_mcu7t5v0__mux2_2
*I *1320:S I *D gf180mcu_fd_sc_mcu7t5v0__mux2_2
*I *1520:Z O *D gf180mcu_fd_sc_mcu7t5v0__dlyb_1
*CAP
1 *1318:A2 5.46188e-05
2 *1316:A2 0
3 *1317:S 0
4 *1313:A2 0.000261039
5 *1312:A2 0.0001252
6 *1311:A2 0.000153324
7 *1314:A2 0
8 *1315:A2 0
9 *1323:S 8.28986e-05
10 *1320:S 0.000567419
11 *1520:Z 0.000131214
12 *305:83 0.000795661
13 *305:70 0.000570736
14 *305:66 0.000547235
15 *305:62 0.000537377
16 *305:58 0.000714807
17 *305:43 0.00168031
18 *305:35 0.00134285
19 *305:22 0.000537051
20 *1313:A2 *1300:A1 0.000200516
21 *1313:A2 *334:8 5.8775e-05
22 *1318:A2 *1318:A1 0.000112413
23 *1318:A2 *1323:I0 0.000252948
24 *1318:A2 *349:83 3.27593e-05
25 *1323:S *1287:S 2.88187e-05
26 *1323:S *1323:I0 0.000215472
27 *1323:S *349:83 6.68441e-05
28 *305:22 *1287:S 0
29 *305:22 *349:64 0.000132714
30 *305:35 *1323:I0 0.000207717
31 *305:35 *349:83 4.64479e-05
32 *305:58 *333:8 0.000309567
33 *305:58 *352:60 6.04444e-06
34 *305:62 *1195:A4 1.5015e-05
35 *305:62 *1198:A1 9.88736e-06
36 *305:62 *331:8 0.000201334
37 *305:62 *352:60 0.000233395
38 *305:66 *1195:A1 1.47007e-05
39 *305:66 *1300:A1 0.000432781
40 *305:83 *1202:A2 7.05825e-06
41 *305:83 *328:27 0
42 *305:83 *330:45 0.000256056
43 *1196:A2 *305:70 0.000363388
44 *1196:A2 *305:83 0.000648795
45 *1312:B *1311:A2 1.20079e-05
46 *1314:B *1313:A2 0.000378609
47 *1316:A1 *305:58 1.91917e-06
48 *1316:A1 *305:62 0
49 *1316:B *305:58 8.02144e-07
50 *1319:A2 *305:58 0
51 *1319:B *1323:S 0
52 *1319:B *305:58 0.000309567
53 *1452:D *305:58 1.72953e-05
54 *1452:D *305:62 7.54771e-06
55 *1453:RN *305:62 0.000299729
56 *1454:D *305:58 8.62869e-05
57 *1454:RN *305:62 0
58 *1455:D *305:70 0.000246974
59 *1455:RN *1313:A2 0
60 *1455:CLK *1313:A2 0.000582656
61 *1455:CLK *305:66 0.00014967
62 *1456:D *1311:A2 0.000171918
63 *1471:CLK *1320:S 0
64 *1472:CLK *1318:A2 1.97747e-05
65 *1472:CLK *1323:S 0
66 *1472:CLK *305:22 3.94593e-05
67 *1507:I *1318:A2 2.85944e-05
68 *1507:I *305:22 0
69 *1510:I *305:70 0
70 *141:29 *1313:A2 0
71 *153:27 *305:62 0.000666844
72 *253:65 *1311:A2 0.000841708
73 *253:65 *1313:A2 0.000221732
74 *299:51 *1312:A2 0
*RES
1 *1520:Z *1320:S 9.912 
2 *1320:S *305:22 11.812 
3 *305:22 *1323:S 10.064 
4 *305:22 *305:35 0.532 
5 *305:35 *305:43 20.264 
6 *305:43 *1315:A2 4.5 
7 *305:43 *305:58 12.572 
8 *305:58 *305:62 4.408 
9 *305:62 *305:66 6.856 
10 *305:66 *305:70 5.488 
11 *305:70 *1314:A2 4.5 
12 *305:70 *305:83 8.528 
13 *305:83 *1311:A2 11.204 
14 *305:83 *1312:A2 9.684 
15 *305:66 *1313:A2 12.496 
16 *305:62 *1317:S 4.5 
17 *305:58 *1316:A2 4.5 
18 *305:35 *1318:A2 9.912 
*END

*D_NET *306 0.0215588
*CONN
*I *1294:A2 I *D gf180mcu_fd_sc_mcu7t5v0__nand2_1
*I *1295:A2 I *D gf180mcu_fd_sc_mcu7t5v0__oai21_1
*I *1303:A2 I *D gf180mcu_fd_sc_mcu7t5v0__aoi21_1
*I *1302:A2 I *D gf180mcu_fd_sc_mcu7t5v0__nor2_1
*I *1309:A2 I *D gf180mcu_fd_sc_mcu7t5v0__aoi21_1
*I *1304:A2 I *D gf180mcu_fd_sc_mcu7t5v0__nor2_1
*I *1307:A2 I *D gf180mcu_fd_sc_mcu7t5v0__aoi21_1
*I *1305:A2 I *D gf180mcu_fd_sc_mcu7t5v0__aoi21_1
*I *1306:A2 I *D gf180mcu_fd_sc_mcu7t5v0__nor2_1
*I *1308:A2 I *D gf180mcu_fd_sc_mcu7t5v0__nor2_1
*I *1521:Z O *D gf180mcu_fd_sc_mcu7t5v0__dlyb_1
*CAP
1 *1294:A2 0.000322015
2 *1295:A2 0.000328906
3 *1303:A2 0.000156928
4 *1302:A2 0.00258106
5 *1309:A2 0
6 *1304:A2 0
7 *1307:A2 0.000135435
8 *1305:A2 0
9 *1306:A2 0.000295416
10 *1308:A2 0.000172552
11 *1521:Z 0
12 *306:119 0.00307157
13 *306:41 0.000459209
14 *306:35 0.00054161
15 *306:29 0.000624831
16 *306:25 0.000450737
17 *306:23 0.000228694
18 *306:21 0.000451335
19 *306:4 0.000466959
20 *1294:A2 *317:66 0.000920154
21 *1295:A2 *1300:A2 0
22 *1302:A2 *313:68 8.55445e-05
23 *1306:A2 *1421:I 0.000255714
24 *306:21 *313:68 9.67239e-06
25 *306:25 *313:68 1.94652e-05
26 *306:29 *313:48 0.000149354
27 *306:29 *313:68 0.000366552
28 *306:35 *313:48 6.33151e-05
29 *306:35 *313:103 0
30 *306:119 *1211:B1 0
31 *306:119 *1302:A1 0.000191702
32 *306:119 *1355:A2 0.000839326
33 *306:119 *1357:A1 1.0477e-05
34 *306:119 *1429:I 0.000666414
35 *306:119 *307:8 0.000128373
36 *306:119 *307:26 0.000484924
37 *306:119 *307:45 0
38 *306:119 *313:68 1.44832e-05
39 *306:119 *314:29 5.14116e-06
40 *306:119 *314:38 0
41 *306:119 *314:51 0
42 *306:119 *317:40 6.25174e-05
43 *306:119 *317:53 6.25174e-05
44 *306:119 *317:66 0.000107743
45 *306:119 *326:22 0.000564615
46 *1211:B2 *1303:A2 7.32209e-05
47 *1295:A1 *1295:A2 0.000151957
48 *1295:B *1295:A2 7.45328e-07
49 *1303:B *1302:A2 0.000241831
50 *1303:B *1303:A2 5.76749e-06
51 *1303:B *306:21 0
52 *1303:B *306:25 5.49899e-05
53 *1305:A1 *1306:A2 4.50449e-05
54 *1305:A1 *1307:A2 5.11006e-05
55 *1305:A1 *306:35 2.61316e-05
56 *1305:A1 *306:41 4.76572e-05
57 *1307:B *1306:A2 1.02386e-05
58 *1307:B *306:41 7.46015e-06
59 *1309:A1 *1303:A2 0.000163658
60 *1309:A1 *306:21 8.8608e-05
61 *1309:B *1308:A2 0.00148547
62 *1355:A3 *306:119 0.000787074
63 *1358:A3 *306:119 4.73774e-05
64 *1441:RN *306:119 8.52284e-06
65 *1441:CLK *306:119 8.38119e-05
66 *1442:D *306:119 0.000144093
67 *1442:RN *306:119 0
68 *1457:D *306:21 0.000555475
69 *1457:RN *1303:A2 0.000132619
70 *1457:RN *306:25 0
71 *1457:RN *306:29 7.59633e-05
72 *1457:CLK *306:21 9.03836e-06
73 *1459:D *1306:A2 0.000266031
74 *1459:CLK *1306:A2 0.000502994
75 *1460:D *306:29 0
76 *1463:D *306:119 0.00032464
77 *1467:RN *1306:A2 1.79941e-05
78 *1522:I *306:119 0
79 *150:8 *1303:A2 8.15645e-05
80 *292:119 *1308:A2 0.000269886
81 *295:8 *1308:A2 7.71704e-05
82 *295:21 *1308:A2 0.000106715
83 *295:83 *306:29 0
84 *295:87 *1306:A2 9.69336e-05
85 *295:87 *306:29 0
86 *295:87 *306:35 0
87 *295:87 *306:41 0.000193567
88 *296:6 *306:119 5.87561e-06
89 *299:14 *1295:A2 0
90 *299:16 *1295:A2 2.22657e-05
*RES
1 *1521:Z *306:4 4.5 
2 *306:4 *1308:A2 17.224 
3 *306:4 *306:21 6.932 
4 *306:21 *306:23 4.5 
5 *306:23 *306:25 0.532 
6 *306:25 *306:29 3.496 
7 *306:29 *306:35 5.868 
8 *306:35 *306:41 5.564 
9 *306:41 *1306:A2 8.452 
10 *306:41 *1305:A2 4.5 
11 *306:35 *1307:A2 9.836 
12 *306:29 *1304:A2 4.5 
13 *306:25 *1309:A2 4.5 
14 *306:23 *1302:A2 6.172 
15 *306:21 *1303:A2 10.52 
16 *1302:A2 *306:119 28.988 
17 *306:119 *1295:A2 11.432 
18 *306:119 *1294:A2 12.04 
*END

*D_NET *307 0.00571842
*CONN
*I *1297:A2 I *D gf180mcu_fd_sc_mcu7t5v0__aoi21_1
*I *1300:A2 I *D gf180mcu_fd_sc_mcu7t5v0__nor2_1
*I *1301:A2 I *D gf180mcu_fd_sc_mcu7t5v0__aoi21_1
*I *1296:A2 I *D gf180mcu_fd_sc_mcu7t5v0__nor2_1
*I *1298:A2 I *D gf180mcu_fd_sc_mcu7t5v0__nand2_1
*I *1299:A2 I *D gf180mcu_fd_sc_mcu7t5v0__oai21_1
*I *1522:Z O *D gf180mcu_fd_sc_mcu7t5v0__dlyb_1
*CAP
1 *1297:A2 0
2 *1300:A2 0.000328936
3 *1301:A2 0
4 *1296:A2 0
5 *1298:A2 0
6 *1299:A2 0.000273289
7 *1522:Z 3.28034e-05
8 *307:45 0.000831133
9 *307:32 0.000676058
10 *307:26 0.000558402
11 *307:8 0.000392762
12 *307:6 0.000536817
13 *1299:A2 *1429:I 0
14 *1300:A2 *334:8 0
15 *307:8 *314:51 6.13012e-05
16 *307:26 *1530:I 2.11326e-05
17 *307:26 *317:27 7.52043e-05
18 *307:32 *1409:I 0
19 *307:32 *317:27 0
20 *1295:A1 *1300:A2 0
21 *1295:A2 *1300:A2 0
22 *1297:A1 *307:32 0.000142801
23 *1297:B *307:32 0.00034938
24 *1299:A1 *1299:A2 0
25 *1299:B *1299:A2 0.000657859
26 *1301:A1 *1300:A2 4.08987e-05
27 *1461:D *1300:A2 0.000111858
28 *1463:D *307:45 0
29 *1463:CLK *1300:A2 1.44832e-05
30 *1463:CLK *307:45 0
31 *296:55 *1299:A2 0
32 *306:119 *307:8 0.000128373
33 *306:119 *307:26 0.000484924
34 *306:119 *307:45 0
*RES
1 *1522:Z *307:6 4.728 
2 *307:6 *307:8 1.14 
3 *307:8 *1299:A2 16.008 
4 *307:8 *1298:A2 4.5 
5 *307:6 *307:26 3.268 
6 *307:26 *307:32 10.596 
7 *307:32 *1296:A2 4.5 
8 *307:32 *307:45 3.04 
9 *307:45 *1301:A2 4.5 
10 *307:45 *1300:A2 15.78 
11 *307:26 *1297:A2 4.5 
*END

*D_NET *308 0.0187477
*CONN
*I *1286:S I *D gf180mcu_fd_sc_mcu7t5v0__mux2_2
*I *1278:A2 I *D gf180mcu_fd_sc_mcu7t5v0__nand2_1
*I *1279:A2 I *D gf180mcu_fd_sc_mcu7t5v0__oai21_1
*I *1284:S I *D gf180mcu_fd_sc_mcu7t5v0__mux2_2
*I *1285:S I *D gf180mcu_fd_sc_mcu7t5v0__mux2_2
*I *1280:A2 I *D gf180mcu_fd_sc_mcu7t5v0__nor2_1
*I *1281:A2 I *D gf180mcu_fd_sc_mcu7t5v0__aoi21_1
*I *1282:A2 I *D gf180mcu_fd_sc_mcu7t5v0__nand2_1
*I *1283:A2 I *D gf180mcu_fd_sc_mcu7t5v0__oai21_1
*I *1287:S I *D gf180mcu_fd_sc_mcu7t5v0__mux2_2
*I *1523:Z O *D gf180mcu_fd_sc_mcu7t5v0__dlyb_1
*CAP
1 *1286:S 0.000216356
2 *1278:A2 0.000292347
3 *1279:A2 0
4 *1284:S 0
5 *1285:S 0.000562125
6 *1280:A2 0
7 *1281:A2 5.84012e-05
8 *1282:A2 0
9 *1283:A2 0.000123263
10 *1287:S 0.000812413
11 *1523:Z 0.00110433
12 *308:96 0.000355928
13 *308:82 0.00101601
14 *308:65 0.000787298
15 *308:52 0.000245118
16 *308:48 0.000277958
17 *308:28 0.000127387
18 *308:26 0.000440765
19 *1278:A2 *1280:A1 0
20 *1278:A2 *328:27 1.15275e-05
21 *1278:A2 *352:39 8.53118e-06
22 *1283:A2 *1282:A1 9.52854e-05
23 *1285:S *1284:I1 4.19182e-05
24 *1285:S *1285:I0 0.000439063
25 *1285:S *330:12 7.98438e-05
26 *1285:S *350:25 0.000210547
27 *1285:S *350:38 0.00095915
28 *1285:S *351:16 0.00100952
29 *1285:S *351:22 7.29578e-05
30 *1285:S *352:14 0.00026286
31 *1285:S *352:39 6.17803e-05
32 *1286:S *1285:I0 9.26705e-05
33 *1286:S *350:25 0.00148286
34 *1287:S *1403:I 5.83557e-05
35 *1287:S *348:12 0
36 *1287:S *348:14 0
37 *1287:S *349:64 1.52691e-05
38 *308:26 *1315:A1 1.39031e-05
39 *308:26 *1403:I 9.88736e-06
40 *308:26 *1427:I 0.000386694
41 *308:28 *1282:A1 9.52854e-05
42 *308:28 *352:39 0.000247234
43 *308:48 *1315:A1 6.43339e-05
44 *308:48 *352:39 0.00123248
45 *308:48 *353:10 0.000109092
46 *308:52 *328:27 3.65053e-05
47 *308:82 *1264:A2 8.55327e-05
48 *308:82 *1280:A1 4.58601e-06
49 *308:82 *1321:A1 0.00019344
50 *308:82 *352:14 0
51 *308:82 *352:39 0.000200207
52 *308:96 *328:27 2.60127e-05
53 *1264:A3 *308:82 0
54 *1265:A1 *1285:S 0.00010255
55 *1265:A1 *308:82 8.49853e-05
56 *1265:A2 *308:82 0.000171918
57 *1279:A1 *1278:A2 3.21533e-05
58 *1281:A1 *308:52 7.83779e-05
59 *1283:A1 *1283:A2 0.000530811
60 *1283:A1 *308:28 0.000310758
61 *1283:A1 *308:48 0.000119796
62 *1319:B *1287:S 0
63 *1323:S *1287:S 2.88187e-05
64 *1449:D *1287:S 4.60244e-05
65 *1449:SETN *1287:S 0
66 *1467:CLK *1286:S 0.000965185
67 *1508:I *1286:S 7.54718e-06
68 *1509:I *1286:S 4.82048e-05
69 *1516:I *1281:A2 1.43092e-05
70 *1516:I *308:65 2.99905e-05
71 *1516:I *308:82 0.000124452
72 *1523:I *1287:S 0
73 *142:25 *308:48 0.000171289
74 *142:25 *308:52 0.000248576
75 *231:14 *1285:S 1.83298e-05
76 *231:14 *308:82 1.72912e-05
77 *253:42 *1278:A2 4.28981e-05
78 *253:42 *1285:S 2.8143e-05
79 *253:42 *308:52 0.000538421
80 *253:42 *308:82 0
81 *253:42 *308:96 0.000246194
82 *296:61 *1281:A2 0.000215472
83 *296:61 *308:65 0.000498136
84 *305:22 *1287:S 0
*RES
1 *1523:Z *1287:S 14.168 
2 *1523:Z *308:26 11.508 
3 *308:26 *308:28 0.836 
4 *308:28 *1283:A2 10.596 
5 *308:28 *1282:A2 9 
6 *308:26 *308:48 7.616 
7 *308:48 *308:52 5.944 
8 *308:52 *1281:A2 9.532 
9 *308:52 *308:65 5.792 
10 *308:65 *1280:A2 4.5 
11 *308:65 *308:82 14.168 
12 *308:82 *1285:S 10.96 
13 *308:82 *1284:S 4.5 
14 *308:48 *308:96 0.684 
15 *308:96 *1279:A2 4.5 
16 *308:96 *1278:A2 15.02 
17 *1285:S *1286:S 13.332 
*END

*D_NET *309 0.000203656
*CONN
*I *1545:I I *D gf180mcu_fd_sc_mcu7t5v0__buf_3
*I *1478:Q O *D gf180mcu_fd_sc_mcu7t5v0__dffsnq_1
*CAP
1 *1545:I 7.20899e-05
2 *1478:Q 7.20899e-05
3 *1545:I *315:32 0
4 *297:10 *1545:I 5.94765e-05
*RES
1 *1478:Q *1545:I 18.532 
*END

*D_NET *310 0.0160265
*CONN
*I *1433:I I *D gf180mcu_fd_sc_mcu7t5v0__clkinv_1
*I *1382:I I *D gf180mcu_fd_sc_mcu7t5v0__clkinv_1
*I *1423:I I *D gf180mcu_fd_sc_mcu7t5v0__clkinv_1
*I *1391:I I *D gf180mcu_fd_sc_mcu7t5v0__clkinv_1
*I *1430:I I *D gf180mcu_fd_sc_mcu7t5v0__clkinv_1
*I *1431:I I *D gf180mcu_fd_sc_mcu7t5v0__clkinv_1
*I *1419:I I *D gf180mcu_fd_sc_mcu7t5v0__clkinv_1
*I *1386:I I *D gf180mcu_fd_sc_mcu7t5v0__clkinv_1
*I *1387:I I *D gf180mcu_fd_sc_mcu7t5v0__clkinv_1
*I *1383:I I *D gf180mcu_fd_sc_mcu7t5v0__clkinv_1
*I *1524:Z O *D gf180mcu_fd_sc_mcu7t5v0__dlyb_1
*CAP
1 *1433:I 0
2 *1382:I 0
3 *1423:I 0.000401089
4 *1391:I 0
5 *1430:I 0
6 *1431:I 0.000283347
7 *1419:I 0.000332847
8 *1386:I 0
9 *1387:I 0
10 *1383:I 0.000358832
11 *1524:Z 0
12 *310:96 0.000734583
13 *310:88 0.000749918
14 *310:66 0.000485755
15 *310:53 0.000729195
16 *310:47 0.000744437
17 *310:36 0.000601545
18 *310:32 0.00065196
19 *310:10 0.000547693
20 *310:4 0.000373348
21 *1383:I *1532:I 0.000188038
22 *1419:I *1292:I0 0.000181456
23 *1419:I *1292:I1 7.59633e-05
24 *1419:I *1541:I 1.33594e-05
25 *1423:I *349:12 5.05571e-05
26 *1423:I *349:64 5.14116e-06
27 *310:10 *1532:I 0.000180205
28 *310:10 *319:6 0
29 *310:32 *319:6 0
30 *310:32 *319:30 0.000303951
31 *310:36 *319:30 2.20526e-06
32 *310:36 *327:10 0
33 *310:53 *1292:I0 6.80715e-05
34 *310:53 *319:62 3.4631e-05
35 *310:66 *1289:A1 1.11891e-05
36 *310:66 *319:62 0.000231973
37 *310:88 *1292:I0 0.000115168
38 *310:88 *348:24 0.000109841
39 *310:96 *1308:A1 0.000301618
40 *310:96 *348:24 0.000660146
41 *310:96 *364:10 0
42 cap_ctrl[0] *1419:I 0
43 *1275:A1 *310:66 0.000400401
44 *1275:B *1431:I 0
45 *1276:A2 *310:88 0.000111858
46 *1277:A1 *310:66 0.000966338
47 *1291:S *310:66 2.07359e-05
48 *1292:S *310:66 0.000237037
49 *1310:A1 *1431:I 0.000135062
50 *1341:A1 *310:36 0.000728766
51 *1341:B1 *310:36 0.000109136
52 *1342:A2 *310:36 0.000620262
53 *1345:A2 *310:88 0
54 *1451:D *1423:I 0.000106097
55 *1465:RN *1419:I 0.000448201
56 *1466:CLK *1431:I 8.45695e-05
57 *1469:RN *1423:I 0.000386421
58 *1477:RN *1431:I 8.95196e-05
59 *1477:CLK *310:47 9.45347e-06
60 *1477:CLK *310:53 0.000145096
61 *1477:CLK *310:66 0.000444436
62 *1493:RN *310:32 0
63 *1496:RN *310:47 7.54503e-05
64 *1497:D *1383:I 3.87534e-05
65 *1497:D *310:32 5.20943e-06
66 *1497:D *310:36 9.06851e-05
67 *1497:RN *1383:I 5.48085e-05
68 *1501:D *310:47 0.000202762
69 *1501:D *310:88 0.000226606
70 *1506:I *1423:I 0.000443321
71 *1506:I *310:96 2.85944e-05
72 *139:10 *310:66 3.35674e-05
73 *237:19 *310:96 0
74 *237:34 *310:96 0
75 *270:22 *310:36 0.000101909
76 *293:22 *310:53 4.10388e-05
77 *293:22 *310:88 3.17466e-06
78 *293:24 *310:36 6.67751e-05
79 *293:24 *310:47 2.97354e-06
80 *293:30 *1383:I 9.17565e-06
81 *293:30 *310:10 3.02683e-05
*RES
1 *1524:Z *310:4 4.5 
2 *310:4 *310:10 6.172 
3 *310:10 *1383:I 11.584 
4 *310:10 *1387:I 9 
5 *310:4 *310:32 1.368 
6 *310:32 *310:36 9.44 
7 *310:36 *1386:I 9 
8 *310:36 *310:47 5.792 
9 *310:47 *310:53 6.02 
10 *310:53 *1419:I 11.964 
11 *310:53 *310:66 9.44 
12 *310:66 *1431:I 6.704 
13 *310:66 *1430:I 4.5 
14 *310:47 *310:88 3.724 
15 *310:88 *310:96 12.192 
16 *310:96 *1391:I 4.5 
17 *310:96 *1423:I 8.756 
18 *310:88 *1382:I 4.5 
19 *310:32 *1433:I 4.5 
*END

*D_NET *311 0.0147119
*CONN
*I *1392:I I *D gf180mcu_fd_sc_mcu7t5v0__clkinv_1
*I *1422:I I *D gf180mcu_fd_sc_mcu7t5v0__clkinv_1
*I *1385:I I *D gf180mcu_fd_sc_mcu7t5v0__clkinv_1
*I *1427:I I *D gf180mcu_fd_sc_mcu7t5v0__clkinv_1
*I *1403:I I *D gf180mcu_fd_sc_mcu7t5v0__clkinv_1
*I *1384:I I *D gf180mcu_fd_sc_mcu7t5v0__clkinv_1
*I *1394:I I *D gf180mcu_fd_sc_mcu7t5v0__clkinv_1
*I *1525:Z O *D gf180mcu_fd_sc_mcu7t5v0__dlyb_1
*CAP
1 *1392:I 0.000369791
2 *1422:I 3.28034e-05
3 *1385:I 0.000196583
4 *1427:I 0.000125754
5 *1403:I 0.000103196
6 *1384:I 0.000768317
7 *1394:I 0.000134296
8 *1525:Z 0.000285272
9 *311:58 0.000824359
10 *311:52 0.00111548
11 *311:50 0.000601646
12 *311:31 0.00165076
13 *311:14 0.000889528
14 *311:10 0.000773204
15 *1394:I *319:30 0.000300779
16 *1427:I *1315:A1 1.5015e-05
17 *311:10 *358:10 3.56917e-05
18 *311:10 *359:27 0.00010067
19 *311:31 *1246:A3 4.60055e-05
20 *311:31 *367:38 1.109e-05
21 *311:58 *1264:A2 0
22 *311:58 *365:8 7.09482e-05
23 *1248:A3 *1394:I 6.31034e-05
24 *1248:A3 *311:31 0.00019357
25 *1287:S *1403:I 5.83557e-05
26 *1319:B *1403:I 4.71416e-05
27 *1319:B *1427:I 6.61008e-05
28 *1339:A1 *1392:I 0.00150997
29 *1339:A1 *311:14 0.000431535
30 *1348:A1 *311:31 0
31 *1449:CLK *311:31 0.00024584
32 *1449:CLK *311:50 0.000447577
33 *1468:RN *311:52 8.18373e-05
34 *1469:D *1384:I 0
35 *1469:CLK *1384:I 0.000222453
36 *1473:RN *1427:I 0.000379274
37 *1473:CLK *1385:I 0.000179609
38 *1495:RN *1385:I 0.000611253
39 *1502:SETN *1392:I 6.77492e-05
40 *1504:SETN *311:14 0.000140167
41 *207:25 *1384:I 2.6126e-05
42 *216:8 *311:31 0.000255821
43 *217:12 *1394:I 0.000167138
44 *217:12 *311:14 0.000192419
45 *217:12 *311:31 4.66861e-05
46 *217:16 *311:31 1.12495e-05
47 *269:16 *1392:I 0
48 *269:32 *1392:I 1.15312e-05
49 *269:32 *1394:I 2.89664e-05
50 *269:32 *311:14 5.86666e-05
51 *270:22 *1384:I 0
52 *270:22 *311:31 0.000315086
53 *294:58 *311:10 4.8978e-06
54 *308:26 *1403:I 9.88736e-06
55 *308:26 *1427:I 0.000386694
*RES
1 *1525:Z *311:10 15.096 
2 *311:10 *311:14 6.096 
3 *311:14 *1394:I 10.52 
4 *311:14 *311:31 5.092 
5 *311:31 *1384:I 13.94 
6 *311:31 *311:50 6.78 
7 *311:50 *311:52 1.9 
8 *311:52 *311:58 13.18 
9 *311:58 *1403:I 5.336 
10 *311:58 *1427:I 6.704 
11 *311:52 *1385:I 6.704 
12 *311:50 *1422:I 4.728 
13 *311:10 *1392:I 8.528 
*END

*D_NET *312 0.000880282
*CONN
*I *1532:I I *D gf180mcu_fd_sc_mcu7t5v0__dlyb_1
*I *1536:Z O *D gf180mcu_fd_sc_mcu7t5v0__dlyb_1
*CAP
1 *1532:I 0.000222594
2 *1536:Z 0.000222594
3 *1383:I *1532:I 0.000188038
4 *1497:D *1532:I 0
5 *1497:RN *1532:I 6.68508e-05
6 *310:10 *1532:I 0.000180205
*RES
1 *1536:Z *1532:I 20.128 
*END

*D_NET *313 0.0151809
*CONN
*I *1413:I I *D gf180mcu_fd_sc_mcu7t5v0__clkinv_1
*I *1414:I I *D gf180mcu_fd_sc_mcu7t5v0__clkinv_1
*I *1412:I I *D gf180mcu_fd_sc_mcu7t5v0__clkinv_1
*I *1395:I I *D gf180mcu_fd_sc_mcu7t5v0__clkinv_1
*I *1425:I I *D gf180mcu_fd_sc_mcu7t5v0__clkinv_1
*I *1405:I I *D gf180mcu_fd_sc_mcu7t5v0__clkinv_1
*I *1411:I I *D gf180mcu_fd_sc_mcu7t5v0__clkinv_1
*I *1424:I I *D gf180mcu_fd_sc_mcu7t5v0__clkinv_1
*I *1421:I I *D gf180mcu_fd_sc_mcu7t5v0__clkinv_1
*I *1420:I I *D gf180mcu_fd_sc_mcu7t5v0__clkinv_1
*I *1526:Z O *D gf180mcu_fd_sc_mcu7t5v0__dlyb_1
*CAP
1 *1413:I 0.000332047
2 *1414:I 0
3 *1412:I 0.00021139
4 *1395:I 0.000215618
5 *1425:I 8.6351e-05
6 *1405:I 0.000624981
7 *1411:I 0.000166452
8 *1424:I 0
9 *1421:I 0.000346199
10 *1420:I 0.000223122
11 *1526:Z 0
12 *313:118 0.000674193
13 *313:103 0.000946382
14 *313:70 0.000897339
15 *313:68 0.00108052
16 *313:48 0.00116861
17 *313:40 0.000762479
18 *313:12 0.000705092
19 *313:6 0.000182138
20 *1395:I *1302:A1 4.06416e-05
21 *1405:I *1263:A4 9.98921e-06
22 *1405:I *1320:I1 6.80851e-05
23 *1405:I *351:10 0.000264727
24 *1412:I *1174:I 0
25 *1413:I *1175:I 1.97747e-05
26 *1413:I *337:10 2.14818e-05
27 *1413:I *338:10 1.52691e-05
28 *1413:I *338:25 0.00065318
29 *1420:I *1291:I1 5.87908e-05
30 *1420:I *1306:A1 0
31 *1420:I *319:62 0.000712243
32 *1421:I *1290:I1 0.000732971
33 *313:12 *1306:A1 5.94709e-06
34 *313:40 *1290:I1 6.71936e-05
35 *313:40 *1306:A1 0.0001908
36 *313:48 *1290:I1 5.06471e-05
37 *313:48 *1306:A1 5.97012e-05
38 *313:48 *350:8 5.56615e-05
39 *313:68 *1302:A1 0.000111858
40 *313:70 *1302:A1 8.21884e-05
41 *313:70 *351:10 0.000213741
42 *313:103 *1290:I1 9.78847e-05
43 *313:103 *1306:A1 6.54978e-05
44 *313:103 *1543:I 2.58211e-05
45 *1212:B2 *313:118 2.53159e-05
46 *1302:A2 *313:68 8.55445e-05
47 *1303:B *1395:I 0
48 *1305:A1 *313:103 0.000287
49 *1305:A1 *313:118 7.00332e-05
50 *1305:B *313:48 7.68276e-05
51 *1306:A2 *1421:I 0.000255714
52 *1307:A1 *313:103 0.000206174
53 *1307:B *313:48 5.08937e-06
54 *1441:D *1395:I 0
55 *1457:D *313:68 0
56 *1458:RN *1412:I 7.32209e-05
57 *1458:RN *1413:I 0
58 *1458:RN *313:103 1.81333e-05
59 *1458:RN *313:118 0
60 *1459:D *1421:I 1.11891e-05
61 *1466:RN *1420:I 0.000460427
62 *1467:RN *1421:I 0.000193933
63 *1471:RN *1425:I 8.95196e-05
64 *1522:I *1425:I 0.00011955
65 *148:12 *1412:I 0
66 *148:12 *313:118 7.39334e-05
67 *149:8 *313:103 8.59272e-06
68 *149:23 *1412:I 7.26603e-05
69 *149:23 *313:118 0.000178231
70 *295:87 *313:48 0
71 *306:21 *313:68 9.67239e-06
72 *306:25 *313:68 1.94652e-05
73 *306:29 *313:48 0.000149354
74 *306:29 *313:68 0.000366552
75 *306:35 *313:48 6.33151e-05
76 *306:35 *313:103 0
77 *306:119 *313:68 1.44832e-05
*RES
1 *1526:Z *313:6 9 
2 *313:6 *313:12 1.14 
3 *313:12 *1420:I 12.116 
4 *313:12 *1421:I 12.724 
5 *313:6 *313:40 0.988 
6 *313:40 *313:48 7.312 
7 *313:48 *1424:I 4.5 
8 *313:48 *1411:I 14.488 
9 *313:48 *313:68 9.592 
10 *313:68 *313:70 2.052 
11 *313:70 *1405:I 13.484 
12 *313:70 *1425:I 9.912 
13 *313:68 *1395:I 10.444 
14 *313:40 *313:103 8.68 
15 *313:103 *1412:I 5.868 
16 *313:103 *313:118 7.084 
17 *313:118 *1414:I 9 
18 *313:118 *1413:I 11.584 
*END

*D_NET *314 0.0117121
*CONN
*I *1397:I I *D gf180mcu_fd_sc_mcu7t5v0__clkinv_1
*I *1416:I I *D gf180mcu_fd_sc_mcu7t5v0__clkinv_1
*I *1398:I I *D gf180mcu_fd_sc_mcu7t5v0__clkinv_1
*I *1428:I I *D gf180mcu_fd_sc_mcu7t5v0__clkinv_1
*I *1396:I I *D gf180mcu_fd_sc_mcu7t5v0__clkinv_1
*I *1426:I I *D gf180mcu_fd_sc_mcu7t5v0__clkinv_1
*I *1527:Z O *D gf180mcu_fd_sc_mcu7t5v0__dlyb_1
*CAP
1 *1397:I 0.000539137
2 *1416:I 0
3 *1398:I 0.000644128
4 *1428:I 0.000331609
5 *1396:I 0
6 *1426:I 0.000505344
7 *1527:Z 2.21499e-05
8 *314:51 0.000857705
9 *314:38 0.000912511
10 *314:29 0.000420593
11 *314:25 0.000923208
12 *314:6 0.000858298
13 *1397:I *381:12 0.000553181
14 *1398:I *1298:A1 0.000102021
15 *1398:I *326:12 0.000245117
16 *1426:I *1527:I 0.000202612
17 *1426:I *352:8 3.46377e-05
18 *1428:I *354:10 6.18888e-05
19 *314:6 *1355:A2 0
20 *314:51 *341:25 0
21 *1220:A1 *1397:I 3.00299e-05
22 *1355:A3 *1426:I 4.09047e-05
23 *1358:A3 *314:29 3.42838e-05
24 *1442:D *1426:I 2.22533e-05
25 *1442:D *314:6 7.45328e-07
26 *1442:RN *314:29 2.6126e-05
27 *1443:RN *1397:I 0.000193933
28 *1462:SETN *314:51 0.000725294
29 *1505:I *1398:I 0
30 *1509:I *1426:I 0.000199786
31 *1522:I *1426:I 7.57844e-05
32 *1522:I *314:6 3.00299e-05
33 *165:6 *1397:I 0.000111858
34 *199:86 *1397:I 0.000468562
35 *199:86 *314:25 0.000151728
36 *283:12 *1398:I 3.59375e-05
37 *296:6 *1426:I 2.9378e-06
38 *296:44 *314:29 2.96977e-05
39 *296:51 *314:29 7.43203e-06
40 *296:51 *314:38 0.000520891
41 *296:51 *314:51 1.97747e-05
42 *296:55 *1428:I 0.00149029
43 *296:61 *1428:I 0.000213194
44 *306:119 *314:29 5.14116e-06
45 *306:119 *314:38 0
46 *306:119 *314:51 0
47 *307:8 *314:51 6.13012e-05
*RES
1 *1527:Z *314:6 4.728 
2 *314:6 *1426:I 17.68 
3 *314:6 *314:25 6.704 
4 *314:25 *314:29 5.032 
5 *314:29 *1396:I 4.5 
6 *314:29 *314:38 3.192 
7 *314:38 *1428:I 17.68 
8 *314:38 *314:51 2.204 
9 *314:51 *1398:I 18.136 
10 *314:51 *1416:I 4.5 
11 *314:25 *1397:I 14.472 
*END

*D_NET *315 0.0148856
*CONN
*I *1407:I I *D gf180mcu_fd_sc_mcu7t5v0__clkinv_1
*I *1381:I I *D gf180mcu_fd_sc_mcu7t5v0__clkinv_1
*I *1379:I I *D gf180mcu_fd_sc_mcu7t5v0__clkinv_1
*I *1193:I I *D gf180mcu_fd_sc_mcu7t5v0__clkinv_1
*I *1437:I I *D gf180mcu_fd_sc_mcu7t5v0__clkinv_1
*I *1406:I I *D gf180mcu_fd_sc_mcu7t5v0__clkinv_1
*I *1408:I I *D gf180mcu_fd_sc_mcu7t5v0__clkinv_1
*I *1390:I I *D gf180mcu_fd_sc_mcu7t5v0__clkinv_1
*I *1432:I I *D gf180mcu_fd_sc_mcu7t5v0__clkinv_1
*I *1393:I I *D gf180mcu_fd_sc_mcu7t5v0__clkinv_1
*I *1528:Z O *D gf180mcu_fd_sc_mcu7t5v0__dlyb_1
*CAP
1 *1407:I 0.000245375
2 *1381:I 0
3 *1379:I 0
4 *1193:I 0.0012214
5 *1437:I 0.000651892
6 *1406:I 0
7 *1408:I 0.000372608
8 *1390:I 0
9 *1432:I 2.73418e-05
10 *1393:I 0.000199755
11 *1528:Z 0
12 *315:71 0.00214639
13 *315:69 0.000458966
14 *315:65 0.000712748
15 *315:61 0.00100669
16 *315:45 0.000605327
17 *315:43 0.000862556
18 *315:32 0.00106424
19 *315:21 0.000772169
20 *315:6 0.000275745
21 *1193:I *1325:A1 2.05921e-05
22 *1193:I *1332:A1 1.15312e-05
23 *1193:I *1333:A2 2.62176e-05
24 *1193:I *1334:A1 5.61794e-05
25 *1193:I *1336:A1 0
26 *1193:I *1337:A2 4.71484e-05
27 *1193:I *1388:I 0
28 *1193:I *316:51 0.000131642
29 *1193:I *316:62 0.000156311
30 *1408:I *352:60 2.22533e-05
31 *1437:I *1253:A1 0
32 *1437:I *347:10 0
33 *315:43 *1183:I 4.18875e-05
34 *315:45 *352:60 3.52702e-05
35 *315:61 *1300:A1 2.38501e-05
36 *315:65 *1198:A1 0
37 *315:65 *376:6 0
38 *315:69 *1198:A2 0
39 *315:69 *1328:A1 0
40 *315:69 *374:27 0
41 *315:71 *1332:A1 0
42 *315:71 *374:27 0
43 *1255:A1 *1437:I 0
44 *1268:A2 *315:32 2.59502e-05
45 *1268:A2 *315:43 7.95952e-05
46 *1325:A2 *1193:I 0
47 *1329:A3 *315:69 0
48 *1332:A2 *1193:I 7.36325e-05
49 *1333:A1 *1193:I 3.19119e-05
50 *1333:A1 *1437:I 0.000105471
51 *1333:A1 *315:71 6.03906e-05
52 *1337:A4 *1193:I 0
53 *1339:A2 *1432:I 0.000441055
54 *1452:RN *1408:I 0.000105022
55 *1453:D *315:43 0.000914232
56 *1453:D *315:45 1.3758e-05
57 *1453:D *315:61 6.68265e-05
58 *1453:RN *1407:I 0.000233829
59 *1454:D *1408:I 0
60 *1478:SETN *1432:I 0.000379274
61 *1489:RN *315:71 0.000168743
62 *1491:D *1193:I 8.20483e-05
63 *1491:RN *315:65 0.000448201
64 *1500:CLK *1432:I 0
65 *1545:I *315:32 0
66 *292:66 *1407:I 1.43366e-05
67 *292:66 *315:65 0
68 *297:18 *1393:I 0
69 *302:16 *1193:I 0
70 *302:23 *1193:I 0
71 *302:43 *1193:I 0.000445196
*RES
1 *1528:Z *315:6 9 
2 *315:6 *1393:I 10.444 
3 *315:6 *315:21 0.38 
4 *315:21 *1432:I 10.14 
5 *315:21 *315:32 3.572 
6 *315:32 *1390:I 9 
7 *315:32 *315:43 8.68 
8 *315:43 *315:45 1.444 
9 *315:45 *1408:I 6.932 
10 *315:45 *1406:I 4.5 
11 *315:43 *315:61 1.596 
12 *315:61 *315:65 3.8 
13 *315:65 *315:69 5.792 
14 *315:69 *315:71 2.508 
15 *315:71 *1437:I 12.572 
16 *315:71 *1193:I 18.424 
17 *315:69 *1379:I 9 
18 *315:65 *1381:I 4.5 
19 *315:61 *1407:I 6.78 
*END

*D_NET *316 0.0165799
*CONN
*I *1440:I I *D gf180mcu_fd_sc_mcu7t5v0__clkinv_1
*I *1380:I I *D gf180mcu_fd_sc_mcu7t5v0__clkinv_1
*I *1388:I I *D gf180mcu_fd_sc_mcu7t5v0__clkinv_1
*I *1378:I I *D gf180mcu_fd_sc_mcu7t5v0__clkinv_1
*I *1434:I I *D gf180mcu_fd_sc_mcu7t5v0__clkinv_1
*I *1435:I I *D gf180mcu_fd_sc_mcu7t5v0__clkinv_1
*I *1436:I I *D gf180mcu_fd_sc_mcu7t5v0__clkinv_1
*I *1529:Z O *D gf180mcu_fd_sc_mcu7t5v0__dlyb_1
*CAP
1 *1440:I 0.000306413
2 *1380:I 0.000141039
3 *1388:I 0.000781732
4 *1378:I 0
5 *1434:I 0.000284612
6 *1435:I 0
7 *1436:I 0.000111765
8 *1529:Z 0
9 *316:73 0.000644434
10 *316:62 0.00113223
11 *316:51 0.0005639
12 *316:27 0.000838443
13 *316:10 0.000892185
14 *316:6 0.000636978
15 *1380:I *1202:A2 2.2086e-05
16 *1380:I *372:36 0.000181447
17 *1388:I *1336:A1 0.000369754
18 *1388:I *372:10 2.73912e-05
19 *1434:I *1544:I 5.87561e-06
20 *1434:I *344:25 5.23685e-05
21 *1436:I *1251:A3 0.00087597
22 *1440:I *1202:A1 0.000336522
23 *1440:I *325:27 0.000433247
24 *1440:I *372:36 0
25 *316:10 *346:14 5.58075e-05
26 *316:27 *1251:A3 6.20834e-05
27 *316:27 *344:25 0.00042942
28 *316:51 *325:55 1.02578e-05
29 *316:62 *1336:A1 1.46098e-05
30 *316:62 *325:29 0.00021548
31 *316:62 *325:31 0.000145096
32 *316:62 *325:55 0.000231978
33 *316:73 *1336:A1 8.0338e-05
34 *316:73 *325:27 0.000825578
35 *316:73 *325:29 0.00100952
36 *316:73 *372:23 5.25777e-05
37 *316:73 *372:36 0.000204742
38 *1193:I *1388:I 0
39 *1193:I *316:51 0.000131642
40 *1193:I *316:62 0.000156311
41 *1229:A1 *1388:I 0
42 *1337:A4 *1388:I 0
43 *1480:D *1388:I 2.05953e-05
44 *1481:RN *316:27 0.000548985
45 *1482:RN *1436:I 0.000924956
46 *1482:RN *316:27 0.000441063
47 *1483:RN *1436:I 0
48 *1487:RN *1388:I 0.000557478
49 *1488:RN *316:51 7.195e-05
50 *1498:RN *1388:I 0.00020108
51 *1498:CLK *1434:I 0
52 *1539:I *1434:I 2.17248e-05
53 *1539:I *316:27 4.78437e-05
54 *27:10 *1388:I 5.14116e-06
55 *201:14 *1388:I 0
56 *259:10 *1388:I 7.57844e-05
57 *259:10 *316:62 2.13506e-05
58 *298:55 *1436:I 2.39036e-05
59 *302:16 *316:51 0.000587475
60 *302:43 *316:51 7.83779e-05
61 *303:18 *1434:I 0
62 *303:18 *316:10 0.000191889
63 *303:18 *316:27 4.66599e-05
64 *303:18 *316:51 0.000449842
*RES
1 *1529:Z *316:6 9 
2 *316:6 *316:10 5.792 
3 *316:10 *1436:I 7.464 
4 *316:10 *316:27 5.852 
5 *316:27 *1435:I 4.5 
6 *316:27 *1434:I 6.4 
7 *316:6 *316:51 8.528 
8 *316:51 *1378:I 4.5 
9 *316:51 *316:62 6.78 
10 *316:62 *1388:I 15.156 
11 *316:62 *316:73 4.484 
12 *316:73 *1380:I 10.14 
13 *316:73 *1440:I 12.04 
*END

*D_NET *317 0.0269464
*CONN
*I *1399:I I *D gf180mcu_fd_sc_mcu7t5v0__clkinv_1
*I *1401:I I *D gf180mcu_fd_sc_mcu7t5v0__clkinv_1
*I *1400:I I *D gf180mcu_fd_sc_mcu7t5v0__clkinv_1
*I *1389:I I *D gf180mcu_fd_sc_mcu7t5v0__clkinv_1
*I *1418:I I *D gf180mcu_fd_sc_mcu7t5v0__clkinv_1
*I *1410:I I *D gf180mcu_fd_sc_mcu7t5v0__clkinv_1
*I *1415:I I *D gf180mcu_fd_sc_mcu7t5v0__clkinv_1
*I *1409:I I *D gf180mcu_fd_sc_mcu7t5v0__clkinv_1
*I *1417:I I *D gf180mcu_fd_sc_mcu7t5v0__clkinv_1
*I *1429:I I *D gf180mcu_fd_sc_mcu7t5v0__clkinv_1
*I *1530:Z O *D gf180mcu_fd_sc_mcu7t5v0__dlyb_1
*CAP
1 *1399:I 0.000417567
2 *1401:I 0.000514057
3 *1400:I 6.91643e-05
4 *1389:I 0.00126622
5 *1418:I 2.97199e-05
6 *1410:I 0.000334486
7 *1415:I 0
8 *1409:I 0.000841503
9 *1417:I 3.83285e-05
10 *1429:I 0.000443194
11 *1530:Z 0
12 *317:98 0.00155688
13 *317:96 0.00128313
14 *317:90 0.00157692
15 *317:66 0.00138664
16 *317:53 0.000492806
17 *317:40 0.00100151
18 *317:27 0.000410316
19 *317:4 0.00073733
20 *1389:I *1190:I 0.000251569
21 *1389:I *1228:A3 2.2499e-05
22 *1389:I *370:8 0.000322805
23 *1389:I *370:12 8.74341e-05
24 *1399:I *383:8 3.65656e-05
25 *1399:I *385:45 0.000148889
26 *1399:I *386:10 0.000148889
27 *1401:I *1373:A1 0
28 *1401:I *385:8 0
29 *1401:I *385:27 2.05156e-05
30 *1409:I *1296:A1 0
31 *1409:I *334:8 0.000121891
32 *1410:I *1530:I 4.02575e-05
33 *1410:I *318:56 0
34 *1429:I *1167:I 0
35 *1429:I *1321:A1 0
36 *317:27 *1530:I 0.000424388
37 *317:40 *1530:I 0.000433917
38 *317:53 *1530:I 0.000401621
39 *317:66 *1530:I 0.00181686
40 *317:90 *1530:I 7.48754e-05
41 *317:90 *383:8 3.50638e-06
42 *317:90 *383:14 2.05399e-05
43 *317:96 *1366:A1 0.000255714
44 *317:96 *1369:A1 2.79476e-05
45 *317:96 *326:80 0.00010691
46 *317:96 *326:95 1.23313e-05
47 *317:96 *384:8 0.00150138
48 *317:96 *384:14 0.00011543
49 *317:96 *384:49 0.000466835
50 *317:96 *385:27 5.56879e-05
51 *317:98 *1370:A1 0.000180669
52 *317:98 *1373:A1 0
53 *1264:A3 *1429:I 7.98466e-05
54 *1294:A2 *317:66 0.000920154
55 *1297:A1 *1409:I 0
56 *1297:A1 *1417:I 0.000142809
57 *1297:A1 *317:27 3.2964e-05
58 *1297:B *1409:I 0
59 *1299:A2 *1429:I 0
60 *1301:A1 *1409:I 0
61 *1367:A2 *317:90 0.000523943
62 *1368:A2 *1418:I 3.42287e-06
63 *1368:A2 *317:90 2.6126e-05
64 *1373:A2 *317:96 0.000325232
65 *1375:A2 *1399:I 0
66 *1445:RN *1399:I 0
67 *1445:CLK *317:66 9.026e-05
68 *1445:CLK *317:90 4.52293e-05
69 *1446:RN *317:96 3.15258e-05
70 *1446:RN *317:98 0.000632239
71 *1447:RN *1401:I 0.000441055
72 *1461:RN *317:66 0.00020108
73 *1464:SETN *317:66 1.83977e-05
74 *1499:RN *1389:I 7.32209e-05
75 *1505:I *1429:I 0.000151758
76 *1505:I *317:27 0
77 *141:8 *1429:I 0.000268273
78 *199:76 *317:66 2.68964e-05
79 *199:76 *317:90 5.19077e-05
80 *201:8 *1389:I 0.000705383
81 *283:35 *317:96 1.3758e-05
82 *285:27 *317:96 0.00166681
83 *300:31 *1389:I 0
84 *306:119 *1429:I 0.000666414
85 *306:119 *317:40 6.25174e-05
86 *306:119 *317:53 6.25174e-05
87 *306:119 *317:66 0.000107743
88 *307:26 *317:27 7.52043e-05
89 *307:32 *1409:I 0
90 *307:32 *317:27 0
*RES
1 *1530:Z *317:4 4.5 
2 *317:4 *1429:I 17.68 
3 *317:4 *317:27 11.432 
4 *317:27 *1417:I 13.88 
5 *317:27 *317:40 1.14 
6 *317:40 *1409:I 18.592 
7 *317:40 *317:53 1.14 
8 *317:53 *1415:I 4.5 
9 *317:53 *317:66 6.992 
10 *317:66 *1410:I 15.704 
11 *317:66 *1418:I 4.728 
12 *317:66 *317:90 8.756 
13 *317:90 *317:96 18.348 
14 *317:96 *317:98 2.508 
15 *317:98 *1389:I 18.88 
16 *317:98 *1400:I 9.38 
17 *317:96 *1401:I 12.952 
18 *317:90 *1399:I 12.42 
*END

*D_NET *318 0.0282707
*CONN
*I *1438:I I *D gf180mcu_fd_sc_mcu7t5v0__clkinv_1
*I *1402:I I *D gf180mcu_fd_sc_mcu7t5v0__clkinv_1
*I *1439:I I *D gf180mcu_fd_sc_mcu7t5v0__clkinv_1
*I *1404:I I *D gf180mcu_fd_sc_mcu7t5v0__clkinv_1
*I *1530:I I *D gf180mcu_fd_sc_mcu7t5v0__dlyb_1
*I *1529:I I *D gf180mcu_fd_sc_mcu7t5v0__dlyb_1
*I *1528:I I *D gf180mcu_fd_sc_mcu7t5v0__dlyb_1
*I *1531:Z O *D gf180mcu_fd_sc_mcu7t5v0__dlyb_1
*CAP
1 *1438:I 0
2 *1402:I 0.00095582
3 *1439:I 0.000771742
4 *1404:I 0
5 *1530:I 0.00106722
6 *1529:I 0.000604696
7 *1528:I 0.000258225
8 *1531:Z 0
9 *318:94 0.00202972
10 *318:87 0.000396914
11 *318:56 0.00301285
12 *318:31 0.00361417
13 *318:4 0.00141683
14 *1402:I *1368:A1 8.83756e-05
15 *1402:I *1375:A1 3.56172e-05
16 *1402:I *325:23 0
17 *1402:I *326:95 0
18 *1402:I *386:10 3.45861e-05
19 *1439:I *1371:A1 0.00107114
20 *1528:I *360:8 0.000147126
21 *1529:I *1251:A1 3.00299e-05
22 *1529:I *1251:A2 3.16765e-06
23 *1529:I *1251:A3 0.000524214
24 *1529:I *346:14 2.98504e-05
25 *1530:I *1171:I 0
26 *1530:I *1224:A4 0
27 *1530:I *329:12 2.56734e-05
28 *1530:I *341:25 2.84711e-05
29 *318:31 *1333:A2 1.54235e-05
30 *318:31 *347:10 9.50875e-05
31 *318:31 *360:8 3.55889e-05
32 *318:56 *1194:A2 0.000316809
33 *318:56 *1330:A1 5.14313e-05
34 *318:56 *329:12 0.000832713
35 *318:56 *373:36 1.20889e-05
36 *318:56 *374:44 0.000196982
37 *318:56 *375:10 0.000177496
38 *318:94 *1368:A1 0
39 *318:94 *329:12 4.71447e-05
40 *1203:B2 *318:56 0.000105476
41 *1205:C2 *318:56 7.39288e-05
42 *1206:A2 *318:56 0.000546323
43 *1206:A4 *318:56 0.000141148
44 *1322:B *318:56 0.000335637
45 *1325:A2 *318:31 2.9965e-05
46 *1332:A2 *318:31 0
47 *1333:A1 *318:31 7.17003e-05
48 *1333:A3 *318:31 4.02499e-05
49 *1339:A2 *1528:I 0
50 *1339:A2 *318:31 0
51 *1368:A3 *1402:I 5.97259e-05
52 *1371:A3 *1439:I 1.1971e-05
53 *1372:A3 *1402:I 1.78155e-05
54 *1375:A2 *1402:I 0.000160608
55 *1410:I *1530:I 4.02575e-05
56 *1410:I *318:56 0
57 *1445:D *1530:I 7.02696e-05
58 *1445:CLK *1530:I 5.18727e-05
59 *1445:CLK *318:87 4.33819e-05
60 *1445:CLK *318:94 2.22758e-05
61 *1446:D *1439:I 6.66648e-05
62 *1446:CLK *1439:I 0.000386421
63 *1448:RN *1402:I 0.00020108
64 *1450:RN *318:94 0.00020108
65 *1461:RN *1530:I 0.00020108
66 *1463:RN *1530:I 8.95196e-05
67 *1464:SETN *1530:I 0.000691376
68 *1484:RN *1439:I 0.000132001
69 *1485:RN *1439:I 0.000432315
70 *1489:D *318:31 0.000299347
71 *1489:CLK *318:31 0.000107151
72 *1500:CLK *1528:I 0.000787065
73 *1513:I *318:56 0
74 *1517:I *1529:I 0.000154451
75 *199:76 *1530:I 0.000568975
76 *285:23 *1402:I 1.86291e-05
77 *292:72 *318:56 0.000343819
78 *298:8 *1529:I 1.56971e-05
79 *298:8 *318:56 5.07443e-05
80 *298:10 *1529:I 2.4337e-05
81 *298:55 *318:31 1.85449e-05
82 *303:18 *1529:I 0
83 *303:27 *318:31 6.85645e-06
84 *303:40 *318:56 0.000550942
85 *307:26 *1530:I 2.11326e-05
86 *317:27 *1530:I 0.000424388
87 *317:40 *1530:I 0.000433917
88 *317:53 *1530:I 0.000401621
89 *317:66 *1530:I 0.00181686
90 *317:90 *1530:I 7.48754e-05
*RES
1 *1531:Z *318:4 4.5 
2 *318:4 *1528:I 7.312 
3 *318:4 *318:31 12.632 
4 *318:31 *1529:I 12.876 
5 *318:31 *318:56 21.752 
6 *318:56 *1530:I 36.028 
7 *318:56 *318:87 0.532 
8 *318:87 *1404:I 4.5 
9 *318:87 *318:94 2.204 
10 *318:94 *1439:I 11.948 
11 *318:94 *1402:I 20.492 
12 *318:94 *1438:I 4.5 
*END

*D_NET *319 0.0287363
*CONN
*I *1527:I I *D gf180mcu_fd_sc_mcu7t5v0__dlyb_1
*I *1526:I I *D gf180mcu_fd_sc_mcu7t5v0__dlyb_1
*I *1524:I I *D gf180mcu_fd_sc_mcu7t5v0__dlyb_1
*I *1531:I I *D gf180mcu_fd_sc_mcu7t5v0__dlyb_1
*I *1525:I I *D gf180mcu_fd_sc_mcu7t5v0__dlyb_1
*I *1532:Z O *D gf180mcu_fd_sc_mcu7t5v0__dlyb_1
*CAP
1 *1527:I 0.00116655
2 *1526:I 0
3 *1524:I 0
4 *1531:I 0.000771921
5 *1525:I 0
6 *1532:Z 0.00156942
7 *319:62 0.00261347
8 *319:30 0.00202351
9 *319:6 0.0013741
10 *1531:I *358:43 0.000740059
11 *319:30 *1338:A1 2.14834e-05
12 *319:30 *327:16 0
13 *319:30 *358:12 0.000591443
14 *319:30 *358:43 0.000111867
15 *319:30 *366:35 0
16 *319:62 *1291:I1 0.000301006
17 *319:62 *1292:I1 0.000235565
18 *319:62 *357:10 2.15998e-06
19 *319:62 *367:8 0
20 *319:62 *367:23 0
21 *1237:A2 *319:30 0.000433917
22 *1250:A1 *1531:I 5.59566e-06
23 *1261:A2 *1531:I 2.71577e-05
24 *1264:A3 *1527:I 7.71175e-06
25 *1266:A2 *319:30 1.49066e-06
26 *1267:B *319:30 0
27 *1270:A2 *319:30 0.00170955
28 *1275:A1 *319:62 0.000439026
29 *1290:S *1527:I 7.50331e-05
30 *1290:S *319:62 3.42838e-05
31 *1291:S *319:62 0
32 *1338:A2 *319:30 0.000633328
33 *1339:A1 *1531:I 0.00206984
34 *1339:A1 *319:30 0.00028423
35 *1339:A2 *1531:I 0.000734664
36 *1341:A1 *319:30 1.84551e-05
37 *1394:I *319:30 0.000300779
38 *1420:I *319:62 0.000712243
39 *1426:I *1527:I 0.000202612
40 *1465:D *319:62 0.000533719
41 *1465:CLK *319:62 1.19401e-05
42 *1466:D *319:62 0.000173033
43 *1467:D *1527:I 9.92775e-05
44 *1467:D *319:62 0.000143734
45 *1467:CLK *1527:I 0
46 *1477:CLK *319:62 5.91499e-05
47 *1479:RN *319:30 0.000170855
48 *1493:RN *319:6 0.000431526
49 *1493:RN *319:30 0
50 *1493:RN *319:62 9.26705e-05
51 *1497:D *319:30 0.000203304
52 *1503:SETN *1531:I 0.00013054
53 *1508:I *1527:I 5.87953e-05
54 *1509:I *1527:I 0.000651321
55 *1522:I *1527:I 0.00338835
56 *139:10 *319:62 0.000201997
57 *206:6 *319:30 0.000148799
58 *207:10 *319:30 0.000435944
59 *211:10 *319:30 0
60 *217:12 *319:30 0.000201535
61 *218:12 *1531:I 1.2339e-05
62 *220:10 *1531:I 0.000127707
63 *244:12 *1527:I 0.000636086
64 *268:14 *319:30 2.19987e-05
65 *269:32 *319:30 0.000160263
66 *269:34 *319:30 0
67 *293:24 *319:62 0.000227337
68 *293:26 *319:62 1.4683e-05
69 *293:30 *319:30 0.000609606
70 *293:30 *319:62 4.52788e-06
71 *310:10 *319:6 0
72 *310:32 *319:6 0
73 *310:32 *319:30 0.000303951
74 *310:36 *319:30 2.20526e-06
75 *310:53 *319:62 3.4631e-05
76 *310:66 *319:62 0.000231973
*RES
1 *1532:Z *319:6 5.64 
2 *319:6 *319:30 25.416 
3 *319:30 *1525:I 4.5 
4 *319:30 *1531:I 15.216 
5 *319:6 *1524:I 4.5 
6 *1532:Z *319:62 29.08 
7 *319:62 *1526:I 4.5 
8 *319:62 *1527:I 18.94 
*END

*D_NET *320 0.000927995
*CONN
*I *1504:D I *D gf180mcu_fd_sc_mcu7t5v0__dffsnq_1
*I *1537:Z O *D gf180mcu_fd_sc_mcu7t5v0__dlyb_1
*CAP
1 *1504:D 0.00022337
2 *1537:Z 0.00022337
3 *1504:D *1184:I 2.62033e-05
4 *1272:A2 *1504:D 7.57767e-05
5 *211:16 *1504:D 0.000379274
*RES
1 *1537:Z *1504:D 19.976 
*END

*D_NET *321 0.00203114
*CONN
*I *1292:I1 I *D gf180mcu_fd_sc_mcu7t5v0__mux2_2
*I *1541:I I *D gf180mcu_fd_sc_mcu7t5v0__dlyb_1
*I *1465:Q O *D gf180mcu_fd_sc_mcu7t5v0__dffrnq_1
*CAP
1 *1292:I1 0.000328429
2 *1541:I 0.000407772
3 *1465:Q 0
4 *321:4 0.000736202
5 *1292:I1 *1292:I0 1.76797e-05
6 cap_ctrl[0] *1541:I 0.000180157
7 *1275:A2 *1541:I 0
8 *1292:S *1292:I1 2.6126e-05
9 *1419:I *1292:I1 7.59633e-05
10 *1419:I *1541:I 1.33594e-05
11 *1477:D *1292:I1 0
12 *1477:CLK *1292:I1 9.88736e-06
13 *319:62 *1292:I1 0.000235565
*RES
1 *1465:Q *321:4 4.5 
2 *321:4 *1541:I 7.388 
3 *321:4 *1292:I1 16.236 
*END

*D_NET *322 0.00239958
*CONN
*I *1291:I1 I *D gf180mcu_fd_sc_mcu7t5v0__mux2_2
*I *1542:I I *D gf180mcu_fd_sc_mcu7t5v0__dlyb_1
*I *1466:Q O *D gf180mcu_fd_sc_mcu7t5v0__dffrnq_1
*CAP
1 *1291:I1 0.00042468
2 *1542:I 0.000254978
3 *1466:Q 0
4 *322:4 0.000679657
5 *1291:I1 *1290:I1 0
6 *1291:I1 *1306:A1 4.92886e-05
7 *1291:I1 *349:33 0
8 cap_ctrl[1] *1542:I 0
9 *1290:S *1291:I1 0.000585196
10 *1291:S *1291:I1 4.02664e-05
11 *1420:I *1291:I1 5.87908e-05
12 *1466:RN *1291:I1 0
13 *1466:RN *1542:I 0
14 *1467:D *1291:I1 5.71919e-06
15 *319:62 *1291:I1 0.000301006
*RES
1 *1466:Q *322:4 4.5 
2 *322:4 *1542:I 6.096 
3 *322:4 *1291:I1 17.756 
*END

*D_NET *323 0.00636597
*CONN
*I *1543:I I *D gf180mcu_fd_sc_mcu7t5v0__dlyb_1
*I *1290:I1 I *D gf180mcu_fd_sc_mcu7t5v0__mux2_2
*I *1467:Q O *D gf180mcu_fd_sc_mcu7t5v0__dffrnq_1
*CAP
1 *1543:I 0.000724537
2 *1290:I1 0.00066994
3 *1467:Q 0
4 *323:6 0.00139448
5 *1290:I1 *1306:A1 0
6 *1290:I1 *350:8 0.000139169
7 *1290:I1 *350:10 0.000145551
8 *1290:I1 *350:14 0.000143376
9 *1543:I *1174:I 3.19219e-05
10 *1543:I *1175:I 0.000539951
11 *1543:I *338:10 0.000144018
12 *1290:S *1290:I1 0
13 *1291:I1 *1290:I1 0
14 *1307:A1 *1543:I 0.000636357
15 *1421:I *1290:I1 0.000732971
16 *1458:RN *1543:I 1.12495e-05
17 *1459:D *1290:I1 8.84331e-05
18 *1459:D *1543:I 0.000419518
19 *1459:RN *1543:I 8.95196e-05
20 *1470:RN *1290:I1 0
21 *149:8 *1543:I 0.000118153
22 *244:12 *1290:I1 9.52854e-05
23 *313:40 *1290:I1 6.71936e-05
24 *313:48 *1290:I1 5.06471e-05
25 *313:103 *1290:I1 9.78847e-05
26 *313:103 *1543:I 2.58211e-05
*RES
1 *1467:Q *323:6 9 
2 *323:6 *1290:I1 24.004 
3 *323:6 *1543:I 16.6 
*END

*D_NET *324 0.00219504
*CONN
*I *1544:I I *D gf180mcu_fd_sc_mcu7t5v0__dlyb_1
*I *1377:Z O *D gf180mcu_fd_sc_mcu7t5v0__mux2_2
*CAP
1 *1544:I 0.000966552
2 *1377:Z 0.000966552
3 *1544:I *1261:A1 9.98921e-06
4 *1544:I *344:12 5.9202e-05
5 *1544:I *344:25 0.000164236
6 *1544:I *345:10 0
7 *1262:A1 *1544:I 0
8 *1262:A2 *1544:I 2.57058e-06
9 *1434:I *1544:I 5.87561e-06
10 *1480:D *1544:I 0
11 *1481:RN *1544:I 2.00674e-05
12 *1539:I *1544:I 0
*RES
1 *1377:Z *1544:I 23.548 
*END

*D_NET *325 0.0208789
*CONN
*I *1371:A1 I *D gf180mcu_fd_sc_mcu7t5v0__nor3_1
*I *1233:A2 I *D gf180mcu_fd_sc_mcu7t5v0__nor3_1
*I *1235:A2 I *D gf180mcu_fd_sc_mcu7t5v0__nor3_1
*I *1231:A2 I *D gf180mcu_fd_sc_mcu7t5v0__nor4_1
*I *1331:A2 I *D gf180mcu_fd_sc_mcu7t5v0__nor3_1
*I *1329:A2 I *D gf180mcu_fd_sc_mcu7t5v0__nor3_1
*I *1333:A2 I *D gf180mcu_fd_sc_mcu7t5v0__nor3_1
*I *1337:A2 I *D gf180mcu_fd_sc_mcu7t5v0__nor4_1
*I *1335:A2 I *D gf180mcu_fd_sc_mcu7t5v0__nor3_1
*I *1368:A1 I *D gf180mcu_fd_sc_mcu7t5v0__nor4_1
*I *1533:Z O *D gf180mcu_fd_sc_mcu7t5v0__dlyb_1
*CAP
1 *1371:A1 0.000105576
2 *1233:A2 6.1902e-05
3 *1235:A2 0.000182491
4 *1231:A2 0.00026728
5 *1331:A2 0
6 *1329:A2 0
7 *1333:A2 0.000600973
8 *1337:A2 8.15831e-05
9 *1335:A2 0.000240978
10 *1368:A1 0.000299644
11 *1533:Z 0
12 *325:97 0.000244393
13 *325:61 0.00107397
14 *325:55 0.000623739
15 *325:31 0.000555764
16 *325:29 0.000599864
17 *325:27 0.00108891
18 *325:25 0.00103561
19 *325:23 0.00113174
20 *325:4 0.000895904
21 *1231:A2 *372:10 0
22 *1235:A2 *370:16 0
23 *1333:A2 *1332:A1 0.000254363
24 *1368:A1 *329:12 0.000171927
25 *325:23 *326:95 1.91917e-06
26 *325:55 *1330:A1 0
27 *325:61 *1198:A2 0
28 *325:61 *1330:A1 0
29 *325:61 *373:12 0
30 *1193:I *1333:A2 2.62176e-05
31 *1193:I *1337:A2 4.71484e-05
32 *1231:A1 *1231:A2 0.00037608
33 *1231:A1 *325:27 9.34825e-05
34 *1233:A1 *1233:A2 9.72062e-05
35 *1233:A1 *1235:A2 4.68435e-05
36 *1235:A1 *1235:A2 0.000214849
37 *1235:A1 *325:27 5.52776e-05
38 *1235:A3 *1235:A2 1.15312e-05
39 *1324:A2 *1231:A2 0
40 *1324:A3 *1231:A2 1.0115e-05
41 *1327:A4 *325:61 2.64786e-05
42 *1331:A3 *325:55 0.000255722
43 *1331:A3 *325:61 2.6126e-05
44 *1332:A2 *1333:A2 2.22657e-05
45 *1333:A1 *1333:A2 1.76665e-05
46 *1333:A1 *325:61 9.88736e-06
47 *1333:A3 *1333:A2 0.000638254
48 *1368:A2 *1368:A1 9.88736e-06
49 *1368:A3 *1368:A1 0.000304954
50 *1402:I *1368:A1 8.83756e-05
51 *1402:I *325:23 0
52 *1439:I *1371:A1 0.00107114
53 *1440:I *325:27 0.000433247
54 *1445:D *1368:A1 0.000317503
55 *1445:CLK *1368:A1 6.63909e-05
56 *1446:D *1371:A1 0.000106772
57 *1448:D *325:23 0.000179609
58 *1448:CLK *325:23 9.026e-05
59 *1484:D *1233:A2 0.000196414
60 *1484:D *1235:A2 0.000236152
61 *1484:RN *1371:A1 0.000734813
62 *1488:D *1335:A2 3.62081e-05
63 *1488:RN *325:55 0.000167816
64 *1488:RN *325:61 0.000454295
65 *1490:D *325:61 0.000154451
66 *1490:CLK *325:61 0.000170582
67 *1491:D *1333:A2 0
68 *1491:CLK *1333:A2 5.76373e-06
69 *1519:I *325:27 0.000394617
70 *1539:I *1335:A2 0
71 *1539:I *325:31 0
72 *179:18 *325:27 0.000138789
73 *179:38 *325:27 0.000264665
74 *199:53 *1368:A1 1.34535e-05
75 *199:53 *325:23 0
76 *259:10 *325:31 0
77 *298:64 *1335:A2 0
78 *300:8 *325:25 0.000269857
79 *300:8 *325:27 0.000365142
80 *302:16 *1335:A2 1.5015e-05
81 *302:23 *1335:A2 0.000186933
82 *302:23 *1337:A2 0.000141897
83 *302:43 *325:61 0.000316833
84 *316:51 *325:55 1.02578e-05
85 *316:62 *325:29 0.00021548
86 *316:62 *325:31 0.000145096
87 *316:62 *325:55 0.000231978
88 *316:73 *325:27 0.000825578
89 *316:73 *325:29 0.00100952
90 *318:31 *1333:A2 1.54235e-05
91 *318:94 *1368:A1 0
*RES
1 *1533:Z *325:4 4.5 
2 *325:4 *1368:A1 16.996 
3 *325:4 *325:23 8.756 
4 *325:23 *325:25 3.268 
5 *325:25 *325:27 7.524 
6 *325:27 *325:29 2.964 
7 *325:29 *325:31 1.596 
8 *325:31 *1335:A2 10.824 
9 *325:31 *1337:A2 9.836 
10 *325:29 *325:55 6.4 
11 *325:55 *325:61 4.636 
12 *325:61 *1333:A2 18.44 
13 *325:61 *1329:A2 4.5 
14 *325:55 *1331:A2 4.5 
15 *325:27 *1231:A2 11.204 
16 *325:25 *325:97 4.5 
17 *325:97 *1235:A2 6.248 
18 *325:97 *1233:A2 5.336 
19 *325:23 *1371:A1 11.964 
*END

*D_NET *326 0.0183845
*CONN
*I *1376:A1 I *D gf180mcu_fd_sc_mcu7t5v0__nor3_1
*I *1374:A1 I *D gf180mcu_fd_sc_mcu7t5v0__nor3_1
*I *1533:I I *D gf180mcu_fd_sc_mcu7t5v0__dlyb_1
*I *1365:A1 I *D gf180mcu_fd_sc_mcu7t5v0__nor4_1
*I *1362:A1 I *D gf180mcu_fd_sc_mcu7t5v0__nor3_1
*I *1358:A1 I *D gf180mcu_fd_sc_mcu7t5v0__nor3_1
*I *1355:A2 I *D gf180mcu_fd_sc_mcu7t5v0__nor3_1
*I *1534:Z O *D gf180mcu_fd_sc_mcu7t5v0__dlyb_1
*CAP
1 *1376:A1 0
2 *1374:A1 0.000211366
3 *1533:I 0
4 *1365:A1 0
5 *1362:A1 0
6 *1358:A1 0
7 *1355:A2 9.95213e-05
8 *1534:Z 0
9 *326:95 0.000678642
10 *326:80 0.00082666
11 *326:78 0.00137997
12 *326:22 0.000718533
13 *326:14 0.00101921
14 *326:12 0.000615811
15 *326:4 0.0012362
16 *1355:A2 *1355:A1 0.000458149
17 *326:14 *341:10 0.000106811
18 *326:14 *341:25 2.11395e-05
19 *326:80 *1366:A1 6.68164e-05
20 *326:80 *383:14 0
21 *326:80 *383:20 0
22 *1219:A2 *326:78 0.00019777
23 *1220:A2 *326:12 3.94662e-05
24 *1220:A2 *326:78 7.789e-05
25 *1225:A1 *326:78 0.000148104
26 *1225:A2 *326:78 0.00108154
27 *1355:A3 *1355:A2 0.000578327
28 *1365:A3 *326:12 3.15412e-05
29 *1370:A2 *1374:A1 7.45328e-07
30 *1376:A3 *326:95 2.43212e-05
31 *1398:I *326:12 0.000245117
32 *1402:I *326:95 0
33 *1442:D *1355:A2 0.000718139
34 *1444:D *326:14 7.57767e-05
35 *1444:CLK *326:14 0
36 *1447:CLK *1374:A1 0
37 *1447:CLK *326:95 0
38 *1448:CLK *326:95 0
39 *1505:I *326:12 3.59404e-05
40 *1522:I *1355:A2 0
41 *1522:I *326:22 0
42 *1534:I *326:78 9.26705e-05
43 *144:25 *326:78 6.96334e-06
44 *199:47 *1374:A1 0.000765695
45 *199:47 *326:95 2.93945e-05
46 *199:53 *326:95 0.000134922
47 *199:78 *326:12 2.40654e-06
48 *199:78 *326:14 0.000727975
49 *199:86 *326:14 9.88736e-06
50 *199:86 *326:22 0
51 *283:12 *326:12 1.85245e-05
52 *283:35 *326:12 8.55327e-05
53 *283:35 *326:78 0.00242085
54 *283:35 *326:80 0.000910617
55 *285:10 *326:80 0.000670651
56 *285:10 *326:95 5.4634e-05
57 *285:27 *326:95 0.000235145
58 *296:19 *1355:A2 0
59 *296:51 *326:14 0
60 *306:119 *1355:A2 0.000839326
61 *306:119 *326:22 0.000564615
62 *314:6 *1355:A2 0
63 *317:96 *326:80 0.00010691
64 *317:96 *326:95 1.23313e-05
65 *325:23 *326:95 1.91917e-06
*RES
1 *1534:Z *326:4 4.5 
2 *326:4 *326:12 11.128 
3 *326:12 *326:14 4.18 
4 *326:14 *326:22 13.56 
5 *326:22 *1355:A2 17.148 
6 *326:22 *1358:A1 4.5 
7 *326:14 *1362:A1 4.5 
8 *326:12 *1365:A1 4.5 
9 *326:4 *326:78 46.64 
10 *326:78 *326:80 4.332 
11 *326:80 *1533:I 4.5 
12 *326:80 *326:95 12.8 
13 *326:95 *1374:A1 6.704 
14 *326:95 *1376:A1 4.5 
*END

*D_NET *327 0.00768638
*CONN
*I *1237:A1 I *D gf180mcu_fd_sc_mcu7t5v0__nor3_1
*I *1238:A1 I *D gf180mcu_fd_sc_mcu7t5v0__or3_1
*I *1338:A1 I *D gf180mcu_fd_sc_mcu7t5v0__nand2_1
*I *1271:C I *D gf180mcu_fd_sc_mcu7t5v0__aoi211_1
*I *1267:A1 I *D gf180mcu_fd_sc_mcu7t5v0__aoi21_1
*I *1266:C I *D gf180mcu_fd_sc_mcu7t5v0__aoi211_1
*I *1479:Q O *D gf180mcu_fd_sc_mcu7t5v0__dffrnq_1
*CAP
1 *1237:A1 0.000130612
2 *1238:A1 7.89809e-05
3 *1338:A1 6.11243e-05
4 *1271:C 0.000806435
5 *1267:A1 0
6 *1266:C 0
7 *1479:Q 0.000355761
8 *327:67 0.000875498
9 *327:29 0.000417603
10 *327:16 0.000683365
11 *327:10 0.00082318
12 *1237:A1 *1238:A3 4.09047e-05
13 *1237:A1 *358:23 4.70092e-05
14 *1271:C *1271:A1 9.26705e-05
15 *327:67 *1238:A3 4.724e-05
16 *1266:A1 *327:10 6.29079e-05
17 *1266:A1 *327:16 0.00013084
18 *1266:A2 *1271:C 2.22533e-05
19 *1266:A2 *327:29 5.14116e-06
20 *1267:A2 *1271:C 0.000286604
21 *1267:A2 *327:29 3.08902e-05
22 *1267:B *327:16 6.00599e-05
23 *1267:B *327:29 0.000650825
24 *1270:A1 *327:16 0
25 *1270:A1 *327:29 0.000212121
26 *1270:A2 *327:16 2.79936e-05
27 *1272:A2 *1238:A1 0.000128724
28 *1272:A2 *1271:C 0
29 *1272:A2 *327:67 0.000116963
30 *1341:B1 *327:10 0
31 *1342:A2 *327:10 0
32 *1350:A1 *327:67 6.73834e-05
33 *1350:A2 *1237:A1 0.00030161
34 *1350:A2 *327:67 9.52854e-05
35 *1352:A1 *327:67 0.000179609
36 *1479:D *327:16 8.52505e-06
37 *1493:D *1271:C 4.67949e-05
38 *1493:D *327:29 3.07734e-05
39 *1493:D *327:67 0.000283146
40 *1493:CLK *327:16 0
41 *211:16 *1238:A1 4.6818e-05
42 *231:14 *1237:A1 0.000387765
43 *268:14 *1338:A1 2.14834e-05
44 *310:36 *327:10 0
45 *319:30 *1338:A1 2.14834e-05
46 *319:30 *327:16 0
*RES
1 *1479:Q *327:10 10.824 
2 *327:10 *327:16 7.236 
3 *327:16 *1266:C 4.5 
4 *327:16 *327:29 3.04 
5 *327:29 *1267:A1 4.5 
6 *327:29 *1271:C 6.02 
7 *327:10 *1338:A1 9.38 
8 *1271:C *327:67 14.168 
9 *327:67 *1238:A1 9.684 
10 *327:67 *1237:A1 10.748 
*END

*D_NET *328 0.0120247
*CONN
*I *1203:A2 I *D gf180mcu_fd_sc_mcu7t5v0__aoi221_1
*I *1200:B1 I *D gf180mcu_fd_sc_mcu7t5v0__oai221_1
*I *1194:A3 I *D gf180mcu_fd_sc_mcu7t5v0__nor3_1
*I *1323:I0 I *D gf180mcu_fd_sc_mcu7t5v0__mux2_2
*I *1449:Q O *D gf180mcu_fd_sc_mcu7t5v0__dffsnq_1
*CAP
1 *1203:A2 0.000248269
2 *1200:B1 0
3 *1194:A3 0
4 *1323:I0 0.000280649
5 *1449:Q 0
6 *328:34 0.000653118
7 *328:27 0.00175833
8 *328:4 0.00163413
9 *1203:A2 *1199:B1 0.000117412
10 *1203:A2 *1200:A1 0
11 *1323:I0 *1318:A1 0.0001372
12 *1323:I0 *330:43 0.000379283
13 *328:27 *1194:A2 1.5015e-05
14 *328:27 *330:43 0.000147305
15 *328:27 *330:45 0.000202675
16 *328:27 *349:83 0.000181824
17 *328:34 *1194:A2 0.000615749
18 *1197:A2 *328:27 0
19 *1199:B2 *1203:A2 8.0352e-06
20 *1200:A2 *1203:A2 1.53696e-05
21 *1200:A2 *328:34 1.83267e-05
22 *1200:B2 *1203:A2 0.00016645
23 *1200:C *1203:A2 7.59985e-05
24 *1204:A1 *1203:A2 7.45328e-07
25 *1206:A4 *328:34 2.93126e-05
26 *1278:A2 *328:27 1.15275e-05
27 *1279:A1 *328:27 0
28 *1281:A1 *328:27 1.52768e-05
29 *1318:A2 *1323:I0 0.000252948
30 *1322:A1 *328:34 0
31 *1323:S *1323:I0 0.000215472
32 *1474:D *328:27 8.73421e-05
33 *1475:D *328:27 0.000102486
34 *1475:CLK *328:27 0.00125664
35 *1507:I *1323:I0 0.000105958
36 *1507:I *328:27 0.000595627
37 *1510:I *328:27 0.000866006
38 *135:10 *1203:A2 8.55242e-05
39 *142:25 *328:27 3.95687e-05
40 *179:38 *1203:A2 0
41 *253:42 *328:27 8.26511e-05
42 *253:65 *328:34 0.000169642
43 *296:61 *328:27 0.000433917
44 *299:60 *328:27 0.000741493
45 *299:60 *328:34 7.24161e-06
46 *305:35 *1323:I0 0.000207717
47 *305:83 *328:27 0
48 *308:52 *328:27 3.65053e-05
49 *308:96 *328:27 2.60127e-05
*RES
1 *1449:Q *328:4 4.5 
2 *328:4 *1323:I0 16.844 
3 *328:4 *328:27 16.188 
4 *328:27 *1194:A3 4.5 
5 *328:27 *328:34 4.028 
6 *328:34 *1200:B1 4.5 
7 *328:34 *1203:A2 15.628 
*END

*D_NET *329 0.00546077
*CONN
*I *1180:I I *D gf180mcu_fd_sc_mcu7t5v0__clkinv_1
*I *1194:A2 I *D gf180mcu_fd_sc_mcu7t5v0__nor3_1
*I *1450:Q O *D gf180mcu_fd_sc_mcu7t5v0__dffrnq_1
*CAP
1 *1180:I 0
2 *1194:A2 0.000600015
3 *1450:Q 0.000672766
4 *329:12 0.00127278
5 *1194:A2 *1202:A2 0
6 *1197:A2 *1194:A2 5.76373e-06
7 *1199:A2 *1194:A2 5.89887e-05
8 *1201:A2 *1194:A2 1.83298e-05
9 *1204:A1 *1194:A2 0.000248691
10 *1206:A4 *1194:A2 3.08902e-05
11 *1322:B *1194:A2 1.34641e-06
12 *1368:A1 *329:12 0.000171927
13 *1445:CLK *329:12 3.73627e-05
14 *1450:CLK *1194:A2 1.97747e-05
15 *1513:I *329:12 0
16 *1530:I *329:12 2.56734e-05
17 *154:8 *1194:A2 7.98466e-05
18 *292:72 *1194:A2 0.000389181
19 *318:56 *1194:A2 0.000316809
20 *318:56 *329:12 0.000832713
21 *318:94 *329:12 4.71447e-05
22 *328:27 *1194:A2 1.5015e-05
23 *328:34 *1194:A2 0.000615749
*RES
1 *1450:Q *329:12 19.732 
2 *329:12 *1194:A2 19.884 
3 *329:12 *1180:I 4.5 
*END

*D_NET *330 0.0182373
*CONN
*I *1194:A1 I *D gf180mcu_fd_sc_mcu7t5v0__nor3_1
*I *1202:A2 I *D gf180mcu_fd_sc_mcu7t5v0__xor2_1
*I *1320:I0 I *D gf180mcu_fd_sc_mcu7t5v0__mux2_2
*I *1451:Q O *D gf180mcu_fd_sc_mcu7t5v0__dffsnq_1
*CAP
1 *1194:A1 0
2 *1202:A2 0.000830558
3 *1320:I0 0.00016875
4 *1451:Q 0.000274305
5 *330:45 0.0010352
6 *330:43 0.00164041
7 *330:12 0.00187882
8 *1202:A2 *1197:B 0.000124318
9 *1202:A2 *1201:B1 0.000727667
10 *1202:A2 *1202:A1 4.58601e-06
11 *1202:A2 *335:12 0
12 *1202:A2 *372:36 0
13 *1202:A2 *375:6 0.000310356
14 *1320:I0 *1320:I1 0.00023624
15 *330:12 *1285:I1 6.66709e-06
16 *330:12 *1320:I1 0.000128875
17 *330:12 *350:38 0.000601724
18 *330:43 *1177:I 2.05156e-05
19 *330:43 *1195:A2 2.64851e-05
20 *330:43 *1264:A2 3.3219e-05
21 *330:43 *1318:A1 0
22 *330:43 *349:83 0.000780699
23 *330:43 *353:10 0.000246185
24 *1194:A2 *1202:A2 0
25 *1196:A1 *330:45 0.000372137
26 *1196:A2 *330:43 7.14125e-05
27 *1196:A2 *330:45 2.86555e-05
28 *1197:A1 *1202:A2 8.55242e-05
29 *1197:A2 *1202:A2 4.27914e-05
30 *1201:A2 *1202:A2 4.51089e-05
31 *1203:B2 *1202:A2 0.000424388
32 *1203:C *1202:A2 0
33 *1205:B2 *1202:A2 0.00015275
34 *1206:A1 *1202:A2 0.0004656
35 *1285:S *330:12 7.98438e-05
36 *1319:B *330:43 0.00214698
37 *1323:I0 *330:43 0.000379283
38 *1380:I *1202:A2 2.2086e-05
39 *1455:D *330:43 0.000137785
40 *1471:CLK *330:12 2.13219e-05
41 *1471:CLK *330:43 0.000171927
42 *1472:D *330:43 1.97747e-05
43 *1472:CLK *330:43 0.000848846
44 *1490:RN *1202:A2 0
45 *1507:I *1320:I0 2.42253e-05
46 *1507:I *330:43 0.000711689
47 *1510:I *330:43 0.000195662
48 *1520:I *330:12 0.00068268
49 *151:12 *330:43 0.000419633
50 *151:22 *330:43 0.000271348
51 *152:25 *1202:A2 4.84531e-05
52 *152:25 *330:43 0
53 *179:16 *1202:A2 0.000576586
54 *231:14 *1320:I0 0
55 *231:14 *330:12 0
56 *253:42 *330:43 0.000102186
57 *305:83 *1202:A2 7.05825e-06
58 *305:83 *330:45 0.000256056
59 *328:27 *330:43 0.000147305
60 *328:27 *330:45 0.000202675
*RES
1 *1451:Q *330:12 12.572 
2 *330:12 *1320:I0 10.596 
3 *330:12 *330:43 48.98 
4 *330:43 *330:45 2.66 
5 *330:45 *1202:A2 22.62 
6 *330:45 *1194:A1 4.5 
*END

*D_NET *331 0.00122734
*CONN
*I *1195:A4 I *D gf180mcu_fd_sc_mcu7t5v0__nor4_1
*I *1179:I I *D gf180mcu_fd_sc_mcu7t5v0__clkinv_1
*I *1452:Q O *D gf180mcu_fd_sc_mcu7t5v0__dffrnq_1
*CAP
1 *1195:A4 0.000165732
2 *1179:I 0
3 *1452:Q 9.64326e-05
4 *331:8 0.000262165
5 *1195:A4 *1195:A3 7.50749e-05
6 *1316:A1 *1195:A4 0
7 *1316:A1 *331:8 0
8 *1319:A2 *331:8 3.07734e-05
9 *1452:D *331:8 4.60244e-05
10 *152:25 *1195:A4 0
11 *153:27 *1195:A4 0.000334794
12 *305:62 *1195:A4 1.5015e-05
13 *305:62 *331:8 0.000201334
*RES
1 *1452:Q *331:8 5.716 
2 *331:8 *1179:I 4.5 
3 *331:8 *1195:A4 6.172 
*END

*D_NET *332 0.0037158
*CONN
*I *1198:A1 I *D gf180mcu_fd_sc_mcu7t5v0__xor2_1
*I *1195:A3 I *D gf180mcu_fd_sc_mcu7t5v0__nor4_1
*I *1317:I0 I *D gf180mcu_fd_sc_mcu7t5v0__mux2_2
*I *1453:Q O *D gf180mcu_fd_sc_mcu7t5v0__dffrnq_1
*CAP
1 *1198:A1 0.000519421
2 *1195:A3 7.43823e-05
3 *1317:I0 0.000610196
4 *1453:Q 0
5 *332:4 0.000165157
6 *1198:A1 *1328:A1 0.000447527
7 *1198:A1 *376:6 0.000255714
8 *1195:A4 *1195:A3 7.50749e-05
9 *1453:RN *1198:A1 6.26518e-05
10 *1491:RN *1198:A1 0
11 *152:25 *1317:I0 5.8669e-05
12 *153:27 *1195:A3 0
13 *153:27 *1198:A1 0.000430201
14 *153:27 *1317:I0 0.000253635
15 *292:66 *1198:A1 0.000753284
16 *305:62 *1198:A1 9.88736e-06
17 *315:65 *1198:A1 0
*RES
1 *1453:Q *332:4 4.5 
2 *332:4 *1317:I0 5.488 
3 *332:4 *1195:A3 5.184 
4 *1317:I0 *1198:A1 24.308 
*END

*D_NET *333 0.0024887
*CONN
*I *1178:I I *D gf180mcu_fd_sc_mcu7t5v0__clkinv_1
*I *1195:A2 I *D gf180mcu_fd_sc_mcu7t5v0__nor4_1
*I *1454:Q O *D gf180mcu_fd_sc_mcu7t5v0__dffrnq_1
*CAP
1 *1178:I 9.70474e-05
2 *1195:A2 0.000252241
3 *1454:Q 0.000183195
4 *333:8 0.000532484
5 *333:8 *1315:A1 5.79908e-05
6 *333:8 *352:60 0
7 *1316:A1 *1195:A2 0.000221732
8 *1316:A1 *333:8 1.02578e-05
9 *1316:B *333:8 0.000440583
10 *1319:B *1178:I 0.000141888
11 *1319:B *1195:A2 3.83835e-06
12 *1319:B *333:8 6.94987e-05
13 *152:25 *1195:A2 0.000141897
14 *305:58 *333:8 0.000309567
15 *330:43 *1195:A2 2.64851e-05
*RES
1 *1454:Q *333:8 7.54 
2 *333:8 *1195:A2 7.008 
3 *333:8 *1178:I 5.716 
*END

*D_NET *334 0.00246003
*CONN
*I *1177:I I *D gf180mcu_fd_sc_mcu7t5v0__clkinv_1
*I *1195:A1 I *D gf180mcu_fd_sc_mcu7t5v0__nor4_1
*I *1455:Q O *D gf180mcu_fd_sc_mcu7t5v0__dffrnq_1
*CAP
1 *1177:I 5.15527e-05
2 *1195:A1 0.00022434
3 *1455:Q 0.00045158
4 *334:8 0.000727472
5 *334:8 *1300:A1 0.000116136
6 *1196:A2 *1195:A1 8.18282e-05
7 *1300:A2 *334:8 0
8 *1313:A2 *334:8 5.8775e-05
9 *1409:I *334:8 0.000121891
10 *1455:CLK *1195:A1 0.000203643
11 *1455:CLK *334:8 0.000142185
12 *1510:I *1177:I 0.000108775
13 *151:12 *1177:I 8.18282e-05
14 *152:10 *1195:A1 0
15 *152:25 *1195:A1 5.48085e-05
16 *305:66 *1195:A1 1.47007e-05
17 *330:43 *1177:I 2.05156e-05
*RES
1 *1455:Q *334:8 12.724 
2 *334:8 *1195:A1 10.824 
3 *334:8 *1177:I 9.684 
*END

*D_NET *335 0.00471001
*CONN
*I *1311:A1 I *D gf180mcu_fd_sc_mcu7t5v0__nor2_1
*I *1201:A1 I *D gf180mcu_fd_sc_mcu7t5v0__aoi221_1
*I *1197:B I *D gf180mcu_fd_sc_mcu7t5v0__aoi21_1
*I *1456:Q O *D gf180mcu_fd_sc_mcu7t5v0__dffrnq_1
*CAP
1 *1311:A1 0
2 *1201:A1 0
3 *1197:B 0.00020879
4 *1456:Q 0.000582179
5 *335:12 0.000553867
6 *335:10 0.000927256
7 *1197:A1 *1197:B 8.55242e-05
8 *1201:A2 *1197:B 4.61878e-05
9 *1201:C *1197:B 0.000206341
10 *1202:A2 *1197:B 0.000124318
11 *1202:A2 *335:12 0
12 *152:25 *1197:B 0.000376901
13 *155:8 *1197:B 1.28891e-05
14 *299:6 *335:10 7.83779e-05
15 *299:14 *335:10 0.000193933
16 *299:43 *335:10 0.00127024
17 *299:51 *335:10 2.78305e-05
18 *299:51 *335:12 1.53748e-05
*RES
1 *1456:Q *335:10 13.864 
2 *335:10 *335:12 2.052 
3 *335:12 *1197:B 11.128 
4 *335:12 *1201:A1 9 
5 *335:10 *1311:A1 9 
*END

*D_NET *336 0.0016789
*CONN
*I *1223:A4 I *D gf180mcu_fd_sc_mcu7t5v0__nor4_1
*I *1176:I I *D gf180mcu_fd_sc_mcu7t5v0__clkinv_1
*I *1457:Q O *D gf180mcu_fd_sc_mcu7t5v0__dffrnq_1
*CAP
1 *1223:A4 0.000296056
2 *1176:I 0.000137132
3 *1457:Q 0.000209828
4 *336:8 0.000643016
5 *1303:A1 *1176:I 3.57979e-05
6 *1303:A1 *1223:A4 0.000185032
7 *1457:RN *1176:I 6.68265e-05
8 *1457:RN *336:8 1.8606e-05
9 *149:23 *336:8 8.66109e-05
*RES
1 *1457:Q *336:8 10.596 
2 *336:8 *1176:I 10.216 
3 *336:8 *1223:A4 11.508 
*END

*D_NET *337 0.00423952
*CONN
*I *1223:A3 I *D gf180mcu_fd_sc_mcu7t5v0__nor4_1
*I *1175:I I *D gf180mcu_fd_sc_mcu7t5v0__clkinv_1
*I *1458:Q O *D gf180mcu_fd_sc_mcu7t5v0__dffrnq_1
*CAP
1 *1223:A3 0.000227255
2 *1175:I 6.90522e-05
3 *1458:Q 0.000175175
4 *337:10 0.000471482
5 *1175:I *1174:I 0.000174758
6 *1175:I *338:25 0.000433917
7 *1223:A3 *1207:B2 2.17248e-05
8 *1223:A3 *338:25 0.00112961
9 *337:10 *338:10 0
10 *1212:B2 *1223:A3 0
11 *1413:I *1175:I 1.97747e-05
12 *1413:I *337:10 2.14818e-05
13 *1458:RN *1175:I 0.000509123
14 *1460:RN *1223:A3 0.000439771
15 *1543:I *1175:I 0.000539951
16 *148:12 *1175:I 6.44634e-06
*RES
1 *1458:Q *337:10 14.488 
2 *337:10 *1175:I 16.084 
3 *337:10 *1223:A3 7.692 
*END

*D_NET *338 0.00663488
*CONN
*I *1207:B2 I *D gf180mcu_fd_sc_mcu7t5v0__oai22_1
*I *1223:A2 I *D gf180mcu_fd_sc_mcu7t5v0__nor4_1
*I *1174:I I *D gf180mcu_fd_sc_mcu7t5v0__clkinv_1
*I *1459:Q O *D gf180mcu_fd_sc_mcu7t5v0__dffrnq_1
*CAP
1 *1207:B2 0.00050356
2 *1223:A2 0
3 *1174:I 6.4924e-05
4 *1459:Q 0.000277239
5 *338:25 0.000712883
6 *338:10 0.000551486
7 *1207:B2 *1173:I 9.33393e-06
8 *1207:B2 *1207:A1 0
9 *1207:B2 *1212:B1 7.59633e-05
10 *1207:B2 *339:12 0.000214292
11 *1207:B2 *339:25 0
12 *338:25 *339:8 0.000134564
13 *338:25 *339:12 9.26705e-05
14 *1175:I *1174:I 0.000174758
15 *1175:I *338:25 0.000433917
16 *1207:B1 *1207:B2 0
17 *1212:A1 *1207:B2 0.000540871
18 *1212:B2 *1207:B2 0.000266297
19 *1212:B2 *338:25 0
20 *1213:A1 *1207:B2 0
21 *1213:B *1207:B2 0.000149579
22 *1223:A3 *1207:B2 2.17248e-05
23 *1223:A3 *338:25 0.00112961
24 *1303:A1 *1207:B2 0.000317503
25 *1412:I *1174:I 0
26 *1413:I *338:10 1.52691e-05
27 *1413:I *338:25 0.00065318
28 *1458:RN *1174:I 8.84331e-05
29 *1543:I *1174:I 3.19219e-05
30 *1543:I *338:10 0.000144018
31 *148:12 *1174:I 3.08902e-05
32 *337:10 *338:10 0
*RES
1 *1459:Q *338:10 10.976 
2 *338:10 *1174:I 9.76 
3 *338:10 *338:25 8.68 
4 *338:25 *1223:A2 4.5 
5 *338:25 *1207:B2 9.82 
*END

*D_NET *339 0.00319792
*CONN
*I *1223:A1 I *D gf180mcu_fd_sc_mcu7t5v0__nor4_1
*I *1207:A1 I *D gf180mcu_fd_sc_mcu7t5v0__oai22_1
*I *1208:A1 I *D gf180mcu_fd_sc_mcu7t5v0__nand2_1
*I *1173:I I *D gf180mcu_fd_sc_mcu7t5v0__clkinv_1
*I *1460:Q O *D gf180mcu_fd_sc_mcu7t5v0__dffrnq_1
*CAP
1 *1223:A1 0
2 *1207:A1 9.48396e-05
3 *1208:A1 0
4 *1173:I 0.000175099
5 *1460:Q 0.000144376
6 *339:25 0.000338461
7 *339:12 0.000542528
8 *339:8 0.000268184
9 *1207:B2 *1173:I 9.33393e-06
10 *1207:B2 *1207:A1 0
11 *1207:B2 *339:12 0.000214292
12 *1207:B2 *339:25 0
13 *1208:A2 *1207:A1 0.000307905
14 *1208:A2 *339:25 3.08902e-05
15 *1209:A2 *1207:A1 9.40742e-05
16 *1212:A1 *1173:I 9.26705e-05
17 *1212:A1 *339:25 0
18 *1225:B1 *339:12 0.000244121
19 *1225:B1 *339:25 0.000245211
20 *1303:A1 *1173:I 0.000141194
21 *1303:A1 *339:12 2.75102e-05
22 *338:25 *339:8 0.000134564
23 *338:25 *339:12 9.26705e-05
*RES
1 *1460:Q *339:8 5.716 
2 *339:8 *339:12 1.824 
3 *339:12 *1173:I 5.716 
4 *339:12 *339:25 2.28 
5 *339:25 *1208:A1 4.5 
6 *339:25 *1207:A1 5.716 
7 *339:8 *1223:A1 4.5 
*END

*D_NET *340 0.00185945
*CONN
*I *1172:I I *D gf180mcu_fd_sc_mcu7t5v0__clkinv_1
*I *1224:A4 I *D gf180mcu_fd_sc_mcu7t5v0__nor4_1
*I *1461:Q O *D gf180mcu_fd_sc_mcu7t5v0__dffrnq_1
*CAP
1 *1172:I 5.8286e-05
2 *1224:A4 0.000271446
3 *1461:Q 0
4 *340:4 0.000329732
5 *1172:I *1171:I 7.71175e-06
6 *1224:A4 *1171:I 0.000802089
7 *1224:A4 *1224:A1 1.83247e-05
8 *1224:A4 *341:25 4.50449e-05
9 *1463:RN *1224:A4 3.56172e-05
10 *1530:I *1224:A4 0
11 *145:8 *1172:I 3.00299e-05
12 *146:10 *1172:I 3.08902e-05
13 *146:10 *1224:A4 5.65687e-05
14 *146:23 *1172:I 1.15275e-05
15 *146:23 *1224:A4 6.68265e-05
16 *199:76 *1224:A4 9.53573e-05
*RES
1 *1461:Q *340:4 4.5 
2 *340:4 *1224:A4 7.692 
3 *340:4 *1172:I 5.108 
*END

*D_NET *341 0.00447487
*CONN
*I *1171:I I *D gf180mcu_fd_sc_mcu7t5v0__clkinv_1
*I *1224:A3 I *D gf180mcu_fd_sc_mcu7t5v0__nor4_1
*I *1298:A1 I *D gf180mcu_fd_sc_mcu7t5v0__nand2_1
*I *1462:Q O *D gf180mcu_fd_sc_mcu7t5v0__dffsnq_1
*CAP
1 *1171:I 0.00017346
2 *1224:A3 0
3 *1298:A1 0.000190947
4 *1462:Q 0.000190217
5 *341:25 0.000679053
6 *341:10 0.000886758
7 *1171:I *1224:A1 0.000103272
8 *1171:I *1224:A2 0.000317503
9 *1172:I *1171:I 7.71175e-06
10 *1224:A4 *1171:I 0.000802089
11 *1224:A4 *341:25 4.50449e-05
12 *1299:B *1298:A1 7.98048e-05
13 *1398:I *1298:A1 0.000102021
14 *1444:D *341:10 0.000147305
15 *1444:D *341:25 0.000248576
16 *1444:CLK *341:10 2.88187e-05
17 *1462:SETN *341:10 7.54445e-06
18 *1462:SETN *341:25 9.56768e-06
19 *1530:I *1171:I 0
20 *1530:I *341:25 2.84711e-05
21 *199:76 *1171:I 0.000109865
22 *199:76 *341:25 0.000188895
23 *199:78 *341:25 0
24 *296:55 *1298:A1 0
25 *314:51 *341:25 0
26 *326:14 *341:10 0.000106811
27 *326:14 *341:25 2.11395e-05
*RES
1 *1462:Q *341:10 6.248 
2 *341:10 *1298:A1 15.096 
3 *341:10 *341:25 3.952 
4 *341:25 *1224:A3 4.5 
5 *341:25 *1171:I 7.464 
*END

*D_NET *342 0.00116297
*CONN
*I *1170:I I *D gf180mcu_fd_sc_mcu7t5v0__clkinv_1
*I *1224:A2 I *D gf180mcu_fd_sc_mcu7t5v0__nor4_1
*I *1463:Q O *D gf180mcu_fd_sc_mcu7t5v0__dffrnq_1
*CAP
1 *1170:I 5.76307e-05
2 *1224:A2 0.00012042
3 *1463:Q 0
4 *342:4 0.000178051
5 *1170:I *1224:A1 1.52768e-05
6 *1171:I *1224:A2 0.000317503
7 *1225:B2 *1170:I 2.88187e-05
8 *1297:A1 *1170:I 3.08902e-05
9 *1297:A1 *1224:A2 4.04309e-05
10 *144:25 *1170:I 3.00299e-05
11 *199:76 *1224:A2 0.000343924
*RES
1 *1463:Q *342:4 4.5 
2 *342:4 *1224:A2 15.02 
3 *342:4 *1170:I 5.108 
*END

*D_NET *343 0.00453895
*CONN
*I *1169:I I *D gf180mcu_fd_sc_mcu7t5v0__clkinv_1
*I *1224:A1 I *D gf180mcu_fd_sc_mcu7t5v0__nor4_1
*I *1294:A1 I *D gf180mcu_fd_sc_mcu7t5v0__nand2_1
*I *1464:Q O *D gf180mcu_fd_sc_mcu7t5v0__dffsnq_1
*CAP
1 *1169:I 7.21121e-05
2 *1224:A1 0.000477563
3 *1294:A1 0.000442519
4 *1464:Q 0
5 *343:19 0.000582479
6 *343:4 0.000475323
7 *1169:I *1217:B1 6.48288e-05
8 *1224:A1 *1217:B1 5.40596e-05
9 *1294:A1 *1215:A2 0.000151949
10 *1294:A1 *1217:B1 6.05889e-05
11 *1294:A1 *1218:B1 0.000326528
12 *1294:A1 *383:20 3.83835e-06
13 *1170:I *1224:A1 1.52768e-05
14 *1171:I *1224:A1 0.000103272
15 *1215:A1 *1224:A1 5.11218e-05
16 *1215:A1 *1294:A1 3.25235e-05
17 *1218:B2 *1294:A1 3.71997e-05
18 *1224:A4 *1224:A1 1.83247e-05
19 *1297:A1 *1224:A1 3.94624e-05
20 *144:25 *1224:A1 0.00015672
21 *145:8 *1224:A1 0.000734805
22 *146:10 *1224:A1 2.23477e-05
23 *188:18 *1294:A1 0.000191711
24 *199:76 *1224:A1 0.000424397
*RES
1 *1464:Q *343:4 4.5 
2 *343:4 *1294:A1 17.3 
3 *343:4 *343:19 0.228 
4 *343:19 *1224:A1 9.896 
5 *343:19 *1169:I 5.26 
*END

*D_NET *344 0.00686339
*CONN
*I *1163:I I *D gf180mcu_fd_sc_mcu7t5v0__clkinv_1
*I *1251:A3 I *D gf180mcu_fd_sc_mcu7t5v0__nand3_1
*I *1261:A1 I *D gf180mcu_fd_sc_mcu7t5v0__nor2_1
*I *1480:Q O *D gf180mcu_fd_sc_mcu7t5v0__dffrnq_1
*CAP
1 *1163:I 0
2 *1251:A3 0.000515135
3 *1261:A1 4.82139e-05
4 *1480:Q 0.000557736
5 *344:25 0.000808167
6 *344:12 0.000898982
7 *1251:A3 *1251:A1 2.88187e-05
8 *1251:A3 *1251:A2 7.83779e-05
9 *1256:A2 *1251:A3 0
10 *1260:B *1251:A3 0.000146163
11 *1260:B *344:25 0.000109662
12 *1434:I *344:25 5.23685e-05
13 *1436:I *1251:A3 0.00087597
14 *1480:D *1261:A1 0.000206333
15 *1480:D *344:12 0.00111251
16 *1483:RN *1251:A3 5.76373e-06
17 *1487:D *344:12 3.08902e-05
18 *1498:CLK *344:12 2.2165e-05
19 *1517:I *1251:A3 0.000116995
20 *1529:I *1251:A3 0.000524214
21 *1544:I *1261:A1 9.98921e-06
22 *1544:I *344:12 5.9202e-05
23 *1544:I *344:25 0.000164236
24 *225:26 *344:25 0
25 *298:55 *1251:A3 0
26 *304:23 *1251:A3 0
27 *316:27 *1251:A3 6.20834e-05
28 *316:27 *344:25 0.00042942
*RES
1 *1480:Q *344:12 12.876 
2 *344:12 *1261:A1 9.532 
3 *344:12 *344:25 7.768 
4 *344:25 *1251:A3 11.036 
5 *344:25 *1163:I 4.5 
*END

*D_NET *345 0.006411
*CONN
*I *1260:A1 I *D gf180mcu_fd_sc_mcu7t5v0__aoi21_1
*I *1257:A1 I *D gf180mcu_fd_sc_mcu7t5v0__aoi21_1
*I *1251:A2 I *D gf180mcu_fd_sc_mcu7t5v0__nand3_1
*I *1259:B2 I *D gf180mcu_fd_sc_mcu7t5v0__oai22_1
*I *1481:Q O *D gf180mcu_fd_sc_mcu7t5v0__dffrnq_1
*CAP
1 *1260:A1 3.07886e-05
2 *1257:A1 0
3 *1251:A2 0.000200861
4 *1259:B2 3.28034e-05
5 *1481:Q 0.000563192
6 *345:29 0.000437656
7 *345:14 0.000483292
8 *345:10 0.000807674
9 *1251:A2 *1251:A1 7.40448e-05
10 *1251:A2 *346:14 9.88736e-06
11 *1251:A3 *1251:A2 7.83779e-05
12 *1257:A2 *345:29 0.000171927
13 *1258:A1 *345:29 3.08902e-05
14 *1258:A2 *345:29 0.000134113
15 *1259:A2 *1251:A2 0.000502835
16 *1261:A2 *1260:A1 1.15275e-05
17 *1261:A2 *345:10 0
18 *1261:A2 *345:14 0.000171706
19 *1481:D *1260:A1 7.45046e-05
20 *1481:D *345:14 0.000154451
21 *1481:RN *345:10 0.000379809
22 *1482:D *345:14 0.000134564
23 *1482:D *345:29 0.000224654
24 *1517:I *1251:A2 7.83779e-05
25 *1529:I *1251:A2 3.16765e-06
26 *1539:I *345:10 0.000234067
27 *1544:I *345:10 0
28 *225:8 *345:14 0.000374234
29 *225:8 *345:29 6.00599e-05
30 *225:26 *1260:A1 0.000255722
31 *225:26 *345:14 0.000217351
32 *298:10 *1251:A2 8.15645e-05
33 *298:14 *1251:A2 0.000396896
34 *298:14 *345:29 0
*RES
1 *1481:Q *345:10 17.376 
2 *345:10 *345:14 3.496 
3 *345:14 *1259:B2 4.728 
4 *345:14 *345:29 11.432 
5 *345:29 *1251:A2 16.16 
6 *345:29 *1257:A1 4.5 
7 *345:10 *1260:A1 5.184 
*END

*D_NET *346 0.00292952
*CONN
*I *1251:A1 I *D gf180mcu_fd_sc_mcu7t5v0__nand3_1
*I *1257:B I *D gf180mcu_fd_sc_mcu7t5v0__aoi21_1
*I *1482:Q O *D gf180mcu_fd_sc_mcu7t5v0__dffrnq_1
*CAP
1 *1251:A1 0.0001643
2 *1257:B 0
3 *1482:Q 0.000713595
4 *346:14 0.000877895
5 *1251:A2 *1251:A1 7.40448e-05
6 *1251:A2 *346:14 9.88736e-06
7 *1251:A3 *1251:A1 2.88187e-05
8 *1259:A2 *1251:A1 2.40654e-06
9 *1259:A2 *346:14 6.22405e-05
10 *1488:D *346:14 0.000159936
11 *1517:I *1251:A1 0.000493315
12 *1529:I *1251:A1 3.00299e-05
13 *1529:I *346:14 2.98504e-05
14 *221:8 *1251:A1 0
15 *298:64 *346:14 0.000105696
16 *303:18 *346:14 0.000121697
17 *316:10 *346:14 5.58075e-05
*RES
1 *1482:Q *346:14 17.984 
2 *346:14 *1257:B 4.5 
3 *346:14 *1251:A1 6.476 
*END

*D_NET *347 0.0017252
*CONN
*I *1162:I I *D gf180mcu_fd_sc_mcu7t5v0__clkinv_1
*I *1253:A1 I *D gf180mcu_fd_sc_mcu7t5v0__nor2_1
*I *1483:Q O *D gf180mcu_fd_sc_mcu7t5v0__dffrnq_1
*CAP
1 *1162:I 0
2 *1253:A1 0.000188859
3 *1483:Q 0.00035062
4 *347:10 0.000539479
5 *1253:A2 *1253:A1 6.22304e-05
6 *1255:A1 *1253:A1 0.000117421
7 *1437:I *1253:A1 0
8 *1437:I *347:10 0
9 *1483:RN *1253:A1 2.96977e-05
10 *1489:CLK *347:10 4.6818e-05
11 *1540:I *1253:A1 0.000255714
12 *221:8 *1253:A1 9.61205e-06
13 *304:12 *1253:A1 2.96621e-05
14 *318:31 *347:10 9.50875e-05
*RES
1 *1483:Q *347:10 10.976 
2 *347:10 *1253:A1 10.824 
3 *347:10 *1162:I 9 
*END

*D_NET *348 0.016193
*CONN
*I *1264:A2 I *D gf180mcu_fd_sc_mcu7t5v0__nor4_1
*I *1288:I0 I *D gf180mcu_fd_sc_mcu7t5v0__mux2_2
*I *1323:I1 I *D gf180mcu_fd_sc_mcu7t5v0__mux2_2
*I *1287:I1 I *D gf180mcu_fd_sc_mcu7t5v0__mux2_2
*I *1308:A1 I *D gf180mcu_fd_sc_mcu7t5v0__nor2_1
*I *1276:A1 I *D gf180mcu_fd_sc_mcu7t5v0__nor2_1
*I *1292:I0 I *D gf180mcu_fd_sc_mcu7t5v0__mux2_2
*I *1468:Q O *D gf180mcu_fd_sc_mcu7t5v0__dffrnq_1
*CAP
1 *1264:A2 0.00102072
2 *1288:I0 8.09402e-05
3 *1323:I1 0.000156788
4 *1287:I1 0
5 *1308:A1 0.000343672
6 *1276:A1 0
7 *1292:I0 0.000325756
8 *1468:Q 0
9 *348:24 0.00073377
10 *348:18 0.00147417
11 *348:14 0.000965206
12 *348:12 0.000590335
13 *348:10 0.000420188
14 *348:4 0.00116915
15 *1264:A2 *1321:A1 2.38309e-05
16 *1264:A2 *349:83 0.000679342
17 *1292:I0 *366:12 0.000659793
18 *1323:I1 *1287:I0 8.92063e-06
19 *348:18 *362:10 2.57332e-05
20 *348:18 *364:10 0
21 *348:24 *364:10 0
22 *1264:A3 *1264:A2 0
23 *1276:A2 *1292:I0 3.08902e-05
24 *1276:A2 *348:24 9.68431e-05
25 *1277:B *1292:I0 0
26 *1287:S *348:12 0
27 *1287:S *348:14 0
28 *1292:I1 *1292:I0 1.76797e-05
29 *1292:S *1292:I0 0.00020124
30 *1419:I *1292:I0 0.000181456
31 *1449:D *348:10 8.09693e-06
32 *1449:D *348:12 0.000162343
33 *1449:CLK *1288:I0 0.000657859
34 *1451:CLK *1308:A1 0.00138586
35 *1451:CLK *348:18 0.000741951
36 *1468:RN *348:10 0
37 *1472:CLK *1264:A2 0
38 *1476:CLK *1292:I0 5.14116e-06
39 *1476:CLK *348:24 4.52262e-05
40 *1506:I *348:18 0.000384048
41 *1516:I *1264:A2 0
42 *1523:I *1264:A2 1.28891e-05
43 *1523:I *1288:I0 0.000968616
44 *1523:I *1323:I1 0
45 *1523:I *348:10 0.000248576
46 *292:119 *1308:A1 0.000250699
47 *295:31 *1308:A1 0.0003062
48 *295:33 *1308:A1 0.000435526
49 *308:82 *1264:A2 8.55327e-05
50 *310:53 *1292:I0 6.80715e-05
51 *310:88 *1292:I0 0.000115168
52 *310:88 *348:24 0.000109841
53 *310:96 *1308:A1 0.000301618
54 *310:96 *348:24 0.000660146
55 *311:58 *1264:A2 0
56 *330:43 *1264:A2 3.3219e-05
*RES
1 *1468:Q *348:4 4.5 
2 *348:4 *348:10 1.14 
3 *348:10 *348:12 1.292 
4 *348:12 *348:14 1.444 
5 *348:14 *348:18 10.504 
6 *348:18 *348:24 8.3 
7 *348:24 *1292:I0 8.3 
8 *348:24 *1276:A1 4.5 
9 *348:18 *1308:A1 14.396 
10 *348:14 *1287:I1 4.5 
11 *348:12 *1323:I1 14.64 
12 *348:10 *1288:I0 15.856 
13 *348:4 *1264:A2 20.34 
*END

*D_NET *349 0.0212749
*CONN
*I *1321:A1 I *D gf180mcu_fd_sc_mcu7t5v0__nand2_1
*I *1264:A1 I *D gf180mcu_fd_sc_mcu7t5v0__nor4_1
*I *1287:I0 I *D gf180mcu_fd_sc_mcu7t5v0__mux2_2
*I *1286:I1 I *D gf180mcu_fd_sc_mcu7t5v0__mux2_2
*I *1291:I0 I *D gf180mcu_fd_sc_mcu7t5v0__mux2_2
*I *1306:A1 I *D gf180mcu_fd_sc_mcu7t5v0__nor2_1
*I *1274:A1 I *D gf180mcu_fd_sc_mcu7t5v0__nor2_1
*I *1469:Q O *D gf180mcu_fd_sc_mcu7t5v0__dffrnq_1
*CAP
1 *1321:A1 0.00230439
2 *1264:A1 0
3 *1287:I0 0.000146748
4 *1286:I1 3.90101e-05
5 *1291:I0 0
6 *1306:A1 0.000562452
7 *1274:A1 0.000178447
8 *1469:Q 0.000149385
9 *349:83 0.00285723
10 *349:64 0.00112418
11 *349:33 0.000754824
12 *349:25 0.000555997
13 *349:12 0.00148202
14 *349:8 0.00155295
15 *1286:I1 *350:25 1.02825e-05
16 *1306:A1 *1304:A1 5.89191e-05
17 *1306:A1 *350:10 7.20635e-05
18 *1306:A1 *350:14 0.000155108
19 *1321:A1 *1264:A4 0.000317503
20 *1321:A1 *1278:A1 1.72625e-05
21 *1321:A1 *1280:A1 8.64173e-06
22 *1321:A1 *1300:A1 0.000258197
23 *1321:A1 *354:23 0.000571347
24 *1321:A1 *354:38 0.000107849
25 *1321:A1 *354:48 0
26 *349:25 *368:8 0.000148925
27 *349:25 *368:19 0.000386498
28 *349:33 *350:14 8.3622e-05
29 *349:83 *1318:A1 0.000162623
30 *1264:A2 *1321:A1 2.38309e-05
31 *1264:A2 *349:83 0.000679342
32 *1264:A3 *1321:A1 6.19161e-05
33 *1279:B *1321:A1 0
34 *1287:S *349:64 1.52691e-05
35 *1290:I1 *1306:A1 0
36 *1290:S *1306:A1 0.000269881
37 *1291:I1 *1306:A1 4.92886e-05
38 *1291:I1 *349:33 0
39 *1291:S *349:25 0.00027144
40 *1291:S *349:33 9.32046e-05
41 *1292:S *1274:A1 4.60055e-05
42 *1292:S *349:25 4.43032e-05
43 *1301:B *1321:A1 0.000150858
44 *1305:B *1306:A1 9.88736e-06
45 *1307:B *1306:A1 0.000510823
46 *1310:A1 *349:12 2.8001e-06
47 *1312:A1 *1321:A1 2.59005e-05
48 *1312:B *1321:A1 5.97075e-05
49 *1318:A2 *349:83 3.27593e-05
50 *1321:A2 *1321:A1 1.5015e-05
51 *1323:I1 *1287:I0 8.92063e-06
52 *1323:S *349:83 6.68441e-05
53 *1420:I *1306:A1 0
54 *1423:I *349:12 5.05571e-05
55 *1423:I *349:64 5.14116e-06
56 *1429:I *1321:A1 0
57 *1451:D *349:12 0.000192041
58 *1451:D *349:64 3.04115e-05
59 *1456:RN *1321:A1 0
60 *1463:CLK *1321:A1 0
61 *1467:CLK *349:33 0.000247596
62 *1472:D *349:83 0.000523691
63 *1475:RN *1321:A1 0
64 *1501:RN *1274:A1 8.82876e-06
65 *1501:RN *349:12 8.12167e-05
66 *1506:I *349:12 0
67 *1506:I *349:64 0
68 *1512:I *1321:A1 0.000103957
69 *1516:I *349:83 0
70 *1518:I *1321:A1 3.83835e-06
71 *140:14 *349:12 0.000105749
72 *141:29 *1321:A1 0.00082598
73 *231:14 *1287:I0 3.62154e-05
74 *231:14 *349:83 7.89194e-05
75 *237:34 *1274:A1 3.07531e-05
76 *243:8 *1274:A1 0
77 *243:8 *349:12 2.85624e-05
78 *244:12 *349:25 0.000159849
79 *244:12 *349:33 5.2631e-05
80 *253:42 *349:83 0.000431362
81 *292:119 *349:12 7.46682e-05
82 *299:16 *1321:A1 0
83 *299:51 *1321:A1 4.13816e-05
84 *305:22 *349:64 0.000132714
85 *305:35 *349:83 4.64479e-05
86 *308:82 *1321:A1 0.00019344
87 *313:12 *1306:A1 5.94709e-06
88 *313:40 *1306:A1 0.0001908
89 *313:48 *1306:A1 5.97012e-05
90 *313:103 *1306:A1 6.54978e-05
91 *328:27 *349:83 0.000181824
92 *330:43 *349:83 0.000780699
*RES
1 *1469:Q *349:8 5.26 
2 *349:8 *349:12 11.568 
3 *349:12 *1274:A1 10.216 
4 *349:12 *349:25 3.724 
5 *349:25 *349:33 6.4 
6 *349:33 *1306:A1 19.58 
7 *349:33 *1291:I0 4.5 
8 *349:25 *1286:I1 9.228 
9 *349:8 *349:64 7.464 
10 *349:64 *1287:I0 9.988 
11 *349:64 *349:83 16.828 
12 *349:83 *1264:A1 9 
13 *349:83 *1321:A1 27.392 
*END

*D_NET *350 0.00969029
*CONN
*I *1304:A1 I *D gf180mcu_fd_sc_mcu7t5v0__nor2_1
*I *1290:I0 I *D gf180mcu_fd_sc_mcu7t5v0__mux2_2
*I *1263:A4 I *D gf180mcu_fd_sc_mcu7t5v0__nor4_1
*I *1320:I1 I *D gf180mcu_fd_sc_mcu7t5v0__mux2_2
*I *1285:I1 I *D gf180mcu_fd_sc_mcu7t5v0__mux2_2
*I *1286:I0 I *D gf180mcu_fd_sc_mcu7t5v0__mux2_2
*I *1470:Q O *D gf180mcu_fd_sc_mcu7t5v0__dffrnq_1
*CAP
1 *1304:A1 0.000112021
2 *1290:I0 0
3 *1263:A4 0.000357326
4 *1320:I1 0.000397045
5 *1285:I1 0.00012163
6 *1286:I0 0
7 *1470:Q 0.000135991
8 *350:38 0.000830926
9 *350:25 0.000697477
10 *350:14 0.000710414
11 *350:10 0.000290061
12 *350:8 0.000326951
13 *1263:A4 *1263:A3 2.0247e-05
14 *1263:A4 *351:10 9.34472e-05
15 *1263:A4 *351:16 8.65374e-05
16 *350:25 *1166:I 0
17 *350:25 *1285:I0 2.05156e-05
18 *1285:S *350:25 0.000210547
19 *1285:S *350:38 0.00095915
20 *1286:I1 *350:25 1.02825e-05
21 *1286:S *350:25 0.00148286
22 *1290:I1 *350:8 0.000139169
23 *1290:I1 *350:10 0.000145551
24 *1290:I1 *350:14 0.000143376
25 *1306:A1 *1304:A1 5.89191e-05
26 *1306:A1 *350:10 7.20635e-05
27 *1306:A1 *350:14 0.000155108
28 *1320:I0 *1320:I1 0.00023624
29 *1405:I *1263:A4 9.98921e-06
30 *1405:I *1320:I1 6.80851e-05
31 *1467:CLK *350:25 2.17451e-05
32 *1470:D *350:25 0
33 *1471:CLK *1263:A4 0
34 *1507:I *1320:I1 0
35 *1509:I *1263:A4 0.000114947
36 *1520:I *1285:I1 8.69862e-05
37 *1520:I *350:25 6.79538e-05
38 *1520:I *350:38 7.22169e-05
39 *244:12 *350:8 0
40 *244:12 *350:14 0.000151844
41 *295:27 *350:25 0.00040612
42 *313:48 *350:8 5.56615e-05
43 *330:12 *1285:I1 6.66709e-06
44 *330:12 *1320:I1 0.000128875
45 *330:12 *350:38 0.000601724
46 *349:33 *350:14 8.3622e-05
*RES
1 *1470:Q *350:8 9.988 
2 *350:8 *350:10 0.988 
3 *350:10 *350:14 6.856 
4 *350:14 *1286:I0 4.5 
5 *350:14 *350:25 5.548 
6 *350:25 *1285:I1 5.26 
7 *350:25 *350:38 7.008 
8 *350:38 *1320:I1 12.724 
9 *350:38 *1263:A4 12.116 
10 *350:10 *1290:I0 9 
11 *350:8 *1304:A1 9.836 
*END

*D_NET *351 0.00773678
*CONN
*I *1302:A1 I *D gf180mcu_fd_sc_mcu7t5v0__nor2_1
*I *1285:I0 I *D gf180mcu_fd_sc_mcu7t5v0__mux2_2
*I *1263:A3 I *D gf180mcu_fd_sc_mcu7t5v0__nor4_1
*I *1284:I1 I *D gf180mcu_fd_sc_mcu7t5v0__mux2_2
*I *1318:A1 I *D gf180mcu_fd_sc_mcu7t5v0__nand2_1
*I *1471:Q O *D gf180mcu_fd_sc_mcu7t5v0__dffrnq_1
*CAP
1 *1302:A1 0.000169832
2 *1285:I0 0.000268962
3 *1263:A3 0.000160956
4 *1284:I1 2.94122e-05
5 *1318:A1 0.000242857
6 *1471:Q 0
7 *351:22 0.000446363
8 *351:16 0.00054277
9 *351:10 0.000767965
10 *351:6 0.000461116
11 *1263:A3 *1263:A2 0.000130161
12 *1263:A3 *352:8 8.59272e-06
13 *1263:A3 *352:14 4.44618e-05
14 *1318:A1 *352:39 3.16765e-06
15 *351:16 *1263:A2 1.44832e-05
16 *351:22 *352:14 4.29636e-06
17 *1263:A4 *1263:A3 2.0247e-05
18 *1263:A4 *351:10 9.34472e-05
19 *1263:A4 *351:16 8.65374e-05
20 *1265:A1 *351:16 0.000193933
21 *1285:S *1284:I1 4.19182e-05
22 *1285:S *1285:I0 0.000439063
23 *1285:S *351:16 0.00100952
24 *1285:S *351:22 7.29578e-05
25 *1286:S *1285:I0 9.26705e-05
26 *1318:A2 *1318:A1 0.000112413
27 *1323:I0 *1318:A1 0.0001372
28 *1395:I *1302:A1 4.06416e-05
29 *1405:I *351:10 0.000264727
30 *1441:D *1302:A1 8.0332e-05
31 *1441:D *351:10 3.28611e-05
32 *1471:CLK *1263:A3 5.89191e-05
33 *1471:CLK *351:22 6.03784e-05
34 *1472:D *1318:A1 1.04712e-05
35 *1472:RN *1263:A3 0.000161584
36 *1472:CLK *1318:A1 7.98466e-05
37 *1507:I *1318:A1 6.07743e-06
38 *1509:I *1285:I0 0
39 *1509:I *351:16 0
40 *231:14 *1284:I1 0.00018127
41 *231:14 *1318:A1 0
42 *231:14 *351:22 0.000381743
43 *306:119 *1302:A1 0.000191702
44 *313:68 *1302:A1 0.000111858
45 *313:70 *1302:A1 8.21884e-05
46 *313:70 *351:10 0.000213741
47 *330:43 *1318:A1 0
48 *349:83 *1318:A1 0.000162623
49 *350:25 *1285:I0 2.05156e-05
*RES
1 *1471:Q *351:6 9 
2 *351:6 *351:10 7.92 
3 *351:10 *351:16 7.388 
4 *351:16 *351:22 6.324 
5 *351:22 *1318:A1 15.628 
6 *351:22 *1284:I1 5.032 
7 *351:16 *1263:A3 10.672 
8 *351:10 *1285:I0 7.16 
9 *351:6 *1302:A1 11.128 
*END

*D_NET *352 0.0145504
*CONN
*I *1263:A2 I *D gf180mcu_fd_sc_mcu7t5v0__nor4_1
*I *1300:A1 I *D gf180mcu_fd_sc_mcu7t5v0__nor2_1
*I *1317:I1 I *D gf180mcu_fd_sc_mcu7t5v0__mux2_2
*I *1282:A1 I *D gf180mcu_fd_sc_mcu7t5v0__nand2_1
*I *1284:I0 I *D gf180mcu_fd_sc_mcu7t5v0__mux2_2
*I *1472:Q O *D gf180mcu_fd_sc_mcu7t5v0__dffrnq_1
*CAP
1 *1263:A2 0.000108533
2 *1300:A1 0.000856402
3 *1317:I1 0
4 *1282:A1 3.10699e-05
5 *1284:I0 0
6 *1472:Q 0.000239251
7 *352:60 0.00166819
8 *352:39 0.00204721
9 *352:14 0.00134011
10 *352:8 0.000483536
11 *352:60 *1315:A1 0
12 *1263:A1 *352:39 0
13 *1263:A3 *1263:A2 0.000130161
14 *1263:A3 *352:8 8.59272e-06
15 *1263:A3 *352:14 4.44618e-05
16 *1265:A1 *1263:A2 0.00011703
17 *1265:A1 *352:14 0.000255722
18 *1265:A1 *352:39 0.000398951
19 *1265:A2 *352:39 2.57058e-06
20 *1278:A2 *352:39 8.53118e-06
21 *1283:A2 *1282:A1 9.52854e-05
22 *1285:S *352:14 0.00026286
23 *1285:S *352:39 6.17803e-05
24 *1313:A2 *1300:A1 0.000200516
25 *1314:B *1300:A1 0.000371757
26 *1316:B *352:60 3.60156e-05
27 *1318:A1 *352:39 3.16765e-06
28 *1321:A1 *1300:A1 0.000258197
29 *1408:I *352:60 2.22533e-05
30 *1426:I *352:8 3.46377e-05
31 *1452:RN *352:60 0.000105022
32 *1453:D *352:60 8.73421e-05
33 *1453:RN *1300:A1 0.000327535
34 *1453:RN *352:60 0.000448201
35 *1454:D *352:60 0.000105239
36 *1454:RN *352:60 0.000386421
37 *1471:CLK *352:8 0
38 *1472:RN *1263:A2 5.8721e-05
39 *1472:RN *352:8 0
40 *1509:I *1263:A2 1.72881e-05
41 *1510:I *1300:A1 0.00015269
42 *1516:I *352:39 0.00010197
43 *141:29 *1300:A1 0.000258197
44 *142:36 *352:39 0
45 *151:22 *1300:A1 3.03271e-05
46 *231:14 *352:39 0.00032464
47 *253:42 *352:39 0.000418561
48 *305:58 *352:60 6.04444e-06
49 *305:62 *352:60 0.000233395
50 *305:66 *1300:A1 0.000432781
51 *308:28 *1282:A1 9.52854e-05
52 *308:28 *352:39 0.000247234
53 *308:48 *352:39 0.00123248
54 *308:82 *352:14 0
55 *308:82 *352:39 0.000200207
56 *315:45 *352:60 3.52702e-05
57 *315:61 *1300:A1 2.38501e-05
58 *333:8 *352:60 0
59 *334:8 *1300:A1 0.000116136
60 *351:16 *1263:A2 1.44832e-05
61 *351:22 *352:14 4.29636e-06
*RES
1 *1472:Q *352:8 10.596 
2 *352:8 *352:14 5.868 
3 *352:14 *1284:I0 4.5 
4 *352:14 *352:39 33.216 
5 *352:39 *1282:A1 9.38 
6 *352:39 *352:60 20.568 
7 *352:60 *1317:I1 4.5 
8 *352:60 *1300:A1 21.48 
9 *352:8 *1263:A2 10.292 
*END

*D_NET *353 0.00167561
*CONN
*I *1168:I I *D gf180mcu_fd_sc_mcu7t5v0__clkinv_1
*I *1315:A1 I *D gf180mcu_fd_sc_mcu7t5v0__nand2_1
*I *1473:Q O *D gf180mcu_fd_sc_mcu7t5v0__dffrnq_1
*CAP
1 *1168:I 0
2 *1315:A1 0.000217268
3 *1473:Q 8.06461e-05
4 *353:10 0.000297914
5 *1283:A1 *1315:A1 0.000151046
6 *1283:A1 *353:10 6.09452e-05
7 *1319:B *1315:A1 6.5719e-05
8 *1427:I *1315:A1 1.5015e-05
9 *1507:I *353:10 9.83736e-05
10 *142:25 *353:10 0.000197178
11 *308:26 *1315:A1 1.39031e-05
12 *308:48 *1315:A1 6.43339e-05
13 *308:48 *353:10 0.000109092
14 *330:43 *353:10 0.000246185
15 *333:8 *1315:A1 5.79908e-05
16 *352:60 *1315:A1 0
*RES
1 *1473:Q *353:10 10.368 
2 *353:10 *1315:A1 10.672 
3 *353:10 *1168:I 9 
*END

*D_NET *354 0.00699757
*CONN
*I *1278:A1 I *D gf180mcu_fd_sc_mcu7t5v0__nand2_1
*I *1296:A1 I *D gf180mcu_fd_sc_mcu7t5v0__nor2_1
*I *1313:A1 I *D gf180mcu_fd_sc_mcu7t5v0__nand2_1
*I *1280:A1 I *D gf180mcu_fd_sc_mcu7t5v0__nor2_1
*I *1264:A4 I *D gf180mcu_fd_sc_mcu7t5v0__nor4_1
*I *1474:Q O *D gf180mcu_fd_sc_mcu7t5v0__dffrnq_1
*CAP
1 *1278:A1 1.43244e-05
2 *1296:A1 0.000440728
3 *1313:A1 0.000173386
4 *1280:A1 0.000177258
5 *1264:A4 7.60372e-05
6 *1474:Q 0.000267513
7 *354:48 0.00103694
8 *354:38 0.00061903
9 *354:23 0.000578619
10 *354:10 0.000563031
11 *1264:A3 *1264:A4 2.05921e-05
12 *1264:A3 *354:23 1.73887e-05
13 *1278:A2 *1280:A1 0
14 *1279:B *354:48 0.000188733
15 *1281:B *1280:A1 9.14083e-05
16 *1299:A1 *1280:A1 3.95711e-05
17 *1299:A1 *354:23 0.000110986
18 *1321:A1 *1264:A4 0.000317503
19 *1321:A1 *1278:A1 1.72625e-05
20 *1321:A1 *1280:A1 8.64173e-06
21 *1321:A1 *354:23 0.000571347
22 *1321:A1 *354:38 0.000107849
23 *1321:A1 *354:48 0
24 *1409:I *1296:A1 0
25 *1428:I *354:10 6.18888e-05
26 *1474:RN *354:23 6.91347e-05
27 *141:29 *1313:A1 0
28 *141:29 *354:48 0.000202252
29 *142:36 *1280:A1 6.43339e-05
30 *253:42 *1280:A1 1.14293e-05
31 *253:42 *1313:A1 0.000215472
32 *253:42 *354:38 0
33 *253:42 *354:48 0.000604022
34 *253:65 *1313:A1 0.00032464
35 *253:65 *354:48 1.66121e-06
36 *296:61 *354:10 0
37 *308:82 *1280:A1 4.58601e-06
*RES
1 *1474:Q *354:10 15.4 
2 *354:10 *1264:A4 5.336 
3 *354:10 *354:23 6.78 
4 *354:23 *1280:A1 10.216 
5 *354:23 *354:38 5.792 
6 *354:38 *354:48 9.06 
7 *354:48 *1313:A1 10.672 
8 *354:48 *1296:A1 11.964 
9 *354:38 *1278:A1 4.728 
*END

*D_NET *355 0.000453052
*CONN
*I *1167:I I *D gf180mcu_fd_sc_mcu7t5v0__clkinv_1
*I *1475:Q O *D gf180mcu_fd_sc_mcu7t5v0__dffrnq_1
*CAP
1 *1167:I 0.000199122
2 *1475:Q 0.000199122
3 *1429:I *1167:I 0
4 *1475:RN *1167:I 5.48085e-05
*RES
1 *1475:Q *1167:I 10.368 
*END

*D_NET *356 0.00158456
*CONN
*I *1166:I I *D gf180mcu_fd_sc_mcu7t5v0__clkinv_1
*I *1293:A2 I *D gf180mcu_fd_sc_mcu7t5v0__nand3_1
*I *1476:Q O *D gf180mcu_fd_sc_mcu7t5v0__dffrnq_1
*CAP
1 *1166:I 0.000184359
2 *1293:A2 0.000209922
3 *1476:Q 0
4 *356:6 0.000394281
5 *1466:CLK *1293:A2 0.000562487
6 *1470:D *1293:A2 0
7 *1470:CLK *1166:I 0.000104176
8 *1470:CLK *1293:A2 1.0115e-05
9 *1520:I *1166:I 3.50638e-06
10 *140:8 *1166:I 4.88658e-05
11 *140:8 *1293:A2 6.68508e-05
12 *350:25 *1166:I 0
*RES
1 *1476:Q *356:6 9 
2 *356:6 *1293:A2 11.128 
3 *356:6 *1166:I 10.368 
*END

*D_NET *357 0.0017669
*CONN
*I *1165:I I *D gf180mcu_fd_sc_mcu7t5v0__clkinv_1
*I *1289:A1 I *D gf180mcu_fd_sc_mcu7t5v0__nand3_1
*I *1477:Q O *D gf180mcu_fd_sc_mcu7t5v0__dffrnq_1
*CAP
1 *1165:I 0
2 *1289:A1 0.000100566
3 *1477:Q 0.000159766
4 *357:10 0.000260333
5 *1291:S *1289:A1 0.000333388
6 *1291:S *357:10 0.000206333
7 *1293:A1 *357:10 8.23984e-05
8 *1310:A1 *1289:A1 0.00025069
9 *1466:D *357:10 0.000204929
10 *1466:CLK *1289:A1 5.87561e-06
11 *1476:RN *1289:A1 7.91349e-05
12 *139:10 *1289:A1 6.03817e-05
13 *139:10 *357:10 9.75543e-06
14 *310:66 *1289:A1 1.11891e-05
15 *319:62 *357:10 2.15998e-06
*RES
1 *1477:Q *357:10 10.52 
2 *357:10 *1289:A1 10.52 
3 *357:10 *1165:I 9 
*END

*D_NET *358 0.00894973
*CONN
*I *1246:B I *D gf180mcu_fd_sc_mcu7t5v0__oai31_1
*I *1244:A2 I *D gf180mcu_fd_sc_mcu7t5v0__nand2_1
*I *1185:I I *D gf180mcu_fd_sc_mcu7t5v0__clkinv_1
*I *1502:D I *D gf180mcu_fd_sc_mcu7t5v0__dffsnq_1
*I *1236:A2 I *D gf180mcu_fd_sc_mcu7t5v0__nor2_1
*I *1238:A3 I *D gf180mcu_fd_sc_mcu7t5v0__or3_1
*I *1237:A3 I *D gf180mcu_fd_sc_mcu7t5v0__nor3_1
*I *1504:Q O *D gf180mcu_fd_sc_mcu7t5v0__dffsnq_1
*CAP
1 *1246:B 9.15472e-05
2 *1244:A2 0.000388307
3 *1185:I 0
4 *1502:D 0.000175976
5 *1236:A2 0
6 *1238:A3 0.000111947
7 *1237:A3 5.08731e-05
8 *1504:Q 0
9 *358:47 0.000529333
10 *358:43 0.00105725
11 *358:23 0.000175043
12 *358:12 0.000277651
13 *358:10 0.000783543
14 *358:6 0.000395818
15 *1246:B *365:14 1.97747e-05
16 *1246:B *365:20 9.88736e-06
17 *358:10 *359:27 0
18 *1237:A1 *1238:A3 4.09047e-05
19 *1237:A1 *358:23 4.70092e-05
20 *1237:A2 *1237:A3 0.000310356
21 *1237:A2 *358:12 0.000140167
22 *1237:A2 *358:23 8.8608e-05
23 *1243:A2 *1502:D 0.000113131
24 *1243:A3 *1246:B 2.96621e-05
25 *1248:A3 *358:10 7.6687e-05
26 *1248:A3 *358:12 9.74225e-05
27 *1248:A3 *358:43 0.000134564
28 *1249:A2 *358:47 8.64281e-06
29 *1249:B *1502:D 8.02751e-06
30 *1261:A2 *358:47 0.000149555
31 *1502:CLK *1502:D 3.08902e-05
32 *1531:I *358:43 0.000740059
33 *158:17 *1238:A3 0.000158878
34 *158:17 *358:23 7.02696e-05
35 *206:6 *1237:A3 8.18373e-05
36 *211:16 *1237:A3 2.25107e-05
37 *211:16 *358:12 0.000146479
38 *215:8 *1244:A2 4.42172e-05
39 *215:8 *358:47 3.50638e-06
40 *217:16 *1246:B 0.000161652
41 *217:16 *358:10 0.000807932
42 *218:12 *358:43 0.0005755
43 *294:52 *1246:B 8.06717e-06
44 *311:10 *358:10 3.56917e-05
45 *319:30 *358:12 0.000591443
46 *319:30 *358:43 0.000111867
47 *327:67 *1238:A3 4.724e-05
*RES
1 *1504:Q *358:6 9 
2 *358:6 *358:10 7.16 
3 *358:10 *358:12 2.508 
4 *358:12 *1237:A3 5.336 
5 *358:12 *358:23 5.336 
6 *358:23 *1238:A3 10.14 
7 *358:23 *1236:A2 9 
8 *358:10 *358:43 9.44 
9 *358:43 *358:47 6.704 
10 *358:47 *1502:D 5.868 
11 *358:47 *1185:I 4.5 
12 *358:43 *1244:A2 10.9 
13 *358:6 *1246:B 9.76 
*END

*D_NET *359 0.00758642
*CONN
*I *1244:A1 I *D gf180mcu_fd_sc_mcu7t5v0__nand2_1
*I *1248:A1 I *D gf180mcu_fd_sc_mcu7t5v0__nor3_1
*I *1184:I I *D gf180mcu_fd_sc_mcu7t5v0__clkinv_1
*I *1243:A1 I *D gf180mcu_fd_sc_mcu7t5v0__and4_1
*I *1247:A1 I *D gf180mcu_fd_sc_mcu7t5v0__nor2_1
*I *1502:Q O *D gf180mcu_fd_sc_mcu7t5v0__dffsnq_1
*CAP
1 *1244:A1 6.11907e-05
2 *1248:A1 0
3 *1184:I 0.000139099
4 *1243:A1 0.000138262
5 *1247:A1 0.000507867
6 *1502:Q 0.000118271
7 *359:42 0.000181194
8 *359:27 0.00044568
9 *359:8 0.00102106
10 *359:6 0.000427331
11 *1244:A1 *360:29 2.98535e-05
12 *1247:A1 *365:20 0
13 *359:8 *360:29 4.03461e-05
14 *1243:A2 *1243:A1 9.26705e-05
15 *1243:A3 *1247:A1 0.000112284
16 *1243:A3 *359:8 3.26577e-05
17 *1247:A2 *1247:A1 0.000422916
18 *1249:B *1243:A1 0.000206717
19 *1272:A2 *1184:I 6.3307e-05
20 *1272:A2 *359:42 3.6043e-05
21 *1495:D *359:8 0
22 *1502:CLK *1243:A1 0.000148889
23 *1504:D *1184:I 2.62033e-05
24 *1504:CLK *1243:A1 2.22657e-05
25 *211:16 *1184:I 2.23477e-05
26 *211:20 *1184:I 0.000154451
27 *211:20 *359:42 0.000193933
28 *235:6 *359:8 2.73945e-05
29 *269:16 *1244:A1 6.12832e-05
30 *269:16 *359:8 0.000418645
31 *269:32 *1247:A1 0.000320783
32 *269:32 *359:8 0.000512303
33 *294:58 *1243:A1 0.000380904
34 *294:58 *359:27 0.0011196
35 *311:10 *359:27 0.00010067
36 *358:10 *359:27 0
*RES
1 *1502:Q *359:6 5.184 
2 *359:6 *359:8 2.812 
3 *359:8 *1247:A1 8.68 
4 *359:8 *359:27 7.464 
5 *359:27 *1243:A1 11.432 
6 *359:27 *359:42 5.032 
7 *359:42 *1184:I 14.868 
8 *359:42 *1248:A1 4.5 
9 *359:6 *1244:A1 5.032 
*END

*D_NET *360 0.00867469
*CONN
*I *1245:A1 I *D gf180mcu_fd_sc_mcu7t5v0__nor3_1
*I *1288:I1 I *D gf180mcu_fd_sc_mcu7t5v0__mux2_2
*I *1268:A1 I *D gf180mcu_fd_sc_mcu7t5v0__xor2_1
*I *1343:A1 I *D gf180mcu_fd_sc_mcu7t5v0__oai32_1
*I *1500:D I *D gf180mcu_fd_sc_mcu7t5v0__dffsnq_1
*I *1503:Q O *D gf180mcu_fd_sc_mcu7t5v0__dffsnq_1
*CAP
1 *1245:A1 5.99351e-05
2 *1288:I1 0.000966413
3 *1268:A1 0.000344072
4 *1343:A1 0
5 *1500:D 9.11008e-05
6 *1503:Q 0.000667916
7 *360:31 0.000344072
8 *360:29 0.0013027
9 *360:23 0.000838326
10 *360:8 0.00120112
11 *1288:I1 *1187:I 0.0002988
12 *1244:A1 *360:29 2.98535e-05
13 *1245:A3 *360:29 5.76373e-06
14 *1268:A2 *360:8 0
15 *1268:A2 *360:23 0
16 *1269:A2 *1245:A1 0.000145457
17 *1269:A2 *360:23 0.000333512
18 *1269:A2 *360:29 2.80809e-05
19 *1339:A2 *360:23 0
20 *1340:A2 *360:29 1.75634e-05
21 *1343:A2 *1268:A1 0.000958182
22 *1343:B1 *1268:A1 3.73627e-05
23 *1468:D *1288:I1 6.77492e-05
24 *1495:RN *1288:I1 0
25 *1500:CLK *360:8 2.333e-05
26 *1500:CLK *360:23 2.57058e-06
27 *1528:I *360:8 0.000147126
28 *10:12 *360:8 2.35766e-05
29 *157:24 *1268:A1 6.77492e-05
30 *157:24 *360:23 2.05156e-05
31 *214:10 *360:29 0
32 *235:6 *1268:A1 2.40654e-06
33 *235:6 *360:29 0.000555104
34 *269:16 *360:23 1.38714e-05
35 *269:16 *360:29 4.52258e-06
36 *294:44 *1288:I1 0
37 *297:67 *1268:A1 0
38 *297:67 *1288:I1 0
39 *318:31 *360:8 3.55889e-05
40 *359:8 *360:29 4.03461e-05
*RES
1 *1503:Q *360:8 8.756 
2 *360:8 *1500:D 5.032 
3 *360:8 *360:23 3.344 
4 *360:23 *360:29 7.388 
5 *360:29 *360:31 4.5 
6 *360:31 *1343:A1 4.5 
7 *360:31 *1268:A1 7.92 
8 *360:29 *1288:I1 14.928 
9 *360:23 *1245:A1 5.108 
*END

*D_NET *361 0.000821484
*CONN
*I *1183:I I *D gf180mcu_fd_sc_mcu7t5v0__clkinv_1
*I *1500:Q O *D gf180mcu_fd_sc_mcu7t5v0__dffsnq_1
*CAP
1 *1183:I 0.00027652
2 *1500:Q 0.00027652
3 *1452:D *1183:I 0
4 *1453:D *1183:I 3.28611e-05
5 *1500:SETN *1183:I 8.18282e-05
6 *297:61 *1183:I 0.000111867
7 *315:43 *1183:I 4.18875e-05
*RES
1 *1500:Q *1183:I 20.28 
*END

*D_NET *362 0.00389963
*CONN
*I *1273:A1 I *D gf180mcu_fd_sc_mcu7t5v0__nand2_1
*I *1353:B2 I *D gf180mcu_fd_sc_mcu7t5v0__aoi22_1
*I *1240:A1 I *D gf180mcu_fd_sc_mcu7t5v0__nor2_1
*I *1241:A2 I *D gf180mcu_fd_sc_mcu7t5v0__or3_1
*I *1492:Q O *D gf180mcu_fd_sc_mcu7t5v0__dffrnq_1
*CAP
1 *1273:A1 0
2 *1353:B2 0
3 *1240:A1 8.64272e-05
4 *1241:A2 0.000162365
5 *1492:Q 0.000494656
6 *362:14 0.000452689
7 *362:12 0.000390129
8 *362:10 0.000680889
9 *1240:A1 *1240:A2 0.000201948
10 *1240:A1 *363:31 4.24903e-05
11 *1240:A1 *366:35 0.000193933
12 *1241:A2 *1347:B 8.25105e-05
13 *1241:A2 *363:35 4.59004e-05
14 *1241:A2 *364:18 5.38563e-06
15 *1241:A2 *366:35 3.07734e-05
16 *362:10 *364:10 0.000246939
17 *362:12 *364:10 1.34641e-06
18 *362:12 *364:12 3.86333e-05
19 *362:14 *364:12 2.331e-05
20 *362:14 *364:18 7.05334e-06
21 *1353:A2 *1240:A1 8.55242e-05
22 *1354:A2 *1240:A1 8.6555e-05
23 *1492:CLK *1240:A1 0.000493315
24 *207:25 *362:10 0
25 *207:25 *362:12 0
26 *207:25 *362:14 0
27 *270:22 *1240:A1 0
28 *271:19 *1241:A2 8.4137e-06
29 *271:19 *362:14 1.27047e-05
30 *348:18 *362:10 2.57332e-05
*RES
1 *1492:Q *362:10 12.648 
2 *362:10 *362:12 1.292 
3 *362:12 *362:14 1.14 
4 *362:14 *1241:A2 9.912 
5 *362:14 *1240:A1 11.052 
6 *362:12 *1353:B2 9 
7 *362:10 *1273:A1 9 
*END

*D_NET *363 0.00761748
*CONN
*I *1241:A1 I *D gf180mcu_fd_sc_mcu7t5v0__or3_1
*I *1351:B I *D gf180mcu_fd_sc_mcu7t5v0__oai21_1
*I *1271:A1 I *D gf180mcu_fd_sc_mcu7t5v0__aoi211_1
*I *1186:I I *D gf180mcu_fd_sc_mcu7t5v0__clkinv_1
*I *1493:Q O *D gf180mcu_fd_sc_mcu7t5v0__dffrnq_1
*CAP
1 *1241:A1 0
2 *1351:B 0.000215659
3 *1271:A1 6.13348e-05
4 *1186:I 0.000761356
5 *1493:Q 8.44778e-05
6 *363:35 0.000901579
7 *363:31 0.000772672
8 *363:8 0.000993922
9 *1186:I *366:12 8.293e-05
10 *1186:I *366:35 0.000736905
11 *363:31 *1347:B 8.25105e-05
12 *363:31 *364:18 0.000185257
13 *363:31 *366:35 0.000534199
14 *363:35 *364:18 8.53637e-06
15 *1240:A1 *363:31 4.24903e-05
16 *1241:A2 *363:35 4.59004e-05
17 *1266:A2 *1271:A1 2.22758e-05
18 *1271:C *1271:A1 9.26705e-05
19 *1272:A2 *1351:B 1.33594e-05
20 *1338:A2 *363:35 0.000140124
21 *1341:A1 *1186:I 0.000257656
22 *1341:B1 *1186:I 5.55321e-05
23 *1341:B2 *1186:I 0
24 *1342:A1 *1186:I 4.04878e-05
25 *1342:A2 *1186:I 5.09383e-06
26 *1342:B2 *1186:I 0.000402298
27 *1351:A1 *1271:A1 0
28 *1351:A1 *363:35 0
29 *1465:CLK *1186:I 0
30 *1492:CLK *363:31 0.000369754
31 *1493:RN *1186:I 0.000139947
32 *1493:RN *363:8 2.44046e-05
33 *1493:RN *363:31 4.61098e-05
34 *211:10 *363:35 1.74176e-05
35 *211:16 *1351:B 3.08902e-05
36 *211:16 *363:35 8.64281e-06
37 *212:23 *1271:A1 0.000222333
38 *212:23 *363:35 0.000174563
39 *231:29 *1351:B 2.41898e-05
40 *270:22 *1186:I 1.99952e-05
41 *271:19 *363:35 0
*RES
1 *1493:Q *363:8 5.108 
2 *363:8 *1186:I 20.188 
3 *363:8 *363:31 2.508 
4 *363:31 *363:35 8.072 
5 *363:35 *1271:A1 9.76 
6 *363:35 *1351:B 10.064 
7 *363:31 *1241:A1 4.5 
*END

*D_NET *364 0.00568447
*CONN
*I *1345:A1 I *D gf180mcu_fd_sc_mcu7t5v0__and2_1
*I *1240:A2 I *D gf180mcu_fd_sc_mcu7t5v0__nor2_1
*I *1347:B I *D gf180mcu_fd_sc_mcu7t5v0__oai21_1
*I *1241:A3 I *D gf180mcu_fd_sc_mcu7t5v0__or3_1
*I *1494:Q O *D gf180mcu_fd_sc_mcu7t5v0__dffrnq_1
*CAP
1 *1345:A1 6.21532e-05
2 *1240:A2 3.96914e-05
3 *1347:B 0.000135554
4 *1241:A3 8.83298e-05
5 *1494:Q 0.000713554
6 *364:18 0.000432939
7 *364:12 0.000572827
8 *364:10 0.00109979
9 *1240:A2 *366:35 2.05156e-05
10 *1241:A3 *366:35 9.00908e-06
11 *1347:B *366:35 6.60302e-05
12 *364:18 *366:35 5.87247e-05
13 *1240:A1 *1240:A2 0.000201948
14 *1241:A2 *1347:B 8.25105e-05
15 *1241:A2 *364:18 5.38563e-06
16 *1345:A2 *1345:A1 0.000262008
17 *1354:A2 *1240:A2 0.000502835
18 *1469:D *364:10 6.77492e-05
19 *1492:CLK *1347:B 0.000407323
20 *1494:RN *364:10 0
21 *237:8 *1345:A1 0.000262008
22 *310:96 *364:10 0
23 *348:18 *364:10 0
24 *348:24 *364:10 0
25 *362:10 *364:10 0.000246939
26 *362:12 *364:10 1.34641e-06
27 *362:12 *364:12 3.86333e-05
28 *362:14 *364:12 2.331e-05
29 *362:14 *364:18 7.05334e-06
30 *363:31 *1347:B 8.25105e-05
31 *363:31 *364:18 0.000185257
32 *363:35 *364:18 8.53637e-06
*RES
1 *1494:Q *364:10 14.016 
2 *364:10 *364:12 2.052 
3 *364:12 *364:18 5.868 
4 *364:18 *1241:A3 5.032 
5 *364:18 *1347:B 6.248 
6 *364:12 *1240:A2 10.292 
7 *364:10 *1345:A1 10.444 
*END

*D_NET *365 0.00675644
*CONN
*I *1187:I I *D gf180mcu_fd_sc_mcu7t5v0__clkinv_1
*I *1246:A1 I *D gf180mcu_fd_sc_mcu7t5v0__oai31_1
*I *1239:A1 I *D gf180mcu_fd_sc_mcu7t5v0__nor3_1
*I *1349:A1 I *D gf180mcu_fd_sc_mcu7t5v0__nand2_1
*I *1495:Q O *D gf180mcu_fd_sc_mcu7t5v0__dffrnq_1
*CAP
1 *1187:I 0.000200798
2 *1246:A1 0
3 *1239:A1 0
4 *1349:A1 0.000414087
5 *1495:Q 0.000385701
6 *365:20 0.000598215
7 *365:14 0.000683417
8 *365:8 0.00108579
9 *1349:A1 *366:45 0.00104194
10 *365:20 *1246:A2 6.20323e-05
11 *365:20 *366:45 4.26192e-05
12 *1243:A3 *365:14 7.36325e-05
13 *1243:A3 *365:20 0.000240657
14 *1246:B *365:14 1.97747e-05
15 *1246:B *365:20 9.88736e-06
16 *1247:A1 *365:20 0
17 *1288:I1 *1187:I 0.0002988
18 *1348:A1 *1349:A1 5.27532e-05
19 *1352:A1 *1349:A1 3.42922e-06
20 *1353:A2 *1349:A1 0.000464498
21 *1494:D *1349:A1 6.42585e-05
22 *1495:D *1187:I 2.57332e-05
23 *1495:D *365:14 0.000147305
24 *1495:CLK *365:14 2.22758e-05
25 *231:14 *1349:A1 1.34641e-06
26 *235:18 *1349:A1 0
27 *269:32 *1349:A1 8.06717e-06
28 *269:34 *1349:A1 0
29 *270:22 *1187:I 0
30 *270:22 *365:14 0.00034129
31 *270:22 *365:20 5.71282e-05
32 *294:12 *1349:A1 0.000239048
33 *294:31 *365:20 1.66121e-06
34 *294:52 *365:14 9.935e-05
35 *311:58 *365:8 7.09482e-05
*RES
1 *1495:Q *365:8 11.508 
2 *365:8 *365:14 8.756 
3 *365:14 *365:20 1.748 
4 *365:20 *1349:A1 17.908 
5 *365:20 *1239:A1 4.5 
6 *365:14 *1246:A1 4.5 
7 *365:8 *1187:I 10.748 
*END

*D_NET *366 0.0102851
*CONN
*I *1346:A1 I *D gf180mcu_fd_sc_mcu7t5v0__nand2_1
*I *1246:A2 I *D gf180mcu_fd_sc_mcu7t5v0__oai31_1
*I *1239:A2 I *D gf180mcu_fd_sc_mcu7t5v0__nor3_1
*I *1188:I I *D gf180mcu_fd_sc_mcu7t5v0__clkinv_1
*I *1496:Q O *D gf180mcu_fd_sc_mcu7t5v0__dffrnq_1
*CAP
1 *1346:A1 0
2 *1246:A2 0.000173825
3 *1239:A2 0
4 *1188:I 0
5 *1496:Q 0.000992378
6 *366:45 0.000506633
7 *366:35 0.00137693
8 *366:12 0.0020365
9 *1246:A2 *1246:A3 9.63114e-05
10 *1186:I *366:12 8.293e-05
11 *1186:I *366:35 0.000736905
12 *1240:A1 *366:35 0.000193933
13 *1240:A2 *366:35 2.05156e-05
14 *1241:A2 *366:35 3.07734e-05
15 *1241:A3 *366:35 9.00908e-06
16 *1277:B *366:12 0
17 *1292:I0 *366:12 0.000659793
18 *1338:A2 *366:35 0
19 *1342:A1 *366:35 0.000175231
20 *1342:B2 *366:12 1.01664e-05
21 *1347:B *366:35 6.60302e-05
22 *1348:A2 *1246:A2 0
23 *1349:A1 *366:45 0.00104194
24 *1353:A2 *366:45 1.04712e-05
25 *1354:A1 *366:12 3.49712e-05
26 *1354:A2 *366:35 2.17248e-05
27 *1492:CLK *366:35 2.28313e-05
28 *1493:RN *366:35 0
29 *1494:D *366:45 0.000545575
30 *1501:D *366:12 1.25609e-05
31 *207:10 *366:35 0
32 *210:6 *366:35 0.00016204
33 *211:10 *366:35 3.44928e-05
34 *231:14 *366:45 7.55407e-05
35 *237:19 *366:12 4.1019e-05
36 *237:34 *366:12 3.34531e-06
37 *269:34 *366:35 0.000246194
38 *270:22 *366:12 2.1182e-05
39 *294:12 *366:35 1.07237e-05
40 *294:12 *366:45 0.00012926
41 *294:31 *1246:A2 5.76749e-06
42 *294:31 *366:45 0
43 *319:30 *366:35 0
44 *363:31 *366:35 0.000534199
45 *364:18 *366:35 5.87247e-05
46 *365:20 *1246:A2 6.20323e-05
47 *365:20 *366:45 4.26192e-05
*RES
1 *1496:Q *366:12 19.884 
2 *366:12 *1188:I 4.5 
3 *366:12 *366:35 17.892 
4 *366:35 *366:45 13.028 
5 *366:45 *1239:A2 4.5 
6 *366:45 *1246:A2 6.02 
7 *366:35 *1346:A1 4.5 
*END

*D_NET *367 0.00987403
*CONN
*I *1246:A3 I *D gf180mcu_fd_sc_mcu7t5v0__oai31_1
*I *1239:A3 I *D gf180mcu_fd_sc_mcu7t5v0__nor3_1
*I *1353:A1 I *D gf180mcu_fd_sc_mcu7t5v0__aoi22_1
*I *1189:I I *D gf180mcu_fd_sc_mcu7t5v0__clkinv_1
*I *1497:Q O *D gf180mcu_fd_sc_mcu7t5v0__dffrnq_1
*CAP
1 *1246:A3 0.000136453
2 *1239:A3 0
3 *1353:A1 0
4 *1189:I 4.89069e-05
5 *1497:Q 0.000128992
6 *367:38 0.00070008
7 *367:23 0.0015076
8 *367:8 0.00112187
9 *1246:A2 *1246:A3 9.63114e-05
10 *1348:A1 *367:38 1.3174e-05
11 *1354:A2 *367:23 0.000106816
12 *1465:D *1189:I 0.000111867
13 *1465:D *367:23 4.52788e-06
14 *1465:CLK *1189:I 0.000111867
15 *294:31 *1246:A3 0.000255714
16 *301:10 *367:8 0
17 *301:10 *367:23 0
18 *301:12 *367:23 0.00330534
19 *301:12 *367:38 0.00216741
20 *311:31 *1246:A3 4.60055e-05
21 *311:31 *367:38 1.109e-05
22 *319:62 *367:8 0
23 *319:62 *367:23 0
*RES
1 *1497:Q *367:8 9.684 
2 *367:8 *1189:I 9.684 
3 *367:8 *367:23 13.316 
4 *367:23 *1353:A1 13.5 
5 *367:23 *367:38 10.124 
6 *367:38 *1239:A3 9 
7 *367:38 *1246:A3 10.444 
*END

*D_NET *368 0.00234777
*CONN
*I *1310:A3 I *D gf180mcu_fd_sc_mcu7t5v0__and3_1
*I *1293:A3 I *D gf180mcu_fd_sc_mcu7t5v0__nand3_1
*I *1289:A3 I *D gf180mcu_fd_sc_mcu7t5v0__nand3_1
*I *1501:Q O *D gf180mcu_fd_sc_mcu7t5v0__dffrnq_1
*CAP
1 *1310:A3 7.39138e-05
2 *1293:A3 0
3 *1289:A3 0
4 *1501:Q 3.23008e-05
5 *368:19 0.000209515
6 *368:8 0.000167902
7 *1310:A1 *1310:A3 5.40519e-05
8 *1466:CLK *1310:A3 0.000780633
9 *1476:RN *1310:A3 0.000494029
10 *349:25 *368:8 0.000148925
11 *349:25 *368:19 0.000386498
*RES
1 *1501:Q *368:8 9.38 
2 *368:8 *1289:A3 9 
3 *368:8 *368:19 5.64 
4 *368:19 *1293:A3 4.5 
5 *368:19 *1310:A3 6.552 
*END

*D_NET *369 0.00637872
*CONN
*I *1227:A1 I *D gf180mcu_fd_sc_mcu7t5v0__nand2_1
*I *1228:A2 I *D gf180mcu_fd_sc_mcu7t5v0__nand4_1
*I *1161:I I *D gf180mcu_fd_sc_mcu7t5v0__clkinv_1
*I *1484:Q O *D gf180mcu_fd_sc_mcu7t5v0__dffrnq_1
*CAP
1 *1227:A1 0.000149169
2 *1228:A2 0.000188741
3 *1161:I 0.000665306
4 *1484:Q 0.000463776
5 *369:12 0.00108511
6 *369:8 0.000844012
7 *1161:I *1202:A1 0
8 *1161:I *371:10 1.61663e-05
9 *1227:A1 *1232:A1 0.000317494
10 *1228:A2 *370:16 0.00011528
11 *1228:A2 *371:10 1.0477e-05
12 *1203:C *1161:I 4.52262e-05
13 *1226:A2 *1228:A2 0.000141897
14 *1227:A2 *1227:A1 0.000243404
15 *1232:A2 *1227:A1 0.000185898
16 *1233:A3 *1227:A1 0.000101621
17 *1234:A2 *1161:I 8.97311e-05
18 *1234:A2 *1228:A2 8.18373e-05
19 *1485:D *1227:A1 0.000715774
20 *1513:I *1161:I 6.61154e-05
21 *1519:I *1161:I 2.84711e-05
22 *199:6 *1228:A2 0
23 *199:17 *369:8 4.06416e-05
24 *199:17 *369:12 0.000166914
25 *199:32 *369:8 0.000471574
26 *199:45 *369:8 0.000124593
27 *300:31 *1161:I 0
28 *300:31 *369:12 1.94858e-05
*RES
1 *1484:Q *369:8 13.636 
2 *369:8 *369:12 6.248 
3 *369:12 *1161:I 17.984 
4 *369:12 *1228:A2 6.324 
5 *369:8 *1227:A1 12.116 
*END

*D_NET *370 0.00644156
*CONN
*I *1232:A1 I *D gf180mcu_fd_sc_mcu7t5v0__xor2_1
*I *1228:A1 I *D gf180mcu_fd_sc_mcu7t5v0__nand4_1
*I *1199:A1 I *D gf180mcu_fd_sc_mcu7t5v0__aoi22_1
*I *1200:A1 I *D gf180mcu_fd_sc_mcu7t5v0__oai221_1
*I *1485:Q O *D gf180mcu_fd_sc_mcu7t5v0__dffrnq_1
*CAP
1 *1232:A1 2.72811e-05
2 *1228:A1 1.79476e-05
3 *1199:A1 0
4 *1200:A1 9.2482e-05
5 *1485:Q 0.00046554
6 *370:16 0.000657595
7 *370:12 0.000786433
8 *370:8 0.000696194
9 *1199:A2 *1200:A1 0.00032464
10 *1199:B2 *1200:A1 5.27013e-05
11 *1200:A2 *1200:A1 1.02578e-05
12 *1200:C *1200:A1 1.15275e-05
13 *1200:C *370:16 0
14 *1203:A2 *1200:A1 0
15 *1226:A2 *1228:A1 1.15275e-05
16 *1227:A1 *1232:A1 0.000317494
17 *1227:A2 *1232:A1 0.000255714
18 *1228:A2 *370:16 0.00011528
19 *1233:A1 *370:16 5.77833e-05
20 *1234:A2 *370:16 0.00159312
21 *1235:A2 *370:16 0
22 *1235:A3 *370:16 3.07734e-05
23 *1389:I *370:8 0.000322805
24 *1389:I *370:12 8.74341e-05
25 *1450:CLK *1200:A1 1.53689e-05
26 *1450:CLK *370:16 4.58601e-06
27 *1485:CLK *1228:A1 2.22758e-05
28 *1485:CLK *370:16 7.42484e-05
29 *1513:I *370:16 2.485e-05
30 *199:17 *370:8 0
31 *199:17 *370:12 0
32 *199:32 *370:8 0
33 *199:45 *370:8 0
34 *300:25 *370:16 0.000213955
35 *300:27 *370:16 0.000115954
36 *300:31 *370:12 3.57979e-05
*RES
1 *1485:Q *370:8 13.028 
2 *370:8 *370:12 5.944 
3 *370:12 *370:16 6.536 
4 *370:16 *1200:A1 5.64 
5 *370:16 *1199:A1 4.5 
6 *370:12 *1228:A1 4.728 
7 *370:8 *1232:A1 9.836 
*END

*D_NET *371 0.00199414
*CONN
*I *1202:A1 I *D gf180mcu_fd_sc_mcu7t5v0__xor2_1
*I *1160:I I *D gf180mcu_fd_sc_mcu7t5v0__clkinv_1
*I *1486:Q O *D gf180mcu_fd_sc_mcu7t5v0__dffrnq_1
*CAP
1 *1202:A1 0.000289883
2 *1160:I 0.00016361
3 *1486:Q 0.000309838
4 *371:10 0.000763331
5 *1161:I *1202:A1 0
6 *1161:I *371:10 1.61663e-05
7 *1202:A2 *1202:A1 4.58601e-06
8 *1228:A2 *371:10 1.0477e-05
9 *1440:I *1202:A1 0.000336522
10 *1486:RN *371:10 0
11 *300:31 *1160:I 4.81095e-05
12 *300:31 *371:10 5.16188e-05
*RES
1 *1486:Q *371:10 11.128 
2 *371:10 *1160:I 10.292 
3 *371:10 *1202:A1 11.356 
*END

*D_NET *372 0.00587062
*CONN
*I *1203:B1 I *D gf180mcu_fd_sc_mcu7t5v0__aoi221_1
*I *1205:C1 I *D gf180mcu_fd_sc_mcu7t5v0__oai222_1
*I *1182:I I *D gf180mcu_fd_sc_mcu7t5v0__clkinv_1
*I *1336:A1 I *D gf180mcu_fd_sc_mcu7t5v0__nor2_1
*I *1487:Q O *D gf180mcu_fd_sc_mcu7t5v0__dffrnq_1
*CAP
1 *1203:B1 0.000239846
2 *1205:C1 0.000166118
3 *1182:I 0
4 *1336:A1 0.000170636
5 *1487:Q 0.000225626
6 *372:36 0.00116843
7 *372:23 0.000832188
8 *372:10 0.000465979
9 *1203:B1 *1199:B1 0.000251562
10 *1203:B1 *375:10 3.18726e-05
11 *1205:C1 *1205:B1 4.58601e-06
12 *1205:C1 *375:6 0
13 *1193:I *1336:A1 0
14 *1202:A2 *372:36 0
15 *1229:A1 *372:10 8.18373e-05
16 *1231:A1 *372:36 0
17 *1231:A2 *372:10 0
18 *1231:A3 *372:23 0
19 *1231:A3 *372:36 0
20 *1324:A2 *372:10 0.000275999
21 *1336:A2 *1336:A1 0
22 *1336:A2 *372:23 0
23 *1337:A4 *1336:A1 0
24 *1380:I *372:36 0.000181447
25 *1388:I *1336:A1 0.000369754
26 *1388:I *372:10 2.73912e-05
27 *1440:I *372:36 0
28 *1490:RN *1205:C1 8.55242e-05
29 *1490:RN *372:36 0.000379283
30 *27:10 *1336:A1 2.98535e-05
31 *134:8 *372:36 0
32 *134:10 *372:36 0
33 *179:18 *1203:B1 0
34 *179:38 *1203:B1 0
35 *202:8 *372:10 2.51117e-05
36 *259:10 *1336:A1 0.00033338
37 *259:10 *372:10 0.000171927
38 *302:10 *372:36 0
39 *316:62 *1336:A1 1.46098e-05
40 *316:73 *1336:A1 8.0338e-05
41 *316:73 *372:23 5.25777e-05
42 *316:73 *372:36 0.000204742
*RES
1 *1487:Q *372:10 11.28 
2 *372:10 *1336:A1 11.128 
3 *372:10 *372:23 0.684 
4 *372:23 *1182:I 9 
5 *372:23 *372:36 10.428 
6 *372:36 *1205:C1 5.488 
7 *372:36 *1203:B1 15.248 
*END

*D_NET *373 0.00672748
*CONN
*I *1326:A2 I *D gf180mcu_fd_sc_mcu7t5v0__nand3_1
*I *1334:A1 I *D gf180mcu_fd_sc_mcu7t5v0__xnor2_1
*I *1325:A1 I *D gf180mcu_fd_sc_mcu7t5v0__nand2_1
*I *1327:A3 I *D gf180mcu_fd_sc_mcu7t5v0__nand4_1
*I *1198:A2 I *D gf180mcu_fd_sc_mcu7t5v0__xor2_1
*I *1488:Q O *D gf180mcu_fd_sc_mcu7t5v0__dffrnq_1
*CAP
1 *1326:A2 8.63324e-05
2 *1334:A1 0.000192379
3 *1325:A1 7.33481e-05
4 *1327:A3 0
5 *1198:A2 0.000373383
6 *1488:Q 1.54137e-05
7 *373:36 0.000529108
8 *373:12 0.000488198
9 *373:8 0.000467773
10 *373:6 0.000191324
11 *1198:A2 *1328:A1 0.00053309
12 *1198:A2 *374:27 0.000379283
13 *1326:A2 *1326:A1 3.00299e-05
14 *1326:A2 *1330:A1 2.6126e-05
15 *373:8 *1326:A1 3.67426e-05
16 *373:12 *1326:A1 1.72881e-05
17 *373:12 *374:40 5.30562e-05
18 *1193:I *1325:A1 2.05921e-05
19 *1193:I *1334:A1 5.61794e-05
20 *1325:A2 *1325:A1 0.00032464
21 *1325:A2 *1334:A1 5.4634e-05
22 *1326:A3 *1326:A2 3.23062e-05
23 *1326:A3 *373:6 5.22865e-05
24 *1326:A3 *373:8 9.32538e-05
25 *1327:A4 *373:8 5.22519e-05
26 *1327:A4 *373:12 0.000379274
27 *1329:A3 *1198:A2 0.00014967
28 *1330:A2 *1326:A2 8.55242e-05
29 *1333:A1 *1198:A2 0
30 *303:27 *1334:A1 0.000787845
31 *303:40 *373:36 0.00113406
32 *315:69 *1198:A2 0
33 *318:56 *373:36 1.20889e-05
34 *325:61 *1198:A2 0
35 *325:61 *373:12 0
*RES
1 *1488:Q *373:6 4.728 
2 *373:6 *373:8 0.836 
3 *373:8 *373:12 1.368 
4 *373:12 *1198:A2 17.148 
5 *373:12 *1327:A3 4.5 
6 *373:8 *373:36 11.964 
7 *373:36 *1325:A1 5.336 
8 *373:36 *1334:A1 6.704 
9 *373:6 *1326:A2 5.412 
*END

*D_NET *374 0.00763697
*CONN
*I *1326:A1 I *D gf180mcu_fd_sc_mcu7t5v0__nand3_1
*I *1201:B1 I *D gf180mcu_fd_sc_mcu7t5v0__aoi221_1
*I *1205:B1 I *D gf180mcu_fd_sc_mcu7t5v0__oai222_1
*I *1327:A2 I *D gf180mcu_fd_sc_mcu7t5v0__nand4_1
*I *1332:A1 I *D gf180mcu_fd_sc_mcu7t5v0__xor2_1
*I *1489:Q O *D gf180mcu_fd_sc_mcu7t5v0__dffrnq_1
*CAP
1 *1326:A1 0.000109612
2 *1201:B1 0.000169331
3 *1205:B1 0.000121476
4 *1327:A2 0
5 *1332:A1 0.000215684
6 *1489:Q 0.000136114
7 *374:44 0.000647633
8 *374:40 0.000571804
9 *374:27 0.000272701
10 *374:8 0.000519134
11 *1326:A1 *1327:A1 0.000548729
12 *374:40 *1327:A1 0.000269008
13 *1193:I *1332:A1 1.15312e-05
14 *1198:A2 *374:27 0.000379283
15 *1202:A2 *1201:B1 0.000727667
16 *1205:B2 *1201:B1 0.00032883
17 *1205:B2 *1205:B1 0.000131489
18 *1205:C1 *1205:B1 4.58601e-06
19 *1326:A2 *1326:A1 3.00299e-05
20 *1328:A2 *374:27 0.000131642
21 *1329:A3 *1332:A1 0.000278996
22 *1329:A3 *374:27 0.00020862
23 *1330:A2 *1326:A1 0.000144931
24 *1333:A1 *1332:A1 0.000255298
25 *1333:A1 *374:8 0
26 *1333:A2 *1332:A1 0.000254363
27 *1489:RN *1332:A1 8.29507e-05
28 *1489:RN *374:27 3.03414e-05
29 *1491:D *374:8 0
30 *152:25 *1201:B1 9.88736e-06
31 *153:27 *1205:B1 0.000477429
32 *292:72 *1201:B1 0.000148068
33 *292:72 *374:44 0.000115735
34 *315:69 *374:27 0
35 *315:71 *1332:A1 0
36 *315:71 *374:27 0
37 *318:56 *374:44 0.000196982
38 *373:8 *1326:A1 3.67426e-05
39 *373:12 *1326:A1 1.72881e-05
40 *373:12 *374:40 5.30562e-05
*RES
1 *1489:Q *374:8 9.684 
2 *374:8 *1332:A1 11.888 
3 *374:8 *374:27 6.552 
4 *374:27 *1327:A2 4.5 
5 *374:27 *374:40 1.368 
6 *374:40 *374:44 7.616 
7 *374:44 *1205:B1 10.444 
8 *374:44 *1201:B1 11.736 
9 *374:40 *1326:A1 6.096 
*END

*D_NET *375 0.00581662
*CONN
*I *1199:B1 I *D gf180mcu_fd_sc_mcu7t5v0__aoi22_1
*I *1205:A2 I *D gf180mcu_fd_sc_mcu7t5v0__oai222_1
*I *1327:A1 I *D gf180mcu_fd_sc_mcu7t5v0__nand4_1
*I *1330:A1 I *D gf180mcu_fd_sc_mcu7t5v0__xor2_1
*I *1490:Q O *D gf180mcu_fd_sc_mcu7t5v0__dffrnq_1
*CAP
1 *1199:B1 0.00032344
2 *1205:A2 0
3 *1327:A1 0.000252103
4 *1330:A1 0.00037707
5 *1490:Q 0
6 *375:10 0.000991023
7 *375:6 0.000442284
8 *375:4 0.000403874
9 *1199:B2 *1199:B1 0.000117921
10 *1202:A2 *375:6 0.000310356
11 *1203:A2 *1199:B1 0.000117412
12 *1203:B1 *1199:B1 0.000251562
13 *1203:B1 *375:10 3.18726e-05
14 *1203:B2 *1199:B1 6.1992e-06
15 *1203:B2 *375:10 0.000324241
16 *1205:A1 *1199:B1 5.05292e-05
17 *1205:B2 *375:6 2.6126e-05
18 *1205:C1 *375:6 0
19 *1205:C2 *375:10 0.000278996
20 *1206:A2 *1199:B1 8.64281e-06
21 *1234:A1 *1199:B1 0
22 *1326:A1 *1327:A1 0.000548729
23 *1326:A2 *1330:A1 2.6126e-05
24 *1326:A3 *1330:A1 7.24161e-06
25 *1330:A2 *1330:A1 0.000346418
26 *1331:A3 *1330:A1 0
27 *1490:RN *375:6 2.57058e-06
28 *1490:CLK *1330:A1 2.83038e-05
29 *1513:I *1199:B1 4.56413e-05
30 *302:10 *375:10 0
31 *318:56 *1330:A1 5.14313e-05
32 *318:56 *375:10 0.000177496
33 *325:55 *1330:A1 0
34 *325:61 *1330:A1 0
35 *374:40 *1327:A1 0.000269008
*RES
1 *1490:Q *375:4 4.5 
2 *375:4 *375:6 0.836 
3 *375:6 *375:10 8.072 
4 *375:10 *1330:A1 11.888 
5 *375:10 *1327:A1 11.432 
6 *375:6 *1205:A2 4.5 
7 *375:4 *1199:B1 16.312 
*END

*D_NET *376 0.00211837
*CONN
*I *1328:A1 I *D gf180mcu_fd_sc_mcu7t5v0__xor2_1
*I *1181:I I *D gf180mcu_fd_sc_mcu7t5v0__clkinv_1
*I *1491:Q O *D gf180mcu_fd_sc_mcu7t5v0__dffrnq_1
*CAP
1 *1328:A1 0.000218383
2 *1181:I 0.000147495
3 *1491:Q 6.86194e-05
4 *376:6 0.000434498
5 *1198:A1 *1328:A1 0.000447527
6 *1198:A1 *376:6 0.000255714
7 *1198:A2 *1328:A1 0.00053309
8 *1491:RN *376:6 1.30476e-05
9 *315:65 *376:6 0
10 *315:69 *1328:A1 0
*RES
1 *1491:Q *376:6 5.184 
2 *376:6 *1181:I 14.336 
3 *376:6 *1328:A1 16.084 
*END

*D_NET *377 0.00352137
*CONN
*I *1499:D I *D gf180mcu_fd_sc_mcu7t5v0__dffrnq_1
*I *1228:A3 I *D gf180mcu_fd_sc_mcu7t5v0__nand4_1
*I *1226:A1 I *D gf180mcu_fd_sc_mcu7t5v0__and2_1
*I *1498:Q O *D gf180mcu_fd_sc_mcu7t5v0__dffrnq_1
*CAP
1 *1499:D 0
2 *1228:A3 4.68131e-05
3 *1226:A1 0.000160839
4 *1498:Q 0.00029477
5 *377:16 0.000617654
6 *377:10 0.000704772
7 *1226:A2 *1226:A1 0.000164236
8 *1389:I *1228:A3 2.2499e-05
9 *1499:CLK *377:16 0.00011703
10 *164:10 *1228:A3 6.12449e-05
11 *164:10 *377:16 0.000278996
12 *201:8 *1228:A3 7.26556e-05
13 *201:8 *377:10 8.66733e-05
14 *201:8 *377:16 0.000799702
15 *201:14 *377:10 9.34825e-05
16 *300:31 *1228:A3 0
17 *300:31 *377:16 0
*RES
1 *1498:Q *377:10 16.008 
2 *377:10 *377:16 9.516 
3 *377:16 *1226:A1 10.14 
4 *377:16 *1228:A3 9.532 
5 *377:10 *1499:D 4.5 
*END

*D_NET *378 0.000780688
*CONN
*I *1190:I I *D gf180mcu_fd_sc_mcu7t5v0__clkinv_1
*I *1499:Q O *D gf180mcu_fd_sc_mcu7t5v0__dffrnq_1
*CAP
1 *1190:I 0.000244778
2 *1499:Q 0.000244778
3 *1389:I *1190:I 0.000251569
4 *1499:RN *1190:I 3.95622e-05
*RES
1 *1499:Q *1190:I 19.976 
*END

*D_NET *379 0.0050092
*CONN
*I *1359:A3 I *D gf180mcu_fd_sc_mcu7t5v0__nand3_1
*I *1211:B1 I *D gf180mcu_fd_sc_mcu7t5v0__oai22_1
*I *1357:A2 I *D gf180mcu_fd_sc_mcu7t5v0__xnor2_1
*I *1355:A1 I *D gf180mcu_fd_sc_mcu7t5v0__nor3_1
*I *1356:A2 I *D gf180mcu_fd_sc_mcu7t5v0__nand2_1
*I *1441:Q O *D gf180mcu_fd_sc_mcu7t5v0__dffrnq_1
*CAP
1 *1359:A3 7.31026e-05
2 *1211:B1 0.000510084
3 *1357:A2 0
4 *1355:A1 0.000136468
5 *1356:A2 0
6 *1441:Q 0.000252636
7 *379:25 0.000368012
8 *379:23 0.000924426
9 *379:21 0.00032947
10 *379:12 0.000326206
11 *1211:B1 *380:25 0.000358922
12 *1359:A3 *380:47 8.59272e-06
13 *379:12 *1356:A1 9.26705e-05
14 *379:12 *380:25 0
15 *379:12 *380:47 0
16 *379:21 *1356:A1 0.000147305
17 *379:21 *1359:A2 0.000175843
18 *379:21 *380:25 0
19 *379:23 *1357:A1 4.08125e-05
20 *379:23 *380:8 8.29574e-05
21 *379:23 *380:47 3.4631e-05
22 *379:25 *1357:A1 8.59147e-05
23 *1211:A1 *1211:B1 1.5015e-05
24 *1213:A2 *1211:B1 0
25 *1213:C *379:12 4.98282e-05
26 *1220:A2 *379:12 9.68523e-05
27 *1355:A2 *1355:A1 0.000458149
28 *1355:A3 *1355:A1 5.43087e-05
29 *1360:A2 *379:12 6.54913e-05
30 *1441:RN *1211:B1 0.000107848
31 *1441:RN *379:12 9.52854e-05
32 *1442:D *1355:A1 6.1619e-05
33 *1442:RN *1211:B1 5.67543e-05
34 *306:119 *1211:B1 0
*RES
1 *1441:Q *379:12 15.628 
2 *379:12 *1356:A2 4.5 
3 *379:12 *379:21 5.488 
4 *379:21 *379:23 1.596 
5 *379:23 *379:25 1.596 
6 *379:25 *1355:A1 10.596 
7 *379:25 *1357:A2 9 
8 *379:23 *1211:B1 13.18 
9 *379:21 *1359:A3 9.456 
*END

*D_NET *380 0.00451422
*CONN
*I *1359:A2 I *D gf180mcu_fd_sc_mcu7t5v0__nand3_1
*I *1356:A1 I *D gf180mcu_fd_sc_mcu7t5v0__nand2_1
*I *1211:A2 I *D gf180mcu_fd_sc_mcu7t5v0__oai22_1
*I *1210:A2 I *D gf180mcu_fd_sc_mcu7t5v0__nand2_1
*I *1357:A1 I *D gf180mcu_fd_sc_mcu7t5v0__xnor2_1
*I *1442:Q O *D gf180mcu_fd_sc_mcu7t5v0__dffrnq_1
*CAP
1 *1359:A2 0.000132401
2 *1356:A1 5.49824e-06
3 *1211:A2 0
4 *1210:A2 0.00022406
5 *1357:A1 0.000209068
6 *1442:Q 0
7 *380:47 0.000203097
8 *380:25 0.000665541
9 *380:8 0.000731348
10 *380:6 0.000145998
11 *1210:A2 *1212:B1 2.23385e-05
12 *1359:A2 *381:18 4.0765e-05
13 *1210:A1 *1210:A2 0.000142809
14 *1211:A1 *1210:A2 2.68479e-05
15 *1211:B1 *380:25 0.000358922
16 *1213:A1 *1210:A2 1.97747e-05
17 *1213:A2 *380:25 4.89622e-05
18 *1220:A2 *1356:A1 0.000209085
19 *1220:A2 *1359:A2 7.98484e-05
20 *1220:A2 *380:25 0
21 *1358:A3 *1357:A1 3.99555e-05
22 *1359:A3 *380:47 8.59272e-06
23 *1441:RN *1357:A1 0
24 *1441:RN *380:8 0
25 *1441:RN *380:47 0
26 *1442:RN *1357:A1 0.000436027
27 *280:6 *1359:A2 9.26705e-05
28 *306:119 *1357:A1 1.0477e-05
29 *379:12 *1356:A1 9.26705e-05
30 *379:12 *380:25 0
31 *379:12 *380:47 0
32 *379:21 *1356:A1 0.000147305
33 *379:21 *1359:A2 0.000175843
34 *379:21 *380:25 0
35 *379:23 *1357:A1 4.08125e-05
36 *379:23 *380:8 8.29574e-05
37 *379:23 *380:47 3.4631e-05
38 *379:25 *1357:A1 8.59147e-05
*RES
1 *1442:Q *380:6 9 
2 *380:6 *380:8 0.836 
3 *380:8 *1357:A1 11.28 
4 *380:8 *380:25 7.996 
5 *380:25 *1210:A2 15.096 
6 *380:25 *1211:A2 4.5 
7 *380:6 *380:47 5.032 
8 *380:47 *1356:A1 5.032 
9 *380:47 *1359:A2 5.944 
*END

*D_NET *381 0.00428989
*CONN
*I *1359:A1 I *D gf180mcu_fd_sc_mcu7t5v0__nand3_1
*I *1192:I I *D gf180mcu_fd_sc_mcu7t5v0__clkinv_1
*I *1212:B1 I *D gf180mcu_fd_sc_mcu7t5v0__oai22_1
*I *1443:Q O *D gf180mcu_fd_sc_mcu7t5v0__dffrnq_1
*CAP
1 *1359:A1 0
2 *1192:I 0
3 *1212:B1 0.000457771
4 *1443:Q 0.000401253
5 *381:18 0.000632519
6 *381:12 0.000576001
7 *1207:B1 *1212:B1 4.52262e-05
8 *1207:B2 *1212:B1 7.59633e-05
9 *1210:A2 *1212:B1 2.23385e-05
10 *1213:A1 *1212:B1 3.74244e-05
11 *1213:B *1212:B1 0
12 *1213:C *1212:B1 0.000114943
13 *1220:A1 *1212:B1 0
14 *1220:A1 *381:18 0
15 *1220:A2 *1212:B1 0.000195224
16 *1220:A2 *381:12 0.00014216
17 *1220:A2 *381:18 0.000120115
18 *1359:A2 *381:18 4.0765e-05
19 *1361:A2 *381:12 0
20 *1361:A2 *381:18 3.9992e-06
21 *1397:I *381:12 0.000553181
22 *166:6 *381:18 1.5015e-05
23 *280:6 *381:12 0.000701541
24 *280:6 *381:18 0.000154451
*RES
1 *1443:Q *381:12 17.604 
2 *381:12 *381:18 1.748 
3 *381:18 *1212:B1 8.3 
4 *381:18 *1192:I 4.5 
5 *381:12 *1359:A1 4.5 
*END

*D_NET *382 0.00654623
*CONN
*I *1191:I I *D gf180mcu_fd_sc_mcu7t5v0__clkinv_1
*I *1212:A2 I *D gf180mcu_fd_sc_mcu7t5v0__oai22_1
*I *1444:Q O *D gf180mcu_fd_sc_mcu7t5v0__dffrnq_1
*CAP
1 *1191:I 0
2 *1212:A2 0.000656679
3 *1444:Q 0.00013609
4 *382:8 0.000792769
5 *1209:A2 *1212:A2 0.000214218
6 *1213:B *1212:A2 0.00026286
7 *1213:C *1212:A2 3.40956e-05
8 *1220:A1 *1212:A2 1.2339e-05
9 *1220:A1 *382:8 5.14116e-06
10 *1225:B1 *1212:A2 0.000940024
11 *1225:B1 *382:8 0.000386421
12 *165:6 *1212:A2 0.00310559
*RES
1 *1444:Q *382:8 5.868 
2 *382:8 *1212:A2 23.684 
3 *382:8 *1191:I 4.5 
*END

*D_NET *383 0.00388846
*CONN
*I *1366:A1 I *D gf180mcu_fd_sc_mcu7t5v0__and2_1
*I *1367:A1 I *D gf180mcu_fd_sc_mcu7t5v0__nor2_1
*I *1215:B1 I *D gf180mcu_fd_sc_mcu7t5v0__aoi22_1
*I *1218:B1 I *D gf180mcu_fd_sc_mcu7t5v0__oai22_1
*I *1445:Q O *D gf180mcu_fd_sc_mcu7t5v0__dffrnq_1
*CAP
1 *1366:A1 4.66628e-05
2 *1367:A1 0
3 *1215:B1 0
4 *1218:B1 5.79285e-05
5 *1445:Q 0.000138746
6 *383:20 0.000562596
7 *383:14 0.000890423
8 *383:8 0.000571164
9 *1218:B1 *1215:A2 0.00012531
10 *383:20 *1217:B1 0
11 *1215:A1 *383:20 9.88736e-06
12 *1215:B2 *383:20 1.5015e-05
13 *1218:B2 *1218:B1 0.0002108
14 *1294:A1 *1218:B1 0.000326528
15 *1294:A1 *383:20 3.83835e-06
16 *1367:A2 *383:14 9.98117e-05
17 *1368:A3 *383:14 0
18 *1368:A4 *383:14 9.26705e-05
19 *1372:A3 *383:8 0
20 *1399:I *383:8 3.65656e-05
21 *1445:RN *383:8 8.10789e-05
22 *143:8 *1218:B1 6.57222e-06
23 *188:18 *1218:B1 0
24 *199:53 *383:14 3.94655e-05
25 *199:53 *383:20 1.91917e-06
26 *199:76 *383:20 0.000224902
27 *283:35 *383:20 0
28 *285:10 *383:14 0
29 *285:23 *383:14 0
30 *317:90 *383:8 3.50638e-06
31 *317:90 *383:14 2.05399e-05
32 *317:96 *1366:A1 0.000255714
33 *326:80 *1366:A1 6.68164e-05
34 *326:80 *383:14 0
35 *326:80 *383:20 0
*RES
1 *1445:Q *383:8 10.14 
2 *383:8 *383:14 7.388 
3 *383:14 *383:20 3.572 
4 *383:20 *1218:B1 14.944 
5 *383:20 *1215:B1 4.5 
6 *383:14 *1367:A1 4.5 
7 *383:8 *1366:A1 9.684 
*END

*D_NET *384 0.0102323
*CONN
*I *1370:A1 I *D gf180mcu_fd_sc_mcu7t5v0__xnor2_1
*I *1369:A1 I *D gf180mcu_fd_sc_mcu7t5v0__nand2_1
*I *1372:A2 I *D gf180mcu_fd_sc_mcu7t5v0__nand3_1
*I *1217:B1 I *D gf180mcu_fd_sc_mcu7t5v0__oai22_1
*I *1215:A2 I *D gf180mcu_fd_sc_mcu7t5v0__aoi22_1
*I *1446:Q O *D gf180mcu_fd_sc_mcu7t5v0__dffrnq_1
*CAP
1 *1370:A1 0.0003107
2 *1369:A1 7.08879e-05
3 *1372:A2 2.09542e-05
4 *1217:B1 0.000259566
5 *1215:A2 0.000102786
6 *1446:Q 0
7 *384:49 0.000580027
8 *384:14 0.00108933
9 *384:8 0.00108366
10 *384:4 0.000534173
11 *1217:B1 *1218:A2 4.58601e-06
12 *1370:A1 *1373:A1 0.000319859
13 *1372:A2 *385:27 3.07734e-05
14 *384:8 *385:27 0.000283205
15 *384:8 *385:45 0
16 *384:14 *1218:A2 9.15568e-05
17 *384:14 *1222:A2 0.000136471
18 *384:14 *385:45 0.000774134
19 *384:14 *386:12 1.04712e-05
20 *384:49 *1373:A1 1.39809e-05
21 *384:49 *385:27 0.000102415
22 *1169:I *1217:B1 6.48288e-05
23 *1214:A1 *384:14 0
24 *1218:A1 *1217:B1 0.000317503
25 *1218:B1 *1215:A2 0.00012531
26 *1219:A2 *1217:B1 0.000241874
27 *1224:A1 *1217:B1 5.40596e-05
28 *1294:A1 *1215:A2 0.000151949
29 *1294:A1 *1217:B1 6.05889e-05
30 *1370:A2 *384:49 4.06416e-05
31 *1373:A2 *1369:A1 8.04139e-05
32 *1373:A2 *1370:A1 0.000658842
33 *1446:RN *1369:A1 0.000119042
34 *1446:RN *1370:A1 0.000155427
35 *143:8 *1215:A2 0
36 *143:8 *384:14 0
37 *143:12 *384:14 0
38 *144:25 *1217:B1 1.26428e-05
39 *199:45 *1370:A1 0
40 *283:35 *384:14 0
41 *285:27 *1369:A1 3.73535e-05
42 *317:96 *1369:A1 2.79476e-05
43 *317:96 *384:8 0.00150138
44 *317:96 *384:14 0.00011543
45 *317:96 *384:49 0.000466835
46 *317:98 *1370:A1 0.000180669
47 *383:20 *1217:B1 0
*RES
1 *1446:Q *384:4 4.5 
2 *384:4 *384:8 4.56 
3 *384:8 *384:14 10.884 
4 *384:14 *1215:A2 10.14 
5 *384:14 *1217:B1 11.736 
6 *384:8 *1372:A2 4.728 
7 *384:4 *384:49 10.976 
8 *384:49 *1369:A1 5.412 
9 *384:49 *1370:A1 17.148 
*END

*D_NET *385 0.00891286
*CONN
*I *1372:A1 I *D gf180mcu_fd_sc_mcu7t5v0__nand3_1
*I *1214:B1 I *D gf180mcu_fd_sc_mcu7t5v0__aoi22_1
*I *1217:A2 I *D gf180mcu_fd_sc_mcu7t5v0__oai22_1
*I *1373:A1 I *D gf180mcu_fd_sc_mcu7t5v0__xor2_1
*I *1447:Q O *D gf180mcu_fd_sc_mcu7t5v0__dffrnq_1
*CAP
1 *1372:A1 0
2 *1214:B1 0
3 *1217:A2 0.000159119
4 *1373:A1 0.000268997
5 *1447:Q 0.000213729
6 *385:45 0.000788456
7 *385:27 0.00118155
8 *385:8 0.00103494
9 *385:27 *1375:A1 2.05156e-05
10 *385:27 *386:10 2.88187e-05
11 *385:45 *1214:A2 0.000703862
12 *385:45 *386:10 9.38316e-05
13 *1214:B2 *1217:A2 6.38438e-05
14 *1216:A2 *385:45 0
15 *1221:B *1217:A2 0.000193942
16 *1221:B *385:45 5.76373e-06
17 *1222:B *1217:A2 0.000248576
18 *1222:B *385:45 0.000361824
19 *1225:A2 *1217:A2 0.000151055
20 *1370:A1 *1373:A1 0.000319859
21 *1370:A2 *1373:A1 0
22 *1372:A2 *385:27 3.07734e-05
23 *1375:A2 *385:27 0.00102586
24 *1399:I *385:45 0.000148889
25 *1401:I *1373:A1 0
26 *1401:I *385:8 0
27 *1401:I *385:27 2.05156e-05
28 *1446:RN *1373:A1 0.000317494
29 *1447:RN *385:27 0.000201948
30 *188:18 *1217:A2 1.4706e-05
31 *190:10 *1217:A2 8.45687e-05
32 *317:96 *385:27 5.56879e-05
33 *317:98 *1373:A1 0
34 *384:8 *385:27 0.000283205
35 *384:8 *385:45 0
36 *384:14 *385:45 0.000774134
37 *384:49 *1373:A1 1.39809e-05
38 *384:49 *385:27 0.000102415
*RES
1 *1447:Q *385:8 10.292 
2 *385:8 *1373:A1 11.28 
3 *385:8 *385:27 10.96 
4 *385:27 *385:45 7.676 
5 *385:45 *1217:A2 15.4 
6 *385:45 *1214:B1 4.5 
7 *385:27 *1372:A1 4.5 
*END

*D_NET *386 0.00578193
*CONN
*I *1375:A1 I *D gf180mcu_fd_sc_mcu7t5v0__xor2_1
*I *1214:A2 I *D gf180mcu_fd_sc_mcu7t5v0__aoi22_1
*I *1222:A2 I *D gf180mcu_fd_sc_mcu7t5v0__oai21_1
*I *1218:A2 I *D gf180mcu_fd_sc_mcu7t5v0__oai22_1
*I *1448:Q O *D gf180mcu_fd_sc_mcu7t5v0__dffrnq_1
*CAP
1 *1375:A1 0.000369464
2 *1214:A2 0.000232857
3 *1222:A2 8.54895e-05
4 *1218:A2 0.000186952
5 *1448:Q 0
6 *386:12 0.000505969
7 *386:10 0.00141833
8 *386:4 0.00132141
9 *1217:B1 *1218:A2 4.58601e-06
10 *1225:A2 *1222:A2 0
11 *1375:A2 *1375:A1 0.000134564
12 *1375:A2 *386:10 1.47056e-05
13 *1399:I *386:10 0.000148889
14 *1402:I *1375:A1 3.56172e-05
15 *1402:I *386:10 3.45861e-05
16 *283:35 *1218:A2 0.000202974
17 *384:14 *1218:A2 9.15568e-05
18 *384:14 *1222:A2 0.000136471
19 *384:14 *386:12 1.04712e-05
20 *385:27 *1375:A1 2.05156e-05
21 *385:27 *386:10 2.88187e-05
22 *385:45 *1214:A2 0.000703862
23 *385:45 *386:10 9.38316e-05
*RES
1 *1448:Q *386:4 4.5 
2 *386:4 *386:10 10.884 
3 *386:10 *386:12 0.988 
4 *386:12 *1218:A2 10.672 
5 *386:12 *1222:A2 9.988 
6 *386:10 *1214:A2 11.356 
7 *386:4 *1375:A1 7.312 
*END
