*SPEF "ieee 1481-1999"
*DESIGN "digital_top"
*DATE "11:25:04 Tuesday August 25, 2026"
*VENDOR "The OpenROAD Project"
*PROGRAM "OpenROAD"
*VERSION "26Q1-1024-gdcf36133a"
*DESIGN_FLOW "NAME_SCOPE LOCAL" "PIN_CAP NONE"
*DIVIDER /
*DELIMITER :
*BUS_DELIMITER []
*T_UNIT 1 NS
*C_UNIT 1 PF
*R_UNIT 1 OHM
*L_UNIT 1 HENRY

*NAME_MAP
*3 cap_ctrl[0]
*4 cap_ctrl[1]
*5 cap_ctrl[2]
*6 clk
*7 comp_out
*8 en
*9 scl
*10 sda
*11 trigger_out
*12 _000_
*13 _001_
*14 _002_
*15 _003_
*16 _004_
*17 _005_
*18 _006_
*19 _007_
*20 _008_
*21 _009_
*22 _010_
*23 _011_
*24 _012_
*25 _013_
*26 _014_
*27 _015_
*28 _016_
*29 _017_
*30 _018_
*31 _019_
*32 _020_
*33 _021_
*34 _022_
*35 _023_
*36 _024_
*37 _025_
*38 _026_
*39 _027_
*40 _028_
*41 _029_
*42 _030_
*43 _031_
*44 _032_
*45 _033_
*46 _034_
*47 _035_
*48 _036_
*49 _037_
*50 _038_
*51 _039_
*52 _040_
*53 _041_
*54 _042_
*55 _043_
*56 _044_
*57 _045_
*58 _046_
*59 _047_
*60 _048_
*61 _049_
*62 _050_
*63 _051_
*64 _052_
*65 _053_
*66 _054_
*67 _055_
*68 _056_
*69 _057_
*70 _058_
*71 _059_
*72 _060_
*73 _061_
*74 _062_
*75 _063_
*76 _064_
*77 _065_
*78 _066_
*79 _067_
*80 _068_
*81 _069_
*82 _070_
*83 _071_
*84 _072_
*85 _073_
*86 _074_
*87 _075_
*88 _076_
*89 _077_
*90 _078_
*91 _079_
*92 _080_
*93 _081_
*94 _082_
*95 _083_
*96 _084_
*97 _085_
*98 _086_
*99 _087_
*100 _088_
*101 _089_
*102 _090_
*103 _091_
*104 _092_
*105 _093_
*106 _094_
*107 _095_
*108 _096_
*109 _097_
*110 _098_
*111 _099_
*112 _100_
*113 _101_
*114 _102_
*115 _103_
*116 _104_
*117 _105_
*118 _106_
*119 _107_
*120 _108_
*121 _109_
*122 _110_
*123 _111_
*124 _112_
*125 _113_
*126 _114_
*127 _115_
*128 _116_
*129 _117_
*130 _118_
*131 _119_
*132 _120_
*133 _121_
*134 _122_
*135 _123_
*136 _124_
*137 _125_
*138 _126_
*139 _127_
*140 _128_
*141 _129_
*142 _130_
*143 _131_
*144 _132_
*145 _133_
*146 _134_
*147 _135_
*148 _136_
*149 _137_
*150 _138_
*151 _139_
*152 _140_
*153 _141_
*154 _142_
*155 _143_
*156 _144_
*157 _145_
*158 _146_
*159 _147_
*160 _148_
*161 _149_
*162 _150_
*163 _151_
*164 _152_
*165 _153_
*166 _154_
*167 _155_
*168 _156_
*169 _157_
*170 _158_
*171 _159_
*172 _160_
*173 _161_
*174 _162_
*175 _163_
*176 _164_
*177 _165_
*178 _166_
*179 _167_
*180 _168_
*181 _169_
*182 _170_
*183 _171_
*184 _172_
*185 _173_
*186 _174_
*187 _175_
*188 _176_
*189 _177_
*190 _178_
*191 _179_
*192 _180_
*193 _181_
*194 _182_
*195 _183_
*196 _184_
*197 _185_
*198 _186_
*199 _187_
*200 _188_
*201 _189_
*202 _190_
*203 _191_
*204 _192_
*205 _193_
*206 _194_
*207 _195_
*208 _196_
*209 _197_
*210 _198_
*211 _199_
*212 _200_
*213 _201_
*214 _202_
*215 _203_
*216 _204_
*217 _205_
*218 _206_
*219 _207_
*220 _208_
*221 _209_
*222 _210_
*223 _211_
*224 _212_
*225 _213_
*226 _214_
*227 _215_
*228 _216_
*229 _217_
*230 _218_
*231 _219_
*232 _220_
*233 _221_
*234 _222_
*235 _223_
*236 _224_
*237 _225_
*238 _226_
*239 _227_
*240 _228_
*241 _229_
*242 _230_
*243 _231_
*244 _232_
*245 _233_
*246 _234_
*247 _235_
*248 _236_
*249 _237_
*250 _238_
*251 _239_
*252 _240_
*253 _241_
*254 _242_
*255 _243_
*256 _244_
*257 _245_
*258 _246_
*259 _247_
*260 _248_
*261 _249_
*262 _250_
*263 _251_
*264 _252_
*265 _253_
*266 _254_
*267 _255_
*268 _256_
*269 _257_
*270 _258_
*271 _259_
*272 _260_
*273 _261_
*274 _262_
*275 _263_
*276 _264_
*277 _265_
*278 _266_
*279 _267_
*280 _268_
*281 _269_
*282 _270_
*283 _271_
*284 _272_
*285 _273_
*286 _274_
*287 _275_
*288 _276_
*289 _277_
*290 _278_
*291 _279_
*292 clknet_0_clk
*293 clknet_3_0__leaf_clk
*294 clknet_3_1__leaf_clk
*295 clknet_3_2__leaf_clk
*296 clknet_3_3__leaf_clk
*297 clknet_3_4__leaf_clk
*298 clknet_3_5__leaf_clk
*299 clknet_3_6__leaf_clk
*300 clknet_3_7__leaf_clk
*301 net1
*302 net10
*303 net11
*304 net12
*305 net13
*306 net14
*307 net15
*308 net16
*309 net17
*310 net18
*311 net19
*312 net2
*313 net20
*314 net21
*315 net22
*316 net23
*317 net24
*318 net25
*319 net26
*320 net3
*321 net4
*322 net5
*323 net6
*324 net7
*325 net8
*326 net9
*327 sda_oe_w
*328 threshold_w\[0\]
*329 threshold_w\[1\]
*330 threshold_w\[2\]
*331 threshold_w\[3\]
*332 threshold_w\[4\]
*333 threshold_w\[5\]
*334 threshold_w\[6\]
*335 threshold_w\[7\]
*336 timeout_val_w\[0\]
*337 timeout_val_w\[1\]
*338 timeout_val_w\[2\]
*339 timeout_val_w\[3\]
*340 timeout_val_w\[4\]
*341 timeout_val_w\[5\]
*342 timeout_val_w\[6\]
*343 timeout_val_w\[7\]
*344 u_i2c_config\.bit_cnt\[0\]
*345 u_i2c_config\.bit_cnt\[1\]
*346 u_i2c_config\.bit_cnt\[2\]
*347 u_i2c_config\.bit_cnt\[3\]
*348 u_i2c_config\.parallel_data\[0\]
*349 u_i2c_config\.parallel_data\[1\]
*350 u_i2c_config\.parallel_data\[2\]
*351 u_i2c_config\.parallel_data\[3\]
*352 u_i2c_config\.parallel_data\[4\]
*353 u_i2c_config\.parallel_data\[5\]
*354 u_i2c_config\.parallel_data\[6\]
*355 u_i2c_config\.parallel_data\[7\]
*356 u_i2c_config\.reg_addr\[0\]
*357 u_i2c_config\.reg_addr\[1\]
*358 u_i2c_config\.scl_d1
*359 u_i2c_config\.scl_d2
*360 u_i2c_config\.sda_d1
*361 u_i2c_config\.sda_d2
*362 u_i2c_config\.state\[1\]
*363 u_i2c_config\.state\[2\]
*364 u_i2c_config\.state\[3\]
*365 u_i2c_config\.state\[4\]
*366 u_i2c_config\.state\[5\]
*367 u_i2c_config\.state\[6\]
*368 u_i2c_config\.write_en
*369 u_main_cnt\.count_reg\[0\]
*370 u_main_cnt\.count_reg\[1\]
*371 u_main_cnt\.count_reg\[2\]
*372 u_main_cnt\.count_reg\[3\]
*373 u_main_cnt\.count_reg\[4\]
*374 u_main_cnt\.count_reg\[5\]
*375 u_main_cnt\.count_reg\[6\]
*376 u_main_cnt\.count_reg\[7\]
*377 u_pulse_gen\.signal_d1
*378 u_pulse_gen\.signal_d2
*379 u_timeout_cnt\.timer_count\[0\]
*380 u_timeout_cnt\.timer_count\[1\]
*381 u_timeout_cnt\.timer_count\[2\]
*382 u_timeout_cnt\.timer_count\[3\]
*383 u_timeout_cnt\.timer_count\[4\]
*384 u_timeout_cnt\.timer_count\[5\]
*385 u_timeout_cnt\.timer_count\[6\]
*386 u_timeout_cnt\.timer_count\[7\]
*387 FILLER_0_10
*388 FILLER_0_104
*389 FILLER_0_12
*390 FILLER_0_138
*391 FILLER_0_2
*392 FILLER_0_33
*393 FILLER_0_36
*394 FILLER_0_52
*395 FILLER_0_60
*396 FILLER_0_66
*397 FILLER_0_86
*398 FILLER_10_141
*399 FILLER_10_149
*400 FILLER_10_151
*401 FILLER_10_156
*402 FILLER_10_164
*403 FILLER_10_187
*404 FILLER_10_2
*405 FILLER_10_23
*406 FILLER_10_31
*407 FILLER_10_45
*408 FILLER_10_53
*409 FILLER_10_93
*410 FILLER_11_117
*411 FILLER_11_133
*412 FILLER_11_137
*413 FILLER_11_139
*414 FILLER_11_176
*415 FILLER_11_18
*416 FILLER_11_185
*417 FILLER_11_187
*418 FILLER_11_2
*419 FILLER_11_26
*420 FILLER_11_33
*421 FILLER_11_35
*422 FILLER_11_72
*423 FILLER_11_80
*424 FILLER_12_101
*425 FILLER_12_107
*426 FILLER_12_115
*427 FILLER_12_12
*428 FILLER_12_131
*429 FILLER_12_16
*430 FILLER_12_182
*431 FILLER_12_186
*432 FILLER_12_2
*433 FILLER_12_25
*434 FILLER_12_29
*435 FILLER_12_37
*436 FILLER_12_41
*437 FILLER_12_93
*438 FILLER_13_142
*439 FILLER_13_157
*440 FILLER_13_165
*441 FILLER_13_167
*442 FILLER_13_175
*443 FILLER_13_183
*444 FILLER_13_187
*445 FILLER_13_19
*446 FILLER_13_2
*447 FILLER_13_35
*448 FILLER_13_39
*449 FILLER_13_46
*450 FILLER_13_62
*451 FILLER_13_87
*452 FILLER_13_95
*453 FILLER_13_97
*454 FILLER_14_103
*455 FILLER_14_172
*456 FILLER_14_174
*457 FILLER_14_177
*458 FILLER_14_179
*459 FILLER_14_18
*460 FILLER_14_184
*461 FILLER_14_20
*462 FILLER_14_31
*463 FILLER_14_45
*464 FILLER_14_77
*465 FILLER_14_94
*466 FILLER_15_108
*467 FILLER_15_110
*468 FILLER_15_49
*469 FILLER_15_65
*470 FILLER_16_104
*471 FILLER_16_107
*472 FILLER_16_115
*473 FILLER_16_127
*474 FILLER_16_159
*475 FILLER_16_161
*476 FILLER_16_177
*477 FILLER_16_185
*478 FILLER_16_187
*479 FILLER_16_2
*480 FILLER_16_37
*481 FILLER_16_6
*482 FILLER_16_79
*483 FILLER_16_87
*484 FILLER_16_91
*485 FILLER_16_96
*486 FILLER_17_101
*487 FILLER_17_137
*488 FILLER_17_139
*489 FILLER_17_142
*490 FILLER_17_174
*491 FILLER_17_182
*492 FILLER_17_186
*493 FILLER_17_2
*494 FILLER_17_34
*495 FILLER_17_72
*496 FILLER_17_76
*497 FILLER_17_93
*498 FILLER_18_102
*499 FILLER_18_104
*500 FILLER_18_121
*501 FILLER_18_123
*502 FILLER_18_164
*503 FILLER_18_166
*504 FILLER_18_17
*505 FILLER_18_187
*506 FILLER_18_2
*507 FILLER_18_33
*508 FILLER_18_45
*509 FILLER_18_61
*510 FILLER_18_65
*511 FILLER_18_67
*512 FILLER_19_100
*513 FILLER_19_116
*514 FILLER_19_124
*515 FILLER_19_128
*516 FILLER_19_130
*517 FILLER_19_139
*518 FILLER_19_142
*519 FILLER_19_146
*520 FILLER_19_152
*521 FILLER_19_38
*522 FILLER_19_55
*523 FILLER_19_63
*524 FILLER_19_68
*525 FILLER_19_72
*526 FILLER_19_74
*527 FILLER_19_88
*528 FILLER_1_132
*529 FILLER_1_142
*530 FILLER_1_153
*531 FILLER_1_72
*532 FILLER_1_76
*533 FILLER_1_85
*534 FILLER_1_93
*535 FILLER_20_103
*536 FILLER_20_107
*537 FILLER_20_109
*538 FILLER_20_123
*539 FILLER_20_131
*540 FILLER_20_149
*541 FILLER_20_155
*542 FILLER_20_159
*543 FILLER_20_161
*544 FILLER_20_172
*545 FILLER_20_174
*546 FILLER_20_177
*547 FILLER_20_179
*548 FILLER_20_184
*549 FILLER_20_19
*550 FILLER_20_2
*551 FILLER_20_21
*552 FILLER_20_26
*553 FILLER_20_43
*554 FILLER_20_59
*555 FILLER_20_99
*556 FILLER_21_10
*557 FILLER_21_138
*558 FILLER_21_142
*559 FILLER_21_158
*560 FILLER_21_166
*561 FILLER_21_168
*562 FILLER_21_185
*563 FILLER_21_187
*564 FILLER_21_2
*565 FILLER_21_20
*566 FILLER_21_32
*567 FILLER_21_44
*568 FILLER_21_60
*569 FILLER_21_68
*570 FILLER_21_72
*571 FILLER_22_102
*572 FILLER_22_104
*573 FILLER_22_157
*574 FILLER_22_173
*575 FILLER_22_177
*576 FILLER_22_185
*577 FILLER_22_187
*578 FILLER_22_2
*579 FILLER_22_34
*580 FILLER_22_49
*581 FILLER_22_85
*582 FILLER_22_94
*583 FILLER_23_131
*584 FILLER_23_133
*585 FILLER_23_150
*586 FILLER_23_152
*587 FILLER_23_18
*588 FILLER_23_186
*589 FILLER_23_2
*590 FILLER_23_22
*591 FILLER_23_27
*592 FILLER_23_64
*593 FILLER_23_68
*594 FILLER_23_72
*595 FILLER_23_77
*596 FILLER_23_81
*597 FILLER_23_99
*598 FILLER_24_100
*599 FILLER_24_107
*600 FILLER_24_11
*601 FILLER_24_114
*602 FILLER_24_122
*603 FILLER_24_130
*604 FILLER_24_132
*605 FILLER_24_171
*606 FILLER_24_177
*607 FILLER_24_185
*608 FILLER_24_187
*609 FILLER_24_2
*610 FILLER_24_37
*611 FILLER_24_4
*612 FILLER_24_45
*613 FILLER_24_98
*614 FILLER_25_136
*615 FILLER_25_142
*616 FILLER_25_150
*617 FILLER_25_155
*618 FILLER_25_159
*619 FILLER_25_161
*620 FILLER_25_166
*621 FILLER_25_174
*622 FILLER_25_176
*623 FILLER_25_183
*624 FILLER_25_187
*625 FILLER_25_48
*626 FILLER_25_64
*627 FILLER_25_68
*628 FILLER_25_72
*629 FILLER_25_74
*630 FILLER_25_90
*631 FILLER_26_10
*632 FILLER_26_107
*633 FILLER_26_115
*634 FILLER_26_119
*635 FILLER_26_165
*636 FILLER_26_173
*637 FILLER_26_18
*638 FILLER_26_185
*639 FILLER_26_187
*640 FILLER_26_2
*641 FILLER_26_37
*642 FILLER_26_41
*643 FILLER_26_92
*644 FILLER_26_96
*645 FILLER_27_114
*646 FILLER_27_130
*647 FILLER_27_142
*648 FILLER_27_158
*649 FILLER_27_166
*650 FILLER_27_185
*651 FILLER_27_187
*652 FILLER_27_38
*653 FILLER_27_72
*654 FILLER_27_76
*655 FILLER_27_82
*656 FILLER_28_10
*657 FILLER_28_101
*658 FILLER_28_107
*659 FILLER_28_111
*660 FILLER_28_12
*661 FILLER_28_121
*662 FILLER_28_129
*663 FILLER_28_170
*664 FILLER_28_174
*665 FILLER_28_18
*666 FILLER_28_186
*667 FILLER_28_2
*668 FILLER_28_34
*669 FILLER_28_45
*670 FILLER_28_81
*671 FILLER_28_89
*672 FILLER_28_93
*673 FILLER_28_95
*674 FILLER_29_142
*675 FILLER_29_146
*676 FILLER_29_153
*677 FILLER_29_155
*678 FILLER_29_17
*679 FILLER_29_175
*680 FILLER_29_184
*681 FILLER_29_2
*682 FILLER_29_6
*683 FILLER_29_67
*684 FILLER_29_69
*685 FILLER_29_76
*686 FILLER_29_88
*687 FILLER_2_10
*688 FILLER_2_107
*689 FILLER_2_14
*690 FILLER_2_153
*691 FILLER_2_161
*692 FILLER_2_165
*693 FILLER_2_185
*694 FILLER_2_187
*695 FILLER_2_2
*696 FILLER_2_45
*697 FILLER_2_53
*698 FILLER_2_55
*699 FILLER_30_10
*700 FILLER_30_101
*701 FILLER_30_107
*702 FILLER_30_165
*703 FILLER_30_173
*704 FILLER_30_177
*705 FILLER_30_185
*706 FILLER_30_187
*707 FILLER_30_2
*708 FILLER_30_29
*709 FILLER_30_33
*710 FILLER_30_37
*711 FILLER_30_50
*712 FILLER_30_60
*713 FILLER_30_64
*714 FILLER_30_77
*715 FILLER_31_104
*716 FILLER_31_112
*717 FILLER_31_114
*718 FILLER_31_128
*719 FILLER_31_142
*720 FILLER_31_150
*721 FILLER_31_156
*722 FILLER_31_36
*723 FILLER_31_40
*724 FILLER_31_47
*725 FILLER_31_55
*726 FILLER_31_59
*727 FILLER_31_72
*728 FILLER_32_104
*729 FILLER_32_107
*730 FILLER_32_123
*731 FILLER_32_139
*732 FILLER_32_147
*733 FILLER_32_165
*734 FILLER_32_177
*735 FILLER_32_18
*736 FILLER_32_185
*737 FILLER_32_187
*738 FILLER_32_2
*739 FILLER_32_31
*740 FILLER_32_87
*741 FILLER_32_91
*742 FILLER_32_93
*743 FILLER_33_118
*744 FILLER_33_134
*745 FILLER_33_138
*746 FILLER_33_146
*747 FILLER_33_185
*748 FILLER_33_187
*749 FILLER_33_2
*750 FILLER_33_20
*751 FILLER_33_72
*752 FILLER_33_80
*753 FILLER_34_104
*754 FILLER_34_150
*755 FILLER_34_154
*756 FILLER_34_156
*757 FILLER_34_17
*758 FILLER_34_173
*759 FILLER_34_184
*760 FILLER_34_2
*761 FILLER_34_37
*762 FILLER_34_6
*763 FILLER_35_101
*764 FILLER_35_127
*765 FILLER_35_135
*766 FILLER_35_139
*767 FILLER_35_142
*768 FILLER_35_147
*769 FILLER_35_151
*770 FILLER_35_153
*771 FILLER_35_36
*772 FILLER_35_46
*773 FILLER_35_50
*774 FILLER_35_56
*775 FILLER_35_72
*776 FILLER_35_76
*777 FILLER_35_89
*778 FILLER_35_97
*779 FILLER_36_10
*780 FILLER_36_103
*781 FILLER_36_107
*782 FILLER_36_158
*783 FILLER_36_160
*784 FILLER_36_169
*785 FILLER_36_173
*786 FILLER_36_177
*787 FILLER_36_179
*788 FILLER_36_184
*789 FILLER_36_2
*790 FILLER_36_21
*791 FILLER_36_29
*792 FILLER_36_33
*793 FILLER_36_37
*794 FILLER_36_69
*795 FILLER_36_85
*796 FILLER_36_89
*797 FILLER_37_104
*798 FILLER_37_116
*799 FILLER_37_118
*800 FILLER_37_127
*801 FILLER_37_135
*802 FILLER_37_139
*803 FILLER_37_36
*804 FILLER_37_40
*805 FILLER_37_55
*806 FILLER_37_63
*807 FILLER_37_65
*808 FILLER_37_72
*809 FILLER_38_107
*810 FILLER_38_115
*811 FILLER_38_14
*812 FILLER_38_153
*813 FILLER_38_161
*814 FILLER_38_177
*815 FILLER_38_179
*816 FILLER_38_184
*817 FILLER_38_2
*818 FILLER_38_30
*819 FILLER_38_34
*820 FILLER_38_52
*821 FILLER_38_54
*822 FILLER_38_79
*823 FILLER_38_83
*824 FILLER_38_85
*825 FILLER_38_90
*826 FILLER_38_92
*827 FILLER_38_97
*828 FILLER_39_114
*829 FILLER_39_116
*830 FILLER_39_129
*831 FILLER_39_137
*832 FILLER_39_139
*833 FILLER_39_150
*834 FILLER_39_19
*835 FILLER_39_2
*836 FILLER_39_6
*837 FILLER_3_104
*838 FILLER_3_108
*839 FILLER_3_142
*840 FILLER_3_68
*841 FILLER_3_72
*842 FILLER_3_74
*843 FILLER_3_89
*844 FILLER_3_93
*845 FILLER_3_99
*846 FILLER_40_177
*847 FILLER_40_18
*848 FILLER_40_185
*849 FILLER_40_187
*850 FILLER_40_22
*851 FILLER_40_28
*852 FILLER_40_32
*853 FILLER_40_34
*854 FILLER_40_79
*855 FILLER_40_95
*856 FILLER_41_111
*857 FILLER_41_119
*858 FILLER_41_125
*859 FILLER_41_133
*860 FILLER_41_137
*861 FILLER_41_139
*862 FILLER_41_146
*863 FILLER_41_154
*864 FILLER_41_156
*865 FILLER_41_161
*866 FILLER_41_177
*867 FILLER_41_18
*868 FILLER_41_185
*869 FILLER_41_187
*870 FILLER_41_2
*871 FILLER_41_26
*872 FILLER_41_30
*873 FILLER_41_32
*874 FILLER_41_67
*875 FILLER_41_69
*876 FILLER_41_72
*877 FILLER_41_76
*878 FILLER_42_104
*879 FILLER_42_138
*880 FILLER_42_172
*881 FILLER_42_2
*882 FILLER_42_36
*883 FILLER_42_52
*884 FILLER_42_56
*885 FILLER_42_61
*886 FILLER_42_65
*887 FILLER_42_67
*888 FILLER_42_70
*889 FILLER_4_107
*890 FILLER_4_138
*891 FILLER_4_148
*892 FILLER_4_150
*893 FILLER_4_159
*894 FILLER_4_177
*895 FILLER_4_18
*896 FILLER_4_182
*897 FILLER_4_186
*898 FILLER_4_2
*899 FILLER_4_20
*900 FILLER_4_47
*901 FILLER_4_51
*902 FILLER_5_146
*903 FILLER_5_148
*904 FILLER_5_187
*905 FILLER_5_40
*906 FILLER_5_56
*907 FILLER_6_111
*908 FILLER_6_169
*909 FILLER_6_173
*910 FILLER_6_187
*911 FILLER_6_19
*912 FILLER_6_2
*913 FILLER_6_28
*914 FILLER_6_32
*915 FILLER_6_34
*916 FILLER_6_37
*917 FILLER_6_39
*918 FILLER_7_101
*919 FILLER_7_109
*920 FILLER_7_162
*921 FILLER_7_178
*922 FILLER_7_186
*923 FILLER_7_36
*924 FILLER_7_43
*925 FILLER_7_61
*926 FILLER_7_66
*927 FILLER_7_72
*928 FILLER_7_80
*929 FILLER_7_85
*930 FILLER_8_104
*931 FILLER_8_122
*932 FILLER_8_15
*933 FILLER_8_164
*934 FILLER_8_172
*935 FILLER_8_174
*936 FILLER_8_181
*937 FILLER_8_185
*938 FILLER_8_187
*939 FILLER_8_2
*940 FILLER_8_31
*941 FILLER_8_37
*942 FILLER_8_6
*943 FILLER_8_72
*944 FILLER_9_114
*945 FILLER_9_134
*946 FILLER_9_138
*947 FILLER_9_142
*948 FILLER_9_150
*949 FILLER_9_164
*950 FILLER_9_166
*951 FILLER_9_172
*952 FILLER_9_2
*953 FILLER_9_20
*954 FILLER_9_28
*955 FILLER_9_4
*956 FILLER_9_48
*957 FILLER_9_57
*958 FILLER_9_65
*959 FILLER_9_69
*960 FILLER_9_72
*961 FILLER_9_76
*962 PHY_EDGE_ROW_0_Left_43
*963 PHY_EDGE_ROW_0_Right_0
*964 PHY_EDGE_ROW_10_Left_53
*965 PHY_EDGE_ROW_10_Right_10
*966 PHY_EDGE_ROW_11_Left_54
*967 PHY_EDGE_ROW_11_Right_11
*968 PHY_EDGE_ROW_12_Left_55
*969 PHY_EDGE_ROW_12_Right_12
*970 PHY_EDGE_ROW_13_Left_56
*971 PHY_EDGE_ROW_13_Right_13
*972 PHY_EDGE_ROW_14_Left_57
*973 PHY_EDGE_ROW_14_Right_14
*974 PHY_EDGE_ROW_15_Left_58
*975 PHY_EDGE_ROW_15_Right_15
*976 PHY_EDGE_ROW_16_Left_59
*977 PHY_EDGE_ROW_16_Right_16
*978 PHY_EDGE_ROW_17_Left_60
*979 PHY_EDGE_ROW_17_Right_17
*980 PHY_EDGE_ROW_18_Left_61
*981 PHY_EDGE_ROW_18_Right_18
*982 PHY_EDGE_ROW_19_Left_62
*983 PHY_EDGE_ROW_19_Right_19
*984 PHY_EDGE_ROW_1_Left_44
*985 PHY_EDGE_ROW_1_Right_1
*986 PHY_EDGE_ROW_20_Left_63
*987 PHY_EDGE_ROW_20_Right_20
*988 PHY_EDGE_ROW_21_Left_64
*989 PHY_EDGE_ROW_21_Right_21
*990 PHY_EDGE_ROW_22_Left_65
*991 PHY_EDGE_ROW_22_Right_22
*992 PHY_EDGE_ROW_23_Left_66
*993 PHY_EDGE_ROW_23_Right_23
*994 PHY_EDGE_ROW_24_Left_67
*995 PHY_EDGE_ROW_24_Right_24
*996 PHY_EDGE_ROW_25_Left_68
*997 PHY_EDGE_ROW_25_Right_25
*998 PHY_EDGE_ROW_26_Left_69
*999 PHY_EDGE_ROW_26_Right_26
*1000 PHY_EDGE_ROW_27_Left_70
*1001 PHY_EDGE_ROW_27_Right_27
*1002 PHY_EDGE_ROW_28_Left_71
*1003 PHY_EDGE_ROW_28_Right_28
*1004 PHY_EDGE_ROW_29_Left_72
*1005 PHY_EDGE_ROW_29_Right_29
*1006 PHY_EDGE_ROW_2_Left_45
*1007 PHY_EDGE_ROW_2_Right_2
*1008 PHY_EDGE_ROW_30_Left_73
*1009 PHY_EDGE_ROW_30_Right_30
*1010 PHY_EDGE_ROW_31_Left_74
*1011 PHY_EDGE_ROW_31_Right_31
*1012 PHY_EDGE_ROW_32_Left_75
*1013 PHY_EDGE_ROW_32_Right_32
*1014 PHY_EDGE_ROW_33_Left_76
*1015 PHY_EDGE_ROW_33_Right_33
*1016 PHY_EDGE_ROW_34_Left_77
*1017 PHY_EDGE_ROW_34_Right_34
*1018 PHY_EDGE_ROW_35_Left_78
*1019 PHY_EDGE_ROW_35_Right_35
*1020 PHY_EDGE_ROW_36_Left_79
*1021 PHY_EDGE_ROW_36_Right_36
*1022 PHY_EDGE_ROW_37_Left_80
*1023 PHY_EDGE_ROW_37_Right_37
*1024 PHY_EDGE_ROW_38_Left_81
*1025 PHY_EDGE_ROW_38_Right_38
*1026 PHY_EDGE_ROW_39_Left_82
*1027 PHY_EDGE_ROW_39_Right_39
*1028 PHY_EDGE_ROW_3_Left_46
*1029 PHY_EDGE_ROW_3_Right_3
*1030 PHY_EDGE_ROW_40_Left_83
*1031 PHY_EDGE_ROW_40_Right_40
*1032 PHY_EDGE_ROW_41_Left_84
*1033 PHY_EDGE_ROW_41_Right_41
*1034 PHY_EDGE_ROW_42_Left_85
*1035 PHY_EDGE_ROW_42_Right_42
*1036 PHY_EDGE_ROW_4_Left_47
*1037 PHY_EDGE_ROW_4_Right_4
*1038 PHY_EDGE_ROW_5_Left_48
*1039 PHY_EDGE_ROW_5_Right_5
*1040 PHY_EDGE_ROW_6_Left_49
*1041 PHY_EDGE_ROW_6_Right_6
*1042 PHY_EDGE_ROW_7_Left_50
*1043 PHY_EDGE_ROW_7_Right_7
*1044 PHY_EDGE_ROW_8_Left_51
*1045 PHY_EDGE_ROW_8_Right_8
*1046 PHY_EDGE_ROW_9_Left_52
*1047 PHY_EDGE_ROW_9_Right_9
*1048 TAP_TAPCELL_ROW_0_86
*1049 TAP_TAPCELL_ROW_0_87
*1050 TAP_TAPCELL_ROW_0_88
*1051 TAP_TAPCELL_ROW_0_89
*1052 TAP_TAPCELL_ROW_0_90
*1053 TAP_TAPCELL_ROW_10_113
*1054 TAP_TAPCELL_ROW_10_114
*1055 TAP_TAPCELL_ROW_10_115
*1056 TAP_TAPCELL_ROW_11_116
*1057 TAP_TAPCELL_ROW_11_117
*1058 TAP_TAPCELL_ROW_12_118
*1059 TAP_TAPCELL_ROW_12_119
*1060 TAP_TAPCELL_ROW_12_120
*1061 TAP_TAPCELL_ROW_13_121
*1062 TAP_TAPCELL_ROW_13_122
*1063 TAP_TAPCELL_ROW_14_123
*1064 TAP_TAPCELL_ROW_14_124
*1065 TAP_TAPCELL_ROW_14_125
*1066 TAP_TAPCELL_ROW_15_126
*1067 TAP_TAPCELL_ROW_15_127
*1068 TAP_TAPCELL_ROW_16_128
*1069 TAP_TAPCELL_ROW_16_129
*1070 TAP_TAPCELL_ROW_16_130
*1071 TAP_TAPCELL_ROW_17_131
*1072 TAP_TAPCELL_ROW_17_132
*1073 TAP_TAPCELL_ROW_18_133
*1074 TAP_TAPCELL_ROW_18_134
*1075 TAP_TAPCELL_ROW_18_135
*1076 TAP_TAPCELL_ROW_19_136
*1077 TAP_TAPCELL_ROW_19_137
*1078 TAP_TAPCELL_ROW_1_91
*1079 TAP_TAPCELL_ROW_1_92
*1080 TAP_TAPCELL_ROW_20_138
*1081 TAP_TAPCELL_ROW_20_139
*1082 TAP_TAPCELL_ROW_20_140
*1083 TAP_TAPCELL_ROW_21_141
*1084 TAP_TAPCELL_ROW_21_142
*1085 TAP_TAPCELL_ROW_22_143
*1086 TAP_TAPCELL_ROW_22_144
*1087 TAP_TAPCELL_ROW_22_145
*1088 TAP_TAPCELL_ROW_23_146
*1089 TAP_TAPCELL_ROW_23_147
*1090 TAP_TAPCELL_ROW_24_148
*1091 TAP_TAPCELL_ROW_24_149
*1092 TAP_TAPCELL_ROW_24_150
*1093 TAP_TAPCELL_ROW_25_151
*1094 TAP_TAPCELL_ROW_25_152
*1095 TAP_TAPCELL_ROW_26_153
*1096 TAP_TAPCELL_ROW_26_154
*1097 TAP_TAPCELL_ROW_26_155
*1098 TAP_TAPCELL_ROW_27_156
*1099 TAP_TAPCELL_ROW_27_157
*1100 TAP_TAPCELL_ROW_28_158
*1101 TAP_TAPCELL_ROW_28_159
*1102 TAP_TAPCELL_ROW_28_160
*1103 TAP_TAPCELL_ROW_29_161
*1104 TAP_TAPCELL_ROW_29_162
*1105 TAP_TAPCELL_ROW_2_93
*1106 TAP_TAPCELL_ROW_2_94
*1107 TAP_TAPCELL_ROW_2_95
*1108 TAP_TAPCELL_ROW_30_163
*1109 TAP_TAPCELL_ROW_30_164
*1110 TAP_TAPCELL_ROW_30_165
*1111 TAP_TAPCELL_ROW_31_166
*1112 TAP_TAPCELL_ROW_31_167
*1113 TAP_TAPCELL_ROW_32_168
*1114 TAP_TAPCELL_ROW_32_169
*1115 TAP_TAPCELL_ROW_32_170
*1116 TAP_TAPCELL_ROW_33_171
*1117 TAP_TAPCELL_ROW_33_172
*1118 TAP_TAPCELL_ROW_34_173
*1119 TAP_TAPCELL_ROW_34_174
*1120 TAP_TAPCELL_ROW_34_175
*1121 TAP_TAPCELL_ROW_35_176
*1122 TAP_TAPCELL_ROW_35_177
*1123 TAP_TAPCELL_ROW_36_178
*1124 TAP_TAPCELL_ROW_36_179
*1125 TAP_TAPCELL_ROW_36_180
*1126 TAP_TAPCELL_ROW_37_181
*1127 TAP_TAPCELL_ROW_37_182
*1128 TAP_TAPCELL_ROW_38_183
*1129 TAP_TAPCELL_ROW_38_184
*1130 TAP_TAPCELL_ROW_38_185
*1131 TAP_TAPCELL_ROW_39_186
*1132 TAP_TAPCELL_ROW_39_187
*1133 TAP_TAPCELL_ROW_3_96
*1134 TAP_TAPCELL_ROW_3_97
*1135 TAP_TAPCELL_ROW_40_188
*1136 TAP_TAPCELL_ROW_40_189
*1137 TAP_TAPCELL_ROW_40_190
*1138 TAP_TAPCELL_ROW_41_191
*1139 TAP_TAPCELL_ROW_41_192
*1140 TAP_TAPCELL_ROW_42_193
*1141 TAP_TAPCELL_ROW_42_194
*1142 TAP_TAPCELL_ROW_42_195
*1143 TAP_TAPCELL_ROW_42_196
*1144 TAP_TAPCELL_ROW_42_197
*1145 TAP_TAPCELL_ROW_4_100
*1146 TAP_TAPCELL_ROW_4_98
*1147 TAP_TAPCELL_ROW_4_99
*1148 TAP_TAPCELL_ROW_5_101
*1149 TAP_TAPCELL_ROW_5_102
*1150 TAP_TAPCELL_ROW_6_103
*1151 TAP_TAPCELL_ROW_6_104
*1152 TAP_TAPCELL_ROW_6_105
*1153 TAP_TAPCELL_ROW_7_106
*1154 TAP_TAPCELL_ROW_7_107
*1155 TAP_TAPCELL_ROW_8_108
*1156 TAP_TAPCELL_ROW_8_109
*1157 TAP_TAPCELL_ROW_8_110
*1158 TAP_TAPCELL_ROW_9_111
*1159 TAP_TAPCELL_ROW_9_112
*1160 _280_
*1161 _281_
*1162 _282_
*1163 _283_
*1164 _284_
*1165 _285_
*1166 _286_
*1167 _287_
*1168 _288_
*1169 _289_
*1170 _290_
*1171 _291_
*1172 _292_
*1173 _293_
*1174 _294_
*1175 _295_
*1176 _296_
*1177 _297_
*1178 _298_
*1179 _299_
*1180 _300_
*1181 _301_
*1182 _302_
*1183 _303_
*1184 _304_
*1185 _305_
*1186 _306_
*1187 _307_
*1188 _308_
*1189 _309_
*1190 _310_
*1191 _311_
*1192 _312_
*1193 _313_
*1194 _314_
*1195 _315_
*1196 _316_
*1197 _317_
*1198 _318_
*1199 _319_
*1200 _320_
*1201 _321_
*1202 _322_
*1203 _323_
*1204 _324_
*1205 _325_
*1206 _326_
*1207 _327_
*1208 _328_
*1209 _329_
*1210 _330_
*1211 _331_
*1212 _332_
*1213 _333_
*1214 _334_
*1215 _335_
*1216 _336_
*1217 _337_
*1218 _338_
*1219 _339_
*1220 _340_
*1221 _341_
*1222 _342_
*1223 _343_
*1224 _344_
*1225 _345_
*1226 _346_
*1227 _347_
*1228 _348_
*1229 _349_
*1230 _350_
*1231 _351_
*1232 _352_
*1233 _353_
*1234 _354_
*1235 _355_
*1236 _356_
*1237 _357_
*1238 _358_
*1239 _359_
*1240 _360_
*1241 _361_
*1242 _362_
*1243 _363_
*1244 _364_
*1245 _365_
*1246 _366_
*1247 _367_
*1248 _368_
*1249 _369_
*1250 _370_
*1251 _371_
*1252 _372_
*1253 _373_
*1254 _374_
*1255 _375_
*1256 _376_
*1257 _377_
*1258 _378_
*1259 _379_
*1260 _380_
*1261 _381_
*1262 _382_
*1263 _383_
*1264 _384_
*1265 _385_
*1266 _386_
*1267 _387_
*1268 _388_
*1269 _389_
*1270 _390_
*1271 _391_
*1272 _392_
*1273 _393_
*1274 _394_
*1275 _395_
*1276 _396_
*1277 _397_
*1278 _398_
*1279 _399_
*1280 _400_
*1281 _401_
*1282 _402_
*1283 _403_
*1284 _404_
*1285 _405_
*1286 _406_
*1287 _407_
*1288 _408_
*1289 _409_
*1290 _410_
*1291 _411_
*1292 _412_
*1293 _413_
*1294 _414_
*1295 _415_
*1296 _416_
*1297 _417_
*1298 _418_
*1299 _419_
*1300 _420_
*1301 _421_
*1302 _422_
*1303 _423_
*1304 _424_
*1305 _425_
*1306 _426_
*1307 _427_
*1308 _428_
*1309 _429_
*1310 _430_
*1311 _431_
*1312 _432_
*1313 _433_
*1314 _434_
*1315 _435_
*1316 _436_
*1317 _437_
*1318 _438_
*1319 _439_
*1320 _440_
*1321 _441_
*1322 _442_
*1323 _443_
*1324 _444_
*1325 _445_
*1326 _446_
*1327 _447_
*1328 _448_
*1329 _449_
*1330 _450_
*1331 _451_
*1332 _452_
*1333 _453_
*1334 _454_
*1335 _455_
*1336 _456_
*1337 _457_
*1338 _458_
*1339 _459_
*1340 _460_
*1341 _461_
*1342 _462_
*1343 _463_
*1344 _464_
*1345 _465_
*1346 _466_
*1347 _467_
*1348 _468_
*1349 _469_
*1350 _470_
*1351 _471_
*1352 _472_
*1353 _473_
*1354 _474_
*1355 _475_
*1356 _476_
*1357 _477_
*1358 _478_
*1359 _479_
*1360 _480_
*1361 _481_
*1362 _482_
*1363 _483_
*1364 _484_
*1365 _485_
*1366 _486_
*1367 _487_
*1368 _488_
*1369 _489_
*1370 _490_
*1371 _491_
*1372 _492_
*1373 _493_
*1374 _494_
*1375 _495_
*1376 _496_
*1377 _497_
*1378 _498_
*1379 _499_
*1380 _500_
*1381 _501_
*1382 _502_
*1383 _503_
*1384 _504_
*1385 _505_
*1386 _506_
*1387 _507_
*1388 _508_
*1389 _509_
*1390 _510_
*1391 _511_
*1392 _512_
*1393 _513_
*1394 _514_
*1395 _515_
*1396 _516_
*1397 _517_
*1398 _518_
*1399 _519_
*1400 _520_
*1401 _521_
*1402 _522_
*1403 _523_
*1404 _524_
*1405 _525_
*1406 _526_
*1407 _527_
*1408 _528_
*1409 _529_
*1410 _530_
*1411 _531_
*1412 _532_
*1413 _533_
*1414 _534_
*1415 _535_
*1416 _536_
*1417 _537_
*1418 _538_
*1419 _539_
*1420 _540_
*1421 _541_
*1422 _542_
*1423 _543_
*1424 _544_
*1425 _545_
*1426 _546_
*1427 _547_
*1428 _548_
*1429 _549_
*1430 _550_
*1431 _551_
*1432 _552_
*1433 _553_
*1434 _554_
*1435 _555_
*1436 _556_
*1437 _557_
*1438 _558_
*1439 _559_
*1440 _560_
*1441 _561_
*1442 _562_
*1443 _563_
*1444 _564_
*1445 _565_
*1446 _566_
*1447 _567_
*1448 _568_
*1449 _569_
*1450 _570_
*1451 _571_
*1452 _572_
*1453 _573_
*1454 _574_
*1455 _575_
*1456 _576_
*1457 _577_
*1458 _578_
*1459 _579_
*1460 _580_
*1461 _581_
*1462 _582_
*1463 _583_
*1464 _584_
*1465 _585_
*1466 _586_
*1467 _587_
*1468 _588_
*1469 _589_
*1470 _590_
*1471 _591_
*1472 _592_
*1473 _593_
*1474 _594_
*1475 _595_
*1476 _596_
*1477 _597_
*1478 _598_
*1479 _599_
*1480 _600_
*1481 _601_
*1482 _602_
*1483 _603_
*1484 _604_
*1485 _605_
*1486 _606_
*1487 _607_
*1488 _608_
*1489 _609_
*1490 _610_
*1491 _611_
*1492 _612_
*1493 _613_
*1494 _614_
*1495 _615_
*1496 _616_
*1497 _617_
*1498 _618_
*1499 _619_
*1500 _620_
*1501 _621_
*1502 _622_
*1503 _623_
*1504 _624_
*1505 clkbuf_0_clk
*1506 clkbuf_3_0__f_clk
*1507 clkbuf_3_1__f_clk
*1508 clkbuf_3_2__f_clk
*1509 clkbuf_3_3__f_clk
*1510 clkbuf_3_4__f_clk
*1511 clkbuf_3_5__f_clk
*1512 clkbuf_3_6__f_clk
*1513 clkbuf_3_7__f_clk
*1514 clkload0
*1515 clkload1
*1516 clkload2
*1517 clkload3
*1518 clkload4
*1519 clkload5
*1520 fanout13
*1521 fanout14
*1522 fanout15
*1523 fanout16
*1524 fanout18
*1525 fanout19
*1526 fanout20
*1527 fanout21
*1528 fanout22
*1529 fanout23
*1530 fanout24
*1531 fanout25
*1532 fanout26
*1533 fanout8
*1534 fanout9
*1535 input1
*1536 input2
*1537 input3
*1538 load_slew10
*1539 max_cap11
*1540 max_cap12
*1541 output4
*1542 output5
*1543 output6
*1544 output7
*1545 wire17

*PORTS
cap_ctrl[0] O
cap_ctrl[1] O
cap_ctrl[2] O
clk I
comp_out I
en I
scl I
sda I
trigger_out O

*D_NET *3 0.00183302
*CONN
*P cap_ctrl[0] O
*I *1541:Z O *D gf180mcu_fd_sc_mcu7t5v0__dlyb_1
*CAP
1 cap_ctrl[0] 0.000814457
2 *1541:Z 0.000814457
3 cap_ctrl[0] *1419:I 0
4 cap_ctrl[0] *1541:I 0.000204104
*RES
1 *1541:Z cap_ctrl[0] 11.025 
*END

*D_NET *4 0.00161543
*CONN
*P cap_ctrl[1] O
*I *1542:Z O *D gf180mcu_fd_sc_mcu7t5v0__dlyb_1
*CAP
1 cap_ctrl[1] 0.000807716
2 *1542:Z 0.000807716
3 cap_ctrl[1] *1542:I 0
*RES
1 *1542:Z cap_ctrl[1] 10.665 
*END

*D_NET *5 0.00161543
*CONN
*P cap_ctrl[2] O
*I *1543:Z O *D gf180mcu_fd_sc_mcu7t5v0__dlyb_1
*CAP
1 cap_ctrl[2] 0.000807716
2 *1543:Z 0.000807716
*RES
1 *1543:Z cap_ctrl[2] 10.665 
*END

*D_NET *6 0.00443313
*CONN
*P clk I
*I *1505:I I *D gf180mcu_fd_sc_mcu7t5v0__clkbuf_16
*CAP
1 clk 0.00147874
2 *1505:I 0.00147874
3 *1505:I *1225:B1 0.000583531
4 *1505:I *1398:I 0
5 *1505:I *1429:I 0.000158748
6 *1505:I *141:8 0.000169917
7 *1505:I *141:10 0.00027267
8 *1505:I *283:12 0.000254207
9 *1505:I *317:27 0
10 *1505:I *326:12 3.65641e-05
*RES
1 clk *1505:I 23.3164 
*END

*D_NET *7 0.00163992
*CONN
*P comp_out I
*I *1535:I I *D gf180mcu_fd_sc_mcu7t5v0__dlyb_1
*CAP
1 comp_out 0.000819959
2 *1535:I 0.000819959
*RES
1 comp_out *1535:I 10.845 
*END

*D_NET *8 0.00156328
*CONN
*P en I
*I *1536:I I *D gf180mcu_fd_sc_mcu7t5v0__dlyb_1
*CAP
1 en 0.000474356
2 *1536:I 0.000474356
3 *1536:I *1497:D 8.40905e-05
4 *1536:I *1497:CLK 0.000428433
5 *1536:I *293:30 3.54228e-06
6 *1536:I *293:39 9.85004e-05
*RES
1 en *1536:I 13.275 
*END

*D_NET *9 0.00137759
*CONN
*P scl I
*I *1537:I I *D gf180mcu_fd_sc_mcu7t5v0__dlyb_1
*CAP
1 scl 0.000470559
2 *1537:I 0.000470559
3 *1537:I *1249:B 0.000436469
*RES
1 scl *1537:I 13.095 
*END

*D_NET *10 0.005349
*CONN
*P sda I
*I *1503:D I *D gf180mcu_fd_sc_mcu7t5v0__dffsnq_1
*I *1164:I I *D gf180mcu_fd_sc_mcu7t5v0__clkinv_1
*I *1545:Z O *D gf180mcu_fd_sc_mcu7t5v0__buf_3
*CAP
1 sda 0.000499287
2 *1503:D 0
3 *1164:I 0
4 *1545:Z 0.000858172
5 *10:19 0.000620894
6 *10:12 0.000979779
7 sda *218:33 3.38355e-05
8 sda *219:10 3.07932e-05
9 *10:12 *1503:SETN 0
10 *10:12 *297:10 0.000814501
11 *10:12 *297:18 0.00121565
12 *10:12 *360:8 2.3259e-05
13 *10:19 *218:33 0.000164306
14 *10:19 *219:10 0.000108524
*RES
1 *1545:Z *10:12 21.24 
2 *10:12 *1164:I 4.5 
3 *10:12 *10:19 1.53 
4 *10:19 *1503:D 4.5 
5 *10:19 sda 8.595 
*END

*D_NET *11 0.000858284
*CONN
*P trigger_out O
*I *1544:Z O *D gf180mcu_fd_sc_mcu7t5v0__dlyb_1
*CAP
1 trigger_out 0.000429142
2 *1544:Z 0.000429142
*RES
1 *1544:Z trigger_out 12.285 
*END

*D_NET *12 0.000992937
*CONN
*I *1492:D I *D gf180mcu_fd_sc_mcu7t5v0__dffrnq_1
*I *1354:ZN O *D gf180mcu_fd_sc_mcu7t5v0__nand2_1
*CAP
1 *1492:D 0.000142625
2 *1354:ZN 0.000142625
3 *1492:D *1354:A2 0.000432763
4 *1492:D *270:22 0.000274925
*RES
1 *1354:ZN *1492:D 11.61 
*END

*D_NET *13 0.00149676
*CONN
*I *1493:D I *D gf180mcu_fd_sc_mcu7t5v0__dffrnq_1
*I *1352:ZN O *D gf180mcu_fd_sc_mcu7t5v0__nand2_1
*CAP
1 *1493:D 0.000323697
2 *1352:ZN 0.000323697
3 *1493:D *1266:A2 0
4 *1493:D *1267:A2 0.00015997
5 *1493:D *1270:A1 0.00015997
6 *1493:D *1271:A2 5.30888e-06
7 *1493:D *1271:C 4.89242e-05
8 *1493:D *1272:A2 0.000111618
9 *1493:D *1493:CLK 7.55765e-06
10 *1493:D *327:29 3.22122e-05
11 *1493:D *327:67 0.000323805
*RES
1 *1352:ZN *1493:D 12.78 
*END

*D_NET *14 0.00193883
*CONN
*I *1494:D I *D gf180mcu_fd_sc_mcu7t5v0__dffrnq_1
*I *1348:ZN O *D gf180mcu_fd_sc_mcu7t5v0__nand2_1
*CAP
1 *1494:D 8.27258e-05
2 *1348:ZN 8.27258e-05
3 *1494:D *1348:A2 0.000974129
4 *1494:D *1349:A1 6.7989e-05
5 *1494:D *1353:A2 9.84908e-05
6 *1494:D *294:12 4.6613e-06
7 *1494:D *366:45 0.000628106
*RES
1 *1348:ZN *1494:D 11.61 
*END

*D_NET *15 0.00161125
*CONN
*I *1495:D I *D gf180mcu_fd_sc_mcu7t5v0__dffrnq_1
*I *1343:ZN O *D gf180mcu_fd_sc_mcu7t5v0__oai32_1
*CAP
1 *1495:D 0.000315178
2 *1343:ZN 0.000315178
3 *1495:D *1187:I 2.5688e-05
4 *1495:D *1343:A2 0
5 *1495:D *1343:B1 0.000407243
6 *1495:D *235:6 1.56779e-05
7 *1495:D *270:22 0.000362773
8 *1495:D *359:8 0
9 *1495:D *365:14 0.000169515
*RES
1 *1343:ZN *1495:D 12.51 
*END

*D_NET *16 0.000830271
*CONN
*I *1496:D I *D gf180mcu_fd_sc_mcu7t5v0__dffrnq_1
*I *1342:ZN O *D gf180mcu_fd_sc_mcu7t5v0__oai22_1
*CAP
1 *1496:D 0.000160769
2 *1342:ZN 0.000160769
3 *1496:D *1341:A1 3.98088e-05
4 *1496:D *1341:B2 3.98088e-05
5 *1496:D *301:12 0.000429116
*RES
1 *1342:ZN *1496:D 28.44 
*END

*D_NET *17 0.00252404
*CONN
*I *1497:D I *D gf180mcu_fd_sc_mcu7t5v0__dffrnq_1
*I *1341:ZN O *D gf180mcu_fd_sc_mcu7t5v0__oai22_1
*CAP
1 *1497:D 0.000835426
2 *1341:ZN 0.000835426
3 *1497:D *1383:I 3.92088e-05
4 *1497:D *1493:RN 1.45245e-05
5 *1497:D *1497:CLK 8.1639e-05
6 *1497:D *1532:I 0
7 *1497:D *293:30 0.000298261
8 *1497:D *293:39 1.94333e-05
9 *1497:D *310:32 5.07033e-06
10 *1497:D *310:36 9.39823e-05
11 *1497:D *319:30 0.000216974
12 *1536:I *1497:D 8.40905e-05
*RES
1 *1341:ZN *1497:D 25.29 
*END

*D_NET *18 0.00174821
*CONN
*I *1501:D I *D gf180mcu_fd_sc_mcu7t5v0__dffrnq_1
*I *1345:Z O *D gf180mcu_fd_sc_mcu7t5v0__and2_1
*CAP
1 *1501:D 0.000441884
2 *1345:Z 0.000441884
3 *1501:D *1477:CLK 0
4 *1501:D *237:8 0
5 *1501:D *293:18 0.000369127
6 *1501:D *293:22 1.55466e-05
7 *1501:D *310:47 0.000233481
8 *1501:D *310:88 0.000233757
9 *1501:D *366:12 1.25323e-05
*RES
1 *1345:Z *1501:D 22.32 
*END

*D_NET *19 0.00140984
*CONN
*I *1441:D I *D gf180mcu_fd_sc_mcu7t5v0__dffrnq_1
*I *1355:ZN O *D gf180mcu_fd_sc_mcu7t5v0__nor3_1
*CAP
1 *1441:D 0.000448884
2 *1355:ZN 0.000448884
3 *1441:D *1302:A1 8.32356e-05
4 *1441:D *1395:I 0
5 *1441:D *1441:CLK 0.000124614
6 *1441:D *1442:D 9.04462e-05
7 *1441:D *1522:I 0.000105585
8 *1441:D *296:6 7.39648e-05
9 *1441:D *296:19 0
10 *1441:D *351:10 3.42213e-05
*RES
1 *1355:ZN *1441:D 21.96 
*END

*D_NET *20 0.00254036
*CONN
*I *1442:D I *D gf180mcu_fd_sc_mcu7t5v0__dffrnq_1
*I *1358:ZN O *D gf180mcu_fd_sc_mcu7t5v0__nor3_1
*CAP
1 *1442:D 0.000370704
2 *1358:ZN 0.000370704
3 *1442:D *1355:A1 6.22032e-05
4 *1442:D *1355:A2 0.000826709
5 *1442:D *1426:I 2.20694e-05
6 *1442:D *1522:I 1.56862e-05
7 *1442:D *296:6 0.000325546
8 *1442:D *296:19 0.000302284
9 *1442:D *306:119 0.000153289
10 *1442:D *314:6 7.191e-07
11 *1441:D *1442:D 9.04462e-05
*RES
1 *1358:ZN *1442:D 22.77 
*END

*D_NET *21 0.00056968
*CONN
*I *1443:D I *D gf180mcu_fd_sc_mcu7t5v0__dffrnq_1
*I *1362:ZN O *D gf180mcu_fd_sc_mcu7t5v0__nor3_1
*CAP
1 *1443:D 0.000258789
2 *1362:ZN 0.000258789
3 *1443:D *199:86 2.56915e-05
4 *1443:D *296:44 7.191e-07
5 *1443:D *296:51 2.56915e-05
*RES
1 *1362:ZN *1443:D 10.8 
*END

*D_NET *22 0.000854751
*CONN
*I *1444:D I *D gf180mcu_fd_sc_mcu7t5v0__dffrnq_1
*I *1365:ZN O *D gf180mcu_fd_sc_mcu7t5v0__nor4_1
*CAP
1 *1444:D 0.000156504
2 *1365:ZN 0.000156504
3 *1444:D *199:76 7.55765e-06
4 *1444:D *326:14 7.82853e-05
5 *1444:D *341:10 0.000169515
6 *1444:D *341:25 0.000286386
*RES
1 *1365:ZN *1444:D 10.8 
*END

*D_NET *23 0.000751216
*CONN
*I *1445:D I *D gf180mcu_fd_sc_mcu7t5v0__dffrnq_1
*I *1368:ZN O *D gf180mcu_fd_sc_mcu7t5v0__nor4_1
*CAP
1 *1445:D 0.000109951
2 *1368:ZN 0.000109951
3 *1445:D *1368:A1 0.000365454
4 *1445:D *1368:A3 9.07783e-05
5 *1445:D *1530:I 7.50811e-05
*RES
1 *1368:ZN *1445:D 19.44 
*END

*D_NET *24 0.00104611
*CONN
*I *1446:D I *D gf180mcu_fd_sc_mcu7t5v0__dffrnq_1
*I *1371:ZN O *D gf180mcu_fd_sc_mcu7t5v0__nor3_1
*CAP
1 *1446:D 0.000326026
2 *1371:ZN 0.000326026
3 *1446:D *1371:A1 0.000110838
4 *1446:D *1371:A3 5.36871e-05
5 *1446:D *1439:I 6.95653e-05
6 *1446:D *1447:CLK 0
7 *1446:D *1484:RN 0.00015997
*RES
1 *1371:ZN *1446:D 11.97 
*END

*D_NET *25 0.000550407
*CONN
*I *1447:D I *D gf180mcu_fd_sc_mcu7t5v0__dffrnq_1
*I *1374:ZN O *D gf180mcu_fd_sc_mcu7t5v0__nor3_1
*CAP
1 *1447:D 0.000189035
2 *1374:ZN 0.000189035
3 *1447:D *1370:A2 0.000148576
4 *1447:D *1374:A3 0
5 *1447:D *199:45 2.37622e-05
*RES
1 *1374:ZN *1447:D 10.62 
*END

*D_NET *26 0.000545304
*CONN
*I *1448:D I *D gf180mcu_fd_sc_mcu7t5v0__dffrnq_1
*I *1376:ZN O *D gf180mcu_fd_sc_mcu7t5v0__nor3_1
*CAP
1 *1448:D 0.000143665
2 *1376:ZN 0.000143665
3 *1448:D *199:53 6.57682e-05
4 *1448:D *325:23 0.000192205
*RES
1 *1376:ZN *1448:D 10.62 
*END

*D_NET *27 0.00193065
*CONN
*I *1487:RN I *D gf180mcu_fd_sc_mcu7t5v0__dffrnq_1
*I *1377:S I *D gf180mcu_fd_sc_mcu7t5v0__mux2_2
*I *1193:ZN O *D gf180mcu_fd_sc_mcu7t5v0__clkinv_1
*CAP
1 *1487:RN 0.000320497
2 *1377:S 0.000142208
3 *1193:ZN 0.000125048
4 *27:10 0.000587753
5 *1377:S *1480:D 0
6 *1377:S *259:10 0
7 *1487:RN *1337:A4 0
8 *1487:RN *1388:I 0.000641505
9 *1487:RN *1480:D 0
10 *1487:RN *259:10 0
11 *27:10 *1336:A1 2.99208e-05
12 *27:10 *1337:A4 7.84068e-05
13 *27:10 *1388:I 5.30888e-06
*RES
1 *1193:ZN *27:10 10.08 
2 *27:10 *1377:S 9.81 
3 *27:10 *1487:RN 11.7 
*END

*D_NET *28 0.00153557
*CONN
*I *1488:RN I *D gf180mcu_fd_sc_mcu7t5v0__dffrnq_1
*I *1378:ZN O *D gf180mcu_fd_sc_mcu7t5v0__clkinv_1
*CAP
1 *1488:RN 8.51102e-05
2 *1378:ZN 8.51102e-05
3 *1488:RN *302:43 0.000578516
4 *1488:RN *316:51 7.65425e-05
5 *1488:RN *325:55 0.000193258
6 *1488:RN *325:61 0.000517033
*RES
1 *1378:ZN *1488:RN 11.34 
*END

*D_NET *29 0.000405299
*CONN
*I *1489:RN I *D gf180mcu_fd_sc_mcu7t5v0__dffrnq_1
*I *1379:ZN O *D gf180mcu_fd_sc_mcu7t5v0__clkinv_1
*CAP
1 *1489:RN 5.50566e-05
2 *1379:ZN 5.50566e-05
3 *1489:RN *1332:A1 8.66004e-05
4 *1489:RN *315:71 0.000176901
5 *1489:RN *374:27 3.16842e-05
*RES
1 *1379:ZN *1489:RN 19.35 
*END

*D_NET *30 0.000782884
*CONN
*I *1490:RN I *D gf180mcu_fd_sc_mcu7t5v0__dffrnq_1
*I *1380:ZN O *D gf180mcu_fd_sc_mcu7t5v0__clkinv_1
*CAP
1 *1490:RN 0.00012263
2 *1380:ZN 0.00012263
3 *1490:RN *1202:A2 0
4 *1490:RN *1205:C1 9.84908e-05
5 *1490:RN *372:36 0.000436478
6 *1490:RN *375:6 2.65444e-06
*RES
1 *1380:ZN *1490:RN 10.35 
*END

*D_NET *31 0.000734556
*CONN
*I *1491:RN I *D gf180mcu_fd_sc_mcu7t5v0__dffrnq_1
*I *1381:ZN O *D gf180mcu_fd_sc_mcu7t5v0__clkinv_1
*CAP
1 *1491:RN 0.000103177
2 *1381:ZN 0.000103177
3 *1491:RN *1198:A1 0
4 *1491:RN *315:65 0.000515537
5 *1491:RN *376:6 1.26644e-05
*RES
1 *1381:ZN *1491:RN 10.35 
*END

*D_NET *32 0.000224332
*CONN
*I *1492:RN I *D gf180mcu_fd_sc_mcu7t5v0__dffrnq_1
*I *1382:ZN O *D gf180mcu_fd_sc_mcu7t5v0__clkinv_1
*CAP
1 *1492:RN 0.000112166
2 *1382:ZN 0.000112166
3 *1492:RN *1345:A2 0
*RES
1 *1382:ZN *1492:RN 9.63 
*END

*D_NET *33 0.00453497
*CONN
*I *1493:RN I *D gf180mcu_fd_sc_mcu7t5v0__dffrnq_1
*I *1383:ZN O *D gf180mcu_fd_sc_mcu7t5v0__clkinv_1
*CAP
1 *1493:RN 0.00165835
2 *1383:ZN 0.00165835
3 *1493:RN *1186:I 0.000142517
4 *1493:RN *1338:A2 0
5 *1493:RN *1341:B2 3.69158e-05
6 *1493:RN *1342:A1 0
7 *1493:RN *1342:B2 3.27459e-06
8 *1493:RN *1465:CLK 0.000125378
9 *1493:RN *1497:RN 0
10 *1493:RN *268:14 0.000109866
11 *1493:RN *301:10 0.000109323
12 *1493:RN *310:32 0
13 *1493:RN *319:6 0.000496766
14 *1493:RN *319:30 0
15 *1493:RN *319:62 0.000106536
16 *1493:RN *363:8 2.53811e-05
17 *1493:RN *363:31 4.77966e-05
18 *1493:RN *366:35 0
19 *1497:D *1493:RN 1.45245e-05
*RES
1 *1383:ZN *1493:RN 30.51 
*END

*D_NET *34 0.00119632
*CONN
*I *1494:RN I *D gf180mcu_fd_sc_mcu7t5v0__dffrnq_1
*I *1384:ZN O *D gf180mcu_fd_sc_mcu7t5v0__clkinv_1
*CAP
1 *1494:RN 0.000248096
2 *1384:ZN 0.000248096
3 *1494:RN *1469:D 8.96665e-05
4 *1494:RN *1469:CLK 0.000586561
5 *1494:RN *207:25 2.38983e-05
6 *1494:RN *364:10 0
*RES
1 *1384:ZN *1494:RN 11.97 
*END

*D_NET *35 0.00112427
*CONN
*I *1495:RN I *D gf180mcu_fd_sc_mcu7t5v0__dffrnq_1
*I *1385:ZN O *D gf180mcu_fd_sc_mcu7t5v0__clkinv_1
*CAP
1 *1495:RN 0.000210419
2 *1385:ZN 0.000210419
3 *1495:RN *1288:I1 0
4 *1495:RN *1385:I 0.000703432
*RES
1 *1385:ZN *1495:RN 11.16 
*END

*D_NET *36 0.00065166
*CONN
*I *1496:RN I *D gf180mcu_fd_sc_mcu7t5v0__dffrnq_1
*I *1386:ZN O *D gf180mcu_fd_sc_mcu7t5v0__clkinv_1
*CAP
1 *1496:RN 0.000149835
2 *1386:ZN 0.000149835
3 *1496:RN *1477:CLK 0.000111971
4 *1496:RN *293:22 8.38699e-05
5 *1496:RN *293:24 7.77106e-05
6 *1496:RN *310:47 7.84385e-05
*RES
1 *1386:ZN *1496:RN 19.62 
*END

*D_NET *37 0.000825905
*CONN
*I *1497:RN I *D gf180mcu_fd_sc_mcu7t5v0__dffrnq_1
*I *1387:ZN O *D gf180mcu_fd_sc_mcu7t5v0__clkinv_1
*CAP
1 *1497:RN 0.000349613
2 *1387:ZN 0.000349613
3 *1497:RN *1383:I 5.69319e-05
4 *1497:RN *1532:I 6.97472e-05
5 *1493:RN *1497:RN 0
*RES
1 *1387:ZN *1497:RN 20.7 
*END

*D_NET *38 0.000357776
*CONN
*I *1498:RN I *D gf180mcu_fd_sc_mcu7t5v0__dffrnq_1
*I *1388:ZN O *D gf180mcu_fd_sc_mcu7t5v0__clkinv_1
*CAP
1 *1498:RN 6.31671e-05
2 *1388:ZN 6.31671e-05
3 *1498:RN *1388:I 0.000231442
*RES
1 *1388:ZN *1498:RN 9.63 
*END

*D_NET *39 0.000655262
*CONN
*I *1499:RN I *D gf180mcu_fd_sc_mcu7t5v0__dffrnq_1
*I *1389:ZN O *D gf180mcu_fd_sc_mcu7t5v0__clkinv_1
*CAP
1 *1499:RN 0.000264974
2 *1389:ZN 0.000264974
3 *1499:RN *1190:I 4.03999e-05
4 *1499:RN *1389:I 8.49143e-05
*RES
1 *1389:ZN *1499:RN 10.98 
*END

*D_NET *40 0.000629585
*CONN
*I *1500:SETN I *D gf180mcu_fd_sc_mcu7t5v0__dffsnq_1
*I *1390:ZN O *D gf180mcu_fd_sc_mcu7t5v0__clkinv_1
*CAP
1 *1500:SETN 0.000224618
2 *1390:ZN 0.000224618
3 *1500:SETN *1183:I 8.69474e-05
4 *1500:SETN *1268:A2 6.317e-05
5 *1500:SETN *297:61 3.02306e-05
*RES
1 *1390:ZN *1500:SETN 11.07 
*END

*D_NET *41 0.00131731
*CONN
*I *1501:RN I *D gf180mcu_fd_sc_mcu7t5v0__dffrnq_1
*I *1391:ZN O *D gf180mcu_fd_sc_mcu7t5v0__clkinv_1
*CAP
1 *1501:RN 0.000375447
2 *1391:ZN 0.000375447
3 *1501:RN *1274:A1 9.17162e-06
4 *1501:RN *1506:I 9.71723e-05
5 *1501:RN *237:34 0.000378299
6 *1501:RN *349:12 8.17749e-05
*RES
1 *1391:ZN *1501:RN 12.69 
*END

*D_NET *42 0.000529486
*CONN
*I *1502:SETN I *D gf180mcu_fd_sc_mcu7t5v0__dffsnq_1
*I *1392:ZN O *D gf180mcu_fd_sc_mcu7t5v0__clkinv_1
*CAP
1 *1502:SETN 0.000195363
2 *1392:ZN 0.000195363
3 *1502:SETN *1339:A1 0
4 *1502:SETN *1339:A2 0
5 *1502:SETN *1392:I 7.01651e-05
6 *1502:SETN *269:16 6.85956e-05
*RES
1 *1392:ZN *1502:SETN 10.62 
*END

*D_NET *43 0.00189755
*CONN
*I *1503:SETN I *D gf180mcu_fd_sc_mcu7t5v0__dffsnq_1
*I *1393:ZN O *D gf180mcu_fd_sc_mcu7t5v0__clkinv_1
*CAP
1 *1503:SETN 0.000570088
2 *1393:ZN 0.000570088
3 *1503:SETN *1254:A2 3.44263e-05
4 *1503:SETN *1339:A2 3.26871e-05
5 *1503:SETN *1531:I 0.000134664
6 *1503:SETN *220:10 0.000555598
7 *10:12 *1503:SETN 0
*RES
1 *1393:ZN *1503:SETN 23.4 
*END

*D_NET *44 0.000898412
*CONN
*I *1504:SETN I *D gf180mcu_fd_sc_mcu7t5v0__dffsnq_1
*I *1394:ZN O *D gf180mcu_fd_sc_mcu7t5v0__clkinv_1
*CAP
1 *1504:SETN 0.000150326
2 *1394:ZN 0.000150326
3 *1504:SETN *217:12 6.7989e-05
4 *1504:SETN *269:32 0.000368291
5 *1504:SETN *311:14 0.000161479
*RES
1 *1394:ZN *1504:SETN 10.89 
*END

*D_NET *45 0.00121358
*CONN
*I *1441:RN I *D gf180mcu_fd_sc_mcu7t5v0__dffrnq_1
*I *1395:ZN O *D gf180mcu_fd_sc_mcu7t5v0__clkinv_1
*CAP
1 *1441:RN 0.000467854
2 *1395:ZN 0.000467854
3 *1441:RN *1211:B1 0.000112242
4 *1441:RN *1357:A1 0
5 *1441:RN *1442:RN 4.82191e-05
6 *1441:RN *306:119 8.09276e-06
7 *1441:RN *379:12 0.000109323
8 *1441:RN *380:8 0
9 *1441:RN *380:47 0
*RES
1 *1395:ZN *1441:RN 21.78 
*END

*D_NET *46 0.00188192
*CONN
*I *1442:RN I *D gf180mcu_fd_sc_mcu7t5v0__dffrnq_1
*I *1396:ZN O *D gf180mcu_fd_sc_mcu7t5v0__clkinv_1
*CAP
1 *1442:RN 0.000496544
2 *1396:ZN 0.000496544
3 *1442:RN *1211:B1 5.72035e-05
4 *1442:RN *1357:A1 0.000488524
5 *1442:RN *1358:A3 0.000145556
6 *1442:RN *296:44 0.000119182
7 *1442:RN *306:119 0
8 *1442:RN *314:29 3.01487e-05
9 *1441:RN *1442:RN 4.82191e-05
*RES
1 *1396:ZN *1442:RN 22.86 
*END

*D_NET *47 0.000897369
*CONN
*I *1443:RN I *D gf180mcu_fd_sc_mcu7t5v0__dffrnq_1
*I *1397:ZN O *D gf180mcu_fd_sc_mcu7t5v0__clkinv_1
*CAP
1 *1443:RN 5.45789e-05
2 *1397:ZN 5.45789e-05
3 *1443:RN *1220:A1 0.000494094
4 *1443:RN *1397:I 0.000223398
5 *1443:RN *165:6 7.07199e-05
*RES
1 *1397:ZN *1443:RN 10.35 
*END

*D_NET *48 0.000357776
*CONN
*I *1444:RN I *D gf180mcu_fd_sc_mcu7t5v0__dffrnq_1
*I *1398:ZN O *D gf180mcu_fd_sc_mcu7t5v0__clkinv_1
*CAP
1 *1444:RN 6.31671e-05
2 *1398:ZN 6.31671e-05
3 *1444:RN *1220:A1 0.000231442
4 *1444:RN *1225:B1 0
*RES
1 *1398:ZN *1444:RN 9.63 
*END

*D_NET *49 0.000410596
*CONN
*I *1445:RN I *D gf180mcu_fd_sc_mcu7t5v0__dffrnq_1
*I *1399:ZN O *D gf180mcu_fd_sc_mcu7t5v0__clkinv_1
*CAP
1 *1445:RN 0.000145906
2 *1399:ZN 0.000145906
3 *1445:RN *1372:A3 3.42213e-05
4 *1445:RN *1399:I 0
5 *1445:RN *383:8 8.45636e-05
*RES
1 *1399:ZN *1445:RN 19.35 
*END

*D_NET *50 0.00291042
*CONN
*I *1446:RN I *D gf180mcu_fd_sc_mcu7t5v0__dffrnq_1
*I *1400:ZN O *D gf180mcu_fd_sc_mcu7t5v0__clkinv_1
*CAP
1 *1446:RN 0.000511459
2 *1400:ZN 0.000511459
3 *1446:RN *1369:A1 0.000127164
4 *1446:RN *1370:A1 0.000166469
5 *1446:RN *1373:A1 0.000365445
6 *1446:RN *1374:A3 0.000336058
7 *1446:RN *199:45 2.32439e-05
8 *1446:RN *199:47 6.317e-05
9 *1446:RN *285:27 4.74921e-05
10 *1446:RN *317:96 3.18876e-05
11 *1446:RN *317:98 0.000726573
*RES
1 *1400:ZN *1446:RN 24.3 
*END

*D_NET *51 0.000811725
*CONN
*I *1447:RN I *D gf180mcu_fd_sc_mcu7t5v0__dffrnq_1
*I *1401:ZN O *D gf180mcu_fd_sc_mcu7t5v0__clkinv_1
*CAP
1 *1447:RN 4.41731e-05
2 *1401:ZN 4.41731e-05
3 *1447:RN *1401:I 0.000507492
4 *1447:RN *385:27 0.000215887
*RES
1 *1401:ZN *1447:RN 10.35 
*END

*D_NET *52 0.000491221
*CONN
*I *1448:RN I *D gf180mcu_fd_sc_mcu7t5v0__dffrnq_1
*I *1402:ZN O *D gf180mcu_fd_sc_mcu7t5v0__clkinv_1
*CAP
1 *1448:RN 1.41682e-05
2 *1402:ZN 1.41682e-05
3 *1448:RN *1375:A2 0.000231442
4 *1448:RN *1402:I 0.000231442
*RES
1 *1402:ZN *1448:RN 9.63 
*END

*D_NET *53 0.000716175
*CONN
*I *1449:SETN I *D gf180mcu_fd_sc_mcu7t5v0__dffsnq_1
*I *1403:ZN O *D gf180mcu_fd_sc_mcu7t5v0__clkinv_1
*CAP
1 *1449:SETN 0.000171343
2 *1403:ZN 0.000171343
3 *1449:SETN *1287:S 0
4 *1449:SETN *1319:B 0.00037349
*RES
1 *1403:ZN *1449:SETN 10.62 
*END

*D_NET *54 0.000357776
*CONN
*I *1450:RN I *D gf180mcu_fd_sc_mcu7t5v0__dffrnq_1
*I *1404:ZN O *D gf180mcu_fd_sc_mcu7t5v0__clkinv_1
*CAP
1 *1450:RN 6.31671e-05
2 *1404:ZN 6.31671e-05
3 *1450:RN *318:94 0.000231442
*RES
1 *1404:ZN *1450:RN 9.63 
*END

*D_NET *55 0.000316305
*CONN
*I *1451:SETN I *D gf180mcu_fd_sc_mcu7t5v0__dffsnq_1
*I *1405:ZN O *D gf180mcu_fd_sc_mcu7t5v0__clkinv_1
*CAP
1 *1451:SETN 0.000158152
2 *1405:ZN 0.000158152
3 *1451:SETN *1471:D 0
*RES
1 *1405:ZN *1451:SETN 9.99 
*END

*D_NET *56 0.000549991
*CONN
*I *1452:RN I *D gf180mcu_fd_sc_mcu7t5v0__dffrnq_1
*I *1406:ZN O *D gf180mcu_fd_sc_mcu7t5v0__clkinv_1
*CAP
1 *1452:RN 0.00016578
2 *1406:ZN 0.00016578
3 *1452:RN *1408:I 0.000109215
4 *1452:RN *352:60 0.000109215
*RES
1 *1406:ZN *1452:RN 10.62 
*END

*D_NET *57 0.00209064
*CONN
*I *1453:RN I *D gf180mcu_fd_sc_mcu7t5v0__dffrnq_1
*I *1407:ZN O *D gf180mcu_fd_sc_mcu7t5v0__clkinv_1
*CAP
1 *1453:RN 0.000203796
2 *1407:ZN 0.000203796
3 *1453:RN *1198:A1 6.46109e-05
4 *1453:RN *1300:A1 0.000377108
5 *1453:RN *1407:I 0.000250184
6 *1453:RN *292:66 0.000154469
7 *1453:RN *305:62 0.000321144
8 *1453:RN *352:60 0.000515537
*RES
1 *1407:ZN *1453:RN 13.14 
*END

*D_NET *58 0.0010308
*CONN
*I *1454:RN I *D gf180mcu_fd_sc_mcu7t5v0__dffrnq_1
*I *1408:ZN O *D gf180mcu_fd_sc_mcu7t5v0__clkinv_1
*CAP
1 *1454:RN 0.000293144
2 *1408:ZN 0.000293144
3 *1454:RN *305:62 0
4 *1454:RN *352:60 0.000444513
*RES
1 *1408:ZN *1454:RN 11.7 
*END

*D_NET *59 0.000665988
*CONN
*I *1455:RN I *D gf180mcu_fd_sc_mcu7t5v0__dffrnq_1
*I *1409:ZN O *D gf180mcu_fd_sc_mcu7t5v0__clkinv_1
*CAP
1 *1455:RN 0.000116096
2 *1409:ZN 0.000116096
3 *1455:RN *1313:A2 0
4 *1455:RN *141:29 0.000433797
*RES
1 *1409:ZN *1455:RN 10.17 
*END

*D_NET *60 0.000834714
*CONN
*I *1456:RN I *D gf180mcu_fd_sc_mcu7t5v0__dffrnq_1
*I *1410:ZN O *D gf180mcu_fd_sc_mcu7t5v0__clkinv_1
*CAP
1 *1456:RN 0.000397993
2 *1410:ZN 0.000397993
3 *1456:RN *1321:A1 0
4 *1456:RN *299:6 5.78854e-06
5 *1456:RN *299:14 3.29394e-05
*RES
1 *1410:ZN *1456:RN 11.52 
*END

*D_NET *61 0.0016768
*CONN
*I *1457:RN I *D gf180mcu_fd_sc_mcu7t5v0__dffrnq_1
*I *1411:ZN O *D gf180mcu_fd_sc_mcu7t5v0__clkinv_1
*CAP
1 *1457:RN 0.000485796
2 *1411:ZN 0.000485796
3 *1457:RN *1176:I 6.93035e-05
4 *1457:RN *1211:B2 5.12535e-05
5 *1457:RN *1303:A1 3.45237e-05
6 *1457:RN *1303:A2 0.000153256
7 *1457:RN *1309:A1 1.56708e-05
8 *1457:RN *1460:D 0.000157543
9 *1457:RN *295:83 0.000127736
10 *1457:RN *306:25 0
11 *1457:RN *306:29 7.77173e-05
12 *1457:RN *336:8 1.82021e-05
*RES
1 *1411:ZN *1457:RN 22.41 
*END

*D_NET *62 0.00172812
*CONN
*I *1458:RN I *D gf180mcu_fd_sc_mcu7t5v0__dffrnq_1
*I *1412:ZN O *D gf180mcu_fd_sc_mcu7t5v0__clkinv_1
*CAP
1 *1458:RN 0.000260054
2 *1412:ZN 0.000260054
3 *1458:RN *1174:I 0.000101624
4 *1458:RN *1175:I 0.000571424
5 *1458:RN *1305:A1 0
6 *1458:RN *1412:I 8.49143e-05
7 *1458:RN *1413:I 0
8 *1458:RN *1543:I 1.17934e-05
9 *1458:RN *148:12 9.04539e-05
10 *1458:RN *149:8 0.00023711
11 *1458:RN *149:23 9.20698e-05
12 *1458:RN *313:103 1.86249e-05
13 *1458:RN *313:118 0
*RES
1 *1412:ZN *1458:RN 21.33 
*END

*D_NET *63 0.000249471
*CONN
*I *1459:RN I *D gf180mcu_fd_sc_mcu7t5v0__dffrnq_1
*I *1413:ZN O *D gf180mcu_fd_sc_mcu7t5v0__clkinv_1
*CAP
1 *1459:RN 7.69853e-05
2 *1413:ZN 7.69853e-05
3 *1459:RN *1543:I 9.55009e-05
*RES
1 *1413:ZN *1459:RN 9.63 
*END

*D_NET *64 0.000740149
*CONN
*I *1460:RN I *D gf180mcu_fd_sc_mcu7t5v0__dffrnq_1
*I *1414:ZN O *D gf180mcu_fd_sc_mcu7t5v0__clkinv_1
*CAP
1 *1460:RN 0.000102614
2 *1414:ZN 0.000102614
3 *1460:RN *1212:B2 2.85793e-05
4 *1460:RN *1223:A3 0.000506341
*RES
1 *1414:ZN *1460:RN 10.35 
*END

*D_NET *65 0.000491221
*CONN
*I *1461:RN I *D gf180mcu_fd_sc_mcu7t5v0__dffrnq_1
*I *1415:ZN O *D gf180mcu_fd_sc_mcu7t5v0__clkinv_1
*CAP
1 *1461:RN 1.41682e-05
2 *1415:ZN 1.41682e-05
3 *1461:RN *1530:I 0.000231442
4 *1461:RN *317:66 0.000231442
*RES
1 *1415:ZN *1461:RN 9.63 
*END

*D_NET *66 0.00157061
*CONN
*I *1462:SETN I *D gf180mcu_fd_sc_mcu7t5v0__dffsnq_1
*I *1416:ZN O *D gf180mcu_fd_sc_mcu7t5v0__clkinv_1
*CAP
1 *1462:SETN 0.000105794
2 *1416:ZN 0.000105794
3 *1462:SETN *1444:CLK 0.000477353
4 *1462:SETN *296:51 3.01487e-05
5 *1462:SETN *314:51 0.000834763
6 *1462:SETN *341:10 7.71476e-06
7 *1462:SETN *341:25 9.04571e-06
*RES
1 *1416:ZN *1462:SETN 11.25 
*END

*D_NET *67 0.000459083
*CONN
*I *1463:RN I *D gf180mcu_fd_sc_mcu7t5v0__dffrnq_1
*I *1417:ZN O *D gf180mcu_fd_sc_mcu7t5v0__clkinv_1
*CAP
1 *1463:RN 0.000163843
2 *1417:ZN 0.000163843
3 *1463:RN *1224:A4 3.58953e-05
4 *1463:RN *1530:I 9.55009e-05
*RES
1 *1417:ZN *1463:RN 10.44 
*END

*D_NET *68 0.00215742
*CONN
*I *1464:SETN I *D gf180mcu_fd_sc_mcu7t5v0__dffsnq_1
*I *1418:ZN O *D gf180mcu_fd_sc_mcu7t5v0__clkinv_1
*CAP
1 *1464:SETN 0.000149832
2 *1418:ZN 0.000149832
3 *1464:SETN *1530:I 0.000768036
4 *1464:SETN *199:76 0.00107052
5 *1464:SETN *317:66 1.92032e-05
*RES
1 *1418:ZN *1464:SETN 12.87 
*END

*D_NET *69 0.000733965
*CONN
*I *1465:RN I *D gf180mcu_fd_sc_mcu7t5v0__dffrnq_1
*I *1419:ZN O *D gf180mcu_fd_sc_mcu7t5v0__clkinv_1
*CAP
1 *1465:RN 0.000109214
2 *1419:ZN 0.000109214
3 *1465:RN *1419:I 0.000515537
*RES
1 *1419:ZN *1465:RN 10.35 
*END

*D_NET *70 0.00108783
*CONN
*I *1466:RN I *D gf180mcu_fd_sc_mcu7t5v0__dffrnq_1
*I *1420:ZN O *D gf180mcu_fd_sc_mcu7t5v0__clkinv_1
*CAP
1 *1466:RN 0.000263075
2 *1420:ZN 0.000263075
3 *1466:RN *1291:I1 0
4 *1466:RN *1420:I 0.00052864
5 *1466:RN *1467:D 3.01487e-05
6 *1466:RN *1467:CLK 2.89427e-06
7 *1466:RN *1542:I 0
*RES
1 *1420:ZN *1466:RN 20.34 
*END

*D_NET *71 0.000542247
*CONN
*I *1467:RN I *D gf180mcu_fd_sc_mcu7t5v0__dffrnq_1
*I *1421:ZN O *D gf180mcu_fd_sc_mcu7t5v0__clkinv_1
*CAP
1 *1467:RN 0.000118831
2 *1421:ZN 0.000118831
3 *1467:RN *1306:A2 1.85811e-05
4 *1467:RN *1307:B 6.26074e-05
5 *1467:RN *1421:I 0.000223398
*RES
1 *1421:ZN *1467:RN 10.26 
*END

*D_NET *72 0.000427468
*CONN
*I *1468:RN I *D gf180mcu_fd_sc_mcu7t5v0__dffrnq_1
*I *1422:ZN O *D gf180mcu_fd_sc_mcu7t5v0__clkinv_1
*CAP
1 *1468:RN 0.000170255
2 *1422:ZN 0.000170255
3 *1468:RN *311:52 8.69576e-05
4 *1468:RN *348:10 0
*RES
1 *1422:ZN *1468:RN 10.26 
*END

*D_NET *73 0.000771361
*CONN
*I *1469:RN I *D gf180mcu_fd_sc_mcu7t5v0__dffrnq_1
*I *1423:ZN O *D gf180mcu_fd_sc_mcu7t5v0__clkinv_1
*CAP
1 *1469:RN 6.33394e-05
2 *1423:ZN 6.33394e-05
3 *1469:RN *1423:I 0.000444513
4 *1469:RN *1451:D 0.000200169
*RES
1 *1423:ZN *1469:RN 10.44 
*END

*D_NET *74 0.000501414
*CONN
*I *1470:RN I *D gf180mcu_fd_sc_mcu7t5v0__dffrnq_1
*I *1424:ZN O *D gf180mcu_fd_sc_mcu7t5v0__clkinv_1
*CAP
1 *1470:RN 0.000236811
2 *1424:ZN 0.000236811
3 *1470:RN *1290:I1 0
4 *1470:RN *295:8 2.77926e-05
*RES
1 *1424:ZN *1470:RN 19.71 
*END

*D_NET *75 0.000320583
*CONN
*I *1471:RN I *D gf180mcu_fd_sc_mcu7t5v0__dffrnq_1
*I *1425:ZN O *D gf180mcu_fd_sc_mcu7t5v0__clkinv_1
*CAP
1 *1471:RN 0.000103579
2 *1425:ZN 0.000103579
3 *1471:RN *1425:I 9.55009e-05
4 *1471:RN *1522:I 1.79237e-05
*RES
1 *1425:ZN *1471:RN 9.9 
*END

*D_NET *76 0.000843504
*CONN
*I *1472:RN I *D gf180mcu_fd_sc_mcu7t5v0__dffrnq_1
*I *1426:ZN O *D gf180mcu_fd_sc_mcu7t5v0__clkinv_1
*CAP
1 *1472:RN 0.000135392
2 *1426:ZN 0.000135392
3 *1472:RN *1263:A2 6.13973e-05
4 *1472:RN *1263:A3 0.000184077
5 *1472:RN *1471:CLK 0.000143583
6 *1472:RN *1509:I 0.000183662
7 *1472:RN *352:8 0
*RES
1 *1426:ZN *1472:RN 19.98 
*END

*D_NET *77 0.000660385
*CONN
*I *1473:RN I *D gf180mcu_fd_sc_mcu7t5v0__dffrnq_1
*I *1427:ZN O *D gf180mcu_fd_sc_mcu7t5v0__clkinv_1
*CAP
1 *1473:RN 7.52299e-05
2 *1427:ZN 7.52299e-05
3 *1473:RN *1319:B 7.34567e-05
4 *1473:RN *1427:I 0.000436469
*RES
1 *1427:ZN *1473:RN 10.17 
*END

*D_NET *78 0.00059992
*CONN
*I *1474:RN I *D gf180mcu_fd_sc_mcu7t5v0__dffrnq_1
*I *1428:ZN O *D gf180mcu_fd_sc_mcu7t5v0__clkinv_1
*CAP
1 *1474:RN 0.00014403
2 *1428:ZN 0.00014403
3 *1474:RN *1264:A3 0.000239562
4 *1474:RN *354:23 7.22983e-05
*RES
1 *1428:ZN *1474:RN 10.53 
*END

*D_NET *79 0.000302685
*CONN
*I *1475:RN I *D gf180mcu_fd_sc_mcu7t5v0__dffrnq_1
*I *1429:ZN O *D gf180mcu_fd_sc_mcu7t5v0__clkinv_1
*CAP
1 *1475:RN 0.000122877
2 *1429:ZN 0.000122877
3 *1475:RN *1167:I 5.69319e-05
4 *1475:RN *1321:A1 0
*RES
1 *1429:ZN *1475:RN 9.9 
*END

*D_NET *80 0.00134717
*CONN
*I *1476:RN I *D gf180mcu_fd_sc_mcu7t5v0__dffrnq_1
*I *1430:ZN O *D gf180mcu_fd_sc_mcu7t5v0__clkinv_1
*CAP
1 *1476:RN 0.000209398
2 *1430:ZN 0.000209398
3 *1476:RN *1289:A1 8.38699e-05
4 *1476:RN *1310:A1 0.000158295
5 *1476:RN *1310:A3 0.000568913
6 *1476:RN *1466:CLK 0.0001173
*RES
1 *1430:ZN *1476:RN 11.7 
*END

*D_NET *81 0.000327825
*CONN
*I *1477:RN I *D gf180mcu_fd_sc_mcu7t5v0__dffrnq_1
*I *1431:ZN O *D gf180mcu_fd_sc_mcu7t5v0__clkinv_1
*CAP
1 *1477:RN 8.76959e-05
2 *1431:ZN 8.76959e-05
3 *1477:RN *1431:I 9.55009e-05
4 *1477:RN *1466:CLK 5.69319e-05
*RES
1 *1431:ZN *1477:RN 9.9 
*END

*D_NET *82 0.00117857
*CONN
*I *1478:SETN I *D gf180mcu_fd_sc_mcu7t5v0__dffsnq_1
*I *1432:ZN O *D gf180mcu_fd_sc_mcu7t5v0__clkinv_1
*CAP
1 *1478:SETN 0.000259099
2 *1432:ZN 0.000259099
3 *1478:SETN *1339:A2 0.000173247
4 *1478:SETN *1432:I 0.000436469
5 *1478:SETN *1500:CLK 5.06604e-05
*RES
1 *1432:ZN *1478:SETN 11.7 
*END

*D_NET *83 0.000734353
*CONN
*I *1479:RN I *D gf180mcu_fd_sc_mcu7t5v0__dffrnq_1
*I *1433:ZN O *D gf180mcu_fd_sc_mcu7t5v0__clkinv_1
*CAP
1 *1479:RN 0.000217543
2 *1433:ZN 0.000217543
3 *1479:RN *268:14 0.000117014
4 *1479:RN *319:30 0.000182253
*RES
1 *1433:ZN *1479:RN 11.16 
*END

*D_NET *84 0.00112728
*CONN
*I *1480:RN I *D gf180mcu_fd_sc_mcu7t5v0__dffrnq_1
*I *1434:ZN O *D gf180mcu_fd_sc_mcu7t5v0__clkinv_1
*CAP
1 *1480:RN 0.000440937
2 *1434:ZN 0.000440937
3 *1480:RN *1480:D 0.000245401
4 *1480:RN *1498:D 0
*RES
1 *1434:ZN *1480:RN 20.97 
*END

*D_NET *85 0.00182148
*CONN
*I *1481:RN I *D gf180mcu_fd_sc_mcu7t5v0__dffrnq_1
*I *1435:ZN O *D gf180mcu_fd_sc_mcu7t5v0__clkinv_1
*CAP
1 *1481:RN 0.000279744
2 *1435:ZN 0.000279744
3 *1481:RN *1539:I 0.000162818
4 *1481:RN *1544:I 1.96864e-05
5 *1481:RN *303:18 1.06822e-05
6 *1481:RN *316:27 0.000631871
7 *1481:RN *345:10 0.000436935
*RES
1 *1435:ZN *1481:RN 21.15 
*END

*D_NET *86 0.00254215
*CONN
*I *1482:RN I *D gf180mcu_fd_sc_mcu7t5v0__dffrnq_1
*I *1436:ZN O *D gf180mcu_fd_sc_mcu7t5v0__clkinv_1
*CAP
1 *1482:RN 0.000405611
2 *1436:ZN 0.000405611
3 *1482:RN *1436:I 0.00106483
4 *1482:RN *298:55 4.5615e-05
5 *1482:RN *298:64 2.47238e-05
6 *1482:RN *303:18 8.82634e-05
7 *1482:RN *316:27 0.000507502
*RES
1 *1436:ZN *1482:RN 13.77 
*END

*D_NET *87 0.00115462
*CONN
*I *1483:RN I *D gf180mcu_fd_sc_mcu7t5v0__dffrnq_1
*I *1437:ZN O *D gf180mcu_fd_sc_mcu7t5v0__clkinv_1
*CAP
1 *1483:RN 0.000473277
2 *1437:ZN 0.000473277
3 *1483:RN *1251:A3 5.97457e-06
4 *1483:RN *1253:A1 3.08083e-05
5 *1483:RN *1436:I 0
6 *1483:RN *1489:CLK 5.2102e-05
7 *1483:RN *1540:I 0.000119182
8 *1483:RN *221:8 0
*RES
1 *1437:ZN *1483:RN 12.51 
*END

*D_NET *88 0.00163546
*CONN
*I *1484:RN I *D gf180mcu_fd_sc_mcu7t5v0__dffrnq_1
*I *1438:ZN O *D gf180mcu_fd_sc_mcu7t5v0__clkinv_1
*CAP
1 *1484:RN 0.000244503
2 *1438:ZN 0.000244503
3 *1484:RN *1371:A1 0.00084548
4 *1484:RN *1439:I 0.000141002
5 *1484:RN *1447:CLK 0
6 *1484:RN *1448:CLK 0
7 *1446:D *1484:RN 0.00015997
*RES
1 *1438:ZN *1484:RN 12.15 
*END

*D_NET *89 0.00075308
*CONN
*I *1485:RN I *D gf180mcu_fd_sc_mcu7t5v0__dffrnq_1
*I *1439:ZN O *D gf180mcu_fd_sc_mcu7t5v0__clkinv_1
*CAP
1 *1485:RN 0.000127509
2 *1439:ZN 0.000127509
3 *1485:RN *1439:I 0.000498062
*RES
1 *1439:ZN *1485:RN 10.35 
*END

*D_NET *90 0.000555132
*CONN
*I *1486:RN I *D gf180mcu_fd_sc_mcu7t5v0__dffrnq_1
*I *1440:ZN O *D gf180mcu_fd_sc_mcu7t5v0__clkinv_1
*CAP
1 *1486:RN 0.000277566
2 *1440:ZN 0.000277566
3 *1486:RN *371:10 0
*RES
1 *1440:ZN *1486:RN 10.8 
*END

*D_NET *91 0.00118757
*CONN
*I *1487:D I *D gf180mcu_fd_sc_mcu7t5v0__dffrnq_1
*I *1337:ZN O *D gf180mcu_fd_sc_mcu7t5v0__nor4_1
*CAP
1 *1487:D 0.000496868
2 *1337:ZN 0.000496868
3 *1487:D *1377:I1 3.12455e-05
4 *1487:D *1498:CLK 5.97457e-06
5 *1487:D *298:64 0.000121103
6 *1487:D *344:12 3.55118e-05
*RES
1 *1337:ZN *1487:D 12.69 
*END

*D_NET *92 0.00137182
*CONN
*I *1488:D I *D gf180mcu_fd_sc_mcu7t5v0__dffrnq_1
*I *1335:ZN O *D gf180mcu_fd_sc_mcu7t5v0__nor3_1
*CAP
1 *1488:D 0.00048156
2 *1335:ZN 0.00048156
3 *1488:D *1335:A2 3.77882e-05
4 *1488:D *1335:A3 5.69319e-05
5 *1488:D *298:64 0.000117402
6 *1488:D *302:16 7.96333e-06
7 *1488:D *303:27 2.03791e-05
8 *1488:D *346:14 0.000168231
*RES
1 *1335:ZN *1488:D 13.14 
*END

*D_NET *93 0.000756399
*CONN
*I *1489:D I *D gf180mcu_fd_sc_mcu7t5v0__dffrnq_1
*I *1333:ZN O *D gf180mcu_fd_sc_mcu7t5v0__nor3_1
*CAP
1 *1489:D 0.000184871
2 *1333:ZN 0.000184871
3 *1489:D *1333:A1 4.14498e-05
4 *1489:D *318:31 0.000345207
*RES
1 *1333:ZN *1489:D 10.62 
*END

*D_NET *94 0.000778858
*CONN
*I *1490:D I *D gf180mcu_fd_sc_mcu7t5v0__dffrnq_1
*I *1331:ZN O *D gf180mcu_fd_sc_mcu7t5v0__nor3_1
*CAP
1 *1490:D 0.000142024
2 *1331:ZN 0.000142024
3 *1490:D *1490:CLK 4.45729e-05
4 *1490:D *302:10 0.000272679
5 *1490:D *325:61 0.000177559
*RES
1 *1331:ZN *1490:D 19.98 
*END

*D_NET *95 0.000919146
*CONN
*I *1491:D I *D gf180mcu_fd_sc_mcu7t5v0__dffrnq_1
*I *1329:ZN O *D gf180mcu_fd_sc_mcu7t5v0__nor3_1
*CAP
1 *1491:D 0.000336369
2 *1329:ZN 0.000336369
3 *1491:D *1193:I 8.44253e-05
4 *1491:D *1333:A1 0.000156008
5 *1491:D *1333:A2 0
6 *1491:D *1491:CLK 5.97457e-06
7 *1491:D *374:8 0
*RES
1 *1329:ZN *1491:D 11.43 
*END

*D_NET *96 0.000586489
*CONN
*I *1449:D I *D gf180mcu_fd_sc_mcu7t5v0__dffsnq_1
*I *1323:Z O *D gf180mcu_fd_sc_mcu7t5v0__mux2_2
*CAP
1 *1449:D 0.00017427
2 *1323:Z 0.00017427
3 *1449:D *1287:S 4.74921e-05
4 *1449:D *348:10 8.47504e-06
5 *1449:D *348:12 0.000181982
*RES
1 *1323:Z *1449:D 10.71 
*END

*D_NET *97 0.00221351
*CONN
*I *1450:D I *D gf180mcu_fd_sc_mcu7t5v0__dffrnq_1
*I *1322:ZN O *D gf180mcu_fd_sc_mcu7t5v0__oai21_1
*CAP
1 *1450:D 0.000752237
2 *1322:ZN 0.000752237
3 *1450:D *1321:A2 0.000300624
4 *1450:D *1322:A2 8.49208e-05
5 *1450:D *1450:CLK 2.14269e-05
6 *1450:D *1512:I 5.24361e-06
7 *1450:D *1513:I 0.000296825
*RES
1 *1322:ZN *1450:D 31.68 
*END

*D_NET *98 0.00106333
*CONN
*I *1451:D I *D gf180mcu_fd_sc_mcu7t5v0__dffsnq_1
*I *1320:Z O *D gf180mcu_fd_sc_mcu7t5v0__mux2_2
*CAP
1 *1451:D 0.000260282
2 *1320:Z 0.000260282
3 *1451:D *1423:I 0.000110619
4 *1451:D *349:12 0.000200416
5 *1451:D *349:64 3.1559e-05
6 *1469:RN *1451:D 0.000200169
*RES
1 *1320:Z *1451:D 12.15 
*END

*D_NET *99 0.00228587
*CONN
*I *1452:D I *D gf180mcu_fd_sc_mcu7t5v0__dffrnq_1
*I *1319:ZN O *D gf180mcu_fd_sc_mcu7t5v0__oai21_1
*CAP
1 *1452:D 0.000676149
2 *1319:ZN 0.000676149
3 *1452:D *1183:I 0
4 *1452:D *1316:A1 0.000103139
5 *1452:D *1319:A1 0
6 *1452:D *1319:A2 3.6552e-05
7 *1452:D *1454:D 0.000720554
8 *1452:D *305:58 1.81129e-05
9 *1452:D *305:62 7.71821e-06
10 *1452:D *331:8 4.74921e-05
*RES
1 *1319:ZN *1452:D 25.02 
*END

*D_NET *100 0.00195273
*CONN
*I *1453:D I *D gf180mcu_fd_sc_mcu7t5v0__dffrnq_1
*I *1317:Z O *D gf180mcu_fd_sc_mcu7t5v0__mux2_2
*CAP
1 *1453:D 0.000347677
2 *1317:Z 0.000347677
3 *1453:D *1183:I 3.42213e-05
4 *1453:D *315:43 0.00104909
5 *1453:D *315:45 1.39839e-05
6 *1453:D *315:61 6.93035e-05
7 *1453:D *352:60 9.07783e-05
*RES
1 *1317:Z *1453:D 22.14 
*END

*D_NET *101 0.00228538
*CONN
*I *1454:D I *D gf180mcu_fd_sc_mcu7t5v0__dffrnq_1
*I *1316:ZN O *D gf180mcu_fd_sc_mcu7t5v0__oai21_1
*CAP
1 *1454:D 0.000672661
2 *1316:ZN 0.000672661
3 *1454:D *1408:I 0
4 *1454:D *1473:CLK 1.0415e-05
5 *1454:D *305:58 9.92405e-05
6 *1454:D *352:60 0.000109854
7 *1452:D *1454:D 0.000720554
*RES
1 *1316:ZN *1454:D 24.3 
*END

*D_NET *102 0.000702225
*CONN
*I *1455:D I *D gf180mcu_fd_sc_mcu7t5v0__dffrnq_1
*I *1314:ZN O *D gf180mcu_fd_sc_mcu7t5v0__oai21_1
*CAP
1 *1455:D 5.88196e-05
2 *1314:ZN 5.88196e-05
3 *1455:D *1196:A2 2.08301e-05
4 *1455:D *151:12 0.000119967
5 *1455:D *305:70 0.000284991
6 *1455:D *330:41 0.000158798
*RES
1 *1314:ZN *1455:D 9.99 
*END

*D_NET *103 0.000605349
*CONN
*I *1456:D I *D gf180mcu_fd_sc_mcu7t5v0__dffrnq_1
*I *1312:ZN O *D gf180mcu_fd_sc_mcu7t5v0__aoi21_1
*CAP
1 *1456:D 0.000191332
2 *1312:ZN 0.000191332
3 *1456:D *1311:A2 0.000183652
4 *1456:D *1312:B 3.90331e-05
*RES
1 *1312:ZN *1456:D 10.8 
*END

*D_NET *104 0.00144332
*CONN
*I *1457:D I *D gf180mcu_fd_sc_mcu7t5v0__dffrnq_1
*I *1309:ZN O *D gf180mcu_fd_sc_mcu7t5v0__aoi21_1
*CAP
1 *1457:D 0.000191329
2 *1309:ZN 0.000191329
3 *1457:D *1309:A1 0.000109323
4 *1457:D *1309:B 0.000246336
5 *1457:D *1457:CLK 7.01651e-05
6 *1457:D *306:21 0.000634842
7 *1457:D *313:68 0
*RES
1 *1309:ZN *1457:D 20.88 
*END

*D_NET *105 0.000716654
*CONN
*I *1458:D I *D gf180mcu_fd_sc_mcu7t5v0__dffrnq_1
*I *1307:ZN O *D gf180mcu_fd_sc_mcu7t5v0__aoi21_1
*CAP
1 *1458:D 0.000177749
2 *1307:ZN 0.000177749
3 *1458:D *1307:A1 0.000361155
*RES
1 *1307:ZN *1458:D 10.62 
*END

*D_NET *106 0.00191909
*CONN
*I *1459:D I *D gf180mcu_fd_sc_mcu7t5v0__dffrnq_1
*I *1305:ZN O *D gf180mcu_fd_sc_mcu7t5v0__aoi21_1
*CAP
1 *1459:D 0.000436588
2 *1305:ZN 0.000436588
3 *1459:D *1290:I1 0.000101624
4 *1459:D *1306:A2 0.000300131
5 *1459:D *1307:B 7.88283e-05
6 *1459:D *1421:I 1.18477e-05
7 *1459:D *1459:CLK 7.15588e-05
8 *1459:D *1543:I 0.00048192
*RES
1 *1305:ZN *1459:D 22.05 
*END

*D_NET *107 0.00105222
*CONN
*I *1460:D I *D gf180mcu_fd_sc_mcu7t5v0__dffrnq_1
*I *1303:ZN O *D gf180mcu_fd_sc_mcu7t5v0__aoi21_1
*CAP
1 *1460:D 0.000343175
2 *1303:ZN 0.000343175
3 *1460:D *295:83 0.000192205
4 *1460:D *295:87 1.61174e-05
5 *1460:D *306:29 0
6 *1457:RN *1460:D 0.000157543
*RES
1 *1303:ZN *1460:D 12.06 
*END

*D_NET *108 0.000436735
*CONN
*I *1461:D I *D gf180mcu_fd_sc_mcu7t5v0__dffrnq_1
*I *1301:ZN O *D gf180mcu_fd_sc_mcu7t5v0__aoi21_1
*CAP
1 *1461:D 7.64295e-05
2 *1301:ZN 7.64295e-05
3 *1461:D *1300:A2 0.000119182
4 *1461:D *1463:CLK 0.000148576
5 *1461:D *299:16 1.61174e-05
*RES
1 *1301:ZN *1461:D 9.99 
*END

*D_NET *109 0.000654522
*CONN
*I *1462:D I *D gf180mcu_fd_sc_mcu7t5v0__dffsnq_1
*I *1299:ZN O *D gf180mcu_fd_sc_mcu7t5v0__oai21_1
*CAP
1 *1462:D 8.40685e-05
2 *1299:ZN 8.40685e-05
3 *1462:D *1264:A3 0.000100101
4 *1462:D *1299:A1 0.000365454
5 *1462:D *1522:I 2.08301e-05
*RES
1 *1299:ZN *1462:D 10.17 
*END

*D_NET *110 0.000890768
*CONN
*I *1463:D I *D gf180mcu_fd_sc_mcu7t5v0__dffrnq_1
*I *1297:ZN O *D gf180mcu_fd_sc_mcu7t5v0__aoi21_1
*CAP
1 *1463:D 0.000258639
2 *1297:ZN 0.000258639
3 *1463:D *306:119 0.00037349
4 *1463:D *307:45 0
*RES
1 *1297:ZN *1463:D 11.34 
*END

*D_NET *111 0.000419899
*CONN
*I *1464:D I *D gf180mcu_fd_sc_mcu7t5v0__dffsnq_1
*I *1295:ZN O *D gf180mcu_fd_sc_mcu7t5v0__oai21_1
*CAP
1 *1464:D 0.000153651
2 *1295:ZN 0.000153651
3 *1464:D *1295:B 6.02757e-05
4 *1464:D *299:14 4.6613e-06
5 *1464:D *299:16 4.76605e-05
*RES
1 *1295:ZN *1464:D 10.26 
*END

*D_NET *112 0.00152966
*CONN
*I *1465:D I *D gf180mcu_fd_sc_mcu7t5v0__dffrnq_1
*I *1292:Z O *D gf180mcu_fd_sc_mcu7t5v0__mux2_2
*CAP
1 *1465:D 0.000395619
2 *1292:Z 0.000395619
3 *1465:D *1189:I 0.000119192
4 *1465:D *1465:CLK 4.30142e-05
5 *1465:D *319:62 0.000571898
6 *1465:D *367:23 4.31832e-06
*RES
1 *1292:Z *1465:D 22.5 
*END

*D_NET *113 0.00147781
*CONN
*I *1466:D I *D gf180mcu_fd_sc_mcu7t5v0__dffrnq_1
*I *1291:Z O *D gf180mcu_fd_sc_mcu7t5v0__mux2_2
*CAP
1 *1466:D 0.000312871
2 *1291:Z 0.000312871
3 *1466:D *1291:S 0.000115987
4 *1466:D *1293:A1 3.55118e-05
5 *1466:D *1466:CLK 0.000192605
6 *1466:D *139:10 9.30289e-05
7 *1466:D *319:62 0.00018095
8 *1466:D *357:10 0.000233987
*RES
1 *1291:Z *1466:D 21.78 
*END

*D_NET *114 0.000951962
*CONN
*I *1467:D I *D gf180mcu_fd_sc_mcu7t5v0__dffrnq_1
*I *1290:Z O *D gf180mcu_fd_sc_mcu7t5v0__mux2_2
*CAP
1 *1467:D 0.000289552
2 *1290:Z 0.000289552
3 *1467:D *1290:S 1.56862e-05
4 *1467:D *1291:I1 5.77941e-06
5 *1467:D *1467:CLK 6.32447e-05
6 *1467:D *1527:I 0.00010569
7 *1467:D *319:62 0.000152309
8 *1466:RN *1467:D 3.01487e-05
*RES
1 *1290:Z *1467:D 11.25 
*END

*D_NET *115 0.00041248
*CONN
*I *1468:D I *D gf180mcu_fd_sc_mcu7t5v0__dffrnq_1
*I *1288:Z O *D gf180mcu_fd_sc_mcu7t5v0__mux2_2
*CAP
1 *1468:D 0.000139573
2 *1288:Z 0.000139573
3 *1468:D *1288:I1 7.01651e-05
4 *1468:D *294:44 6.317e-05
*RES
1 *1288:Z *1468:D 10.26 
*END

*D_NET *116 0.00157478
*CONN
*I *1469:D I *D gf180mcu_fd_sc_mcu7t5v0__dffrnq_1
*I *1287:Z O *D gf180mcu_fd_sc_mcu7t5v0__mux2_2
*CAP
1 *1469:D 0.000697159
2 *1287:Z 0.000697159
3 *1469:D *1384:I 0
4 *1469:D *1469:CLK 2.06277e-05
5 *1469:D *364:10 7.01651e-05
6 *1494:RN *1469:D 8.96665e-05
*RES
1 *1287:Z *1469:D 14.22 
*END

*D_NET *117 0.000427844
*CONN
*I *1470:D I *D gf180mcu_fd_sc_mcu7t5v0__dffrnq_1
*I *1286:Z O *D gf180mcu_fd_sc_mcu7t5v0__mux2_2
*CAP
1 *1470:D 0.000210143
2 *1286:Z 0.000210143
3 *1470:D *1293:A2 0
4 *1470:D *1470:CLK 7.55765e-06
5 *1470:D *350:25 0
*RES
1 *1286:Z *1470:D 10.26 
*END

*D_NET *118 0.00140079
*CONN
*I *1471:D I *D gf180mcu_fd_sc_mcu7t5v0__dffrnq_1
*I *1285:Z O *D gf180mcu_fd_sc_mcu7t5v0__mux2_2
*CAP
1 *1471:D 0.000287326
2 *1285:Z 0.000287326
3 *1471:D *1471:CLK 3.55118e-05
4 *1471:D *1520:I 0.000790628
5 *1471:D *253:42 0
6 *1451:SETN *1471:D 0
*RES
1 *1285:Z *1471:D 11.97 
*END

*D_NET *119 0.00124568
*CONN
*I *1472:D I *D gf180mcu_fd_sc_mcu7t5v0__dffrnq_1
*I *1284:Z O *D gf180mcu_fd_sc_mcu7t5v0__mux2_2
*CAP
1 *1472:D 9.38855e-05
2 *1284:Z 9.38855e-05
3 *1472:D *1318:A1 1.07281e-05
4 *1472:D *231:14 6.76406e-05
5 *1472:D *253:42 0.000356014
6 *1472:D *330:41 2.08301e-05
7 *1472:D *349:83 0.000602692
*RES
1 *1284:Z *1472:D 19.98 
*END

*D_NET *120 0.000523243
*CONN
*I *1473:D I *D gf180mcu_fd_sc_mcu7t5v0__dffrnq_1
*I *1283:ZN O *D gf180mcu_fd_sc_mcu7t5v0__oai21_1
*CAP
1 *1473:D 0.000261621
2 *1283:ZN 0.000261621
3 *1473:D *1473:CLK 0
*RES
1 *1283:ZN *1473:D 10.8 
*END

*D_NET *121 0.000533162
*CONN
*I *1474:D I *D gf180mcu_fd_sc_mcu7t5v0__dffrnq_1
*I *1281:ZN O *D gf180mcu_fd_sc_mcu7t5v0__aoi21_1
*CAP
1 *1474:D 6.33067e-05
2 *1281:ZN 6.33067e-05
3 *1474:D *253:42 0.00031577
4 *1474:D *328:27 9.07783e-05
*RES
1 *1281:ZN *1474:D 9.99 
*END

*D_NET *122 0.00103244
*CONN
*I *1475:D I *D gf180mcu_fd_sc_mcu7t5v0__dffrnq_1
*I *1279:ZN O *D gf180mcu_fd_sc_mcu7t5v0__oai21_1
*CAP
1 *1475:D 0.000172655
2 *1279:ZN 0.000172655
3 *1475:D *1279:A1 0.000302466
4 *1475:D *1475:CLK 7.55765e-06
5 *1475:D *253:42 0.000272792
6 *1475:D *328:27 0.00010432
*RES
1 *1279:ZN *1475:D 11.43 
*END

*D_NET *123 0.000936476
*CONN
*I *1476:D I *D gf180mcu_fd_sc_mcu7t5v0__dffrnq_1
*I *1277:ZN O *D gf180mcu_fd_sc_mcu7t5v0__aoi21_1
*CAP
1 *1476:D 0.000217774
2 *1277:ZN 0.000217774
3 *1476:D *1277:B 0.000288778
4 *1476:D *1476:CLK 2.65444e-06
5 *1476:D *1477:D 0
6 *1476:D *237:34 0.000209497
*RES
1 *1277:ZN *1476:D 11.52 
*END

*D_NET *124 0.000664826
*CONN
*I *1477:D I *D gf180mcu_fd_sc_mcu7t5v0__dffrnq_1
*I *1275:ZN O *D gf180mcu_fd_sc_mcu7t5v0__aoi21_1
*CAP
1 *1477:D 0.000145668
2 *1275:ZN 0.000145668
3 *1477:D *1275:A2 0.00037349
4 *1477:D *1292:I1 0
5 *1477:D *1477:CLK 0
6 *1476:D *1477:D 0
*RES
1 *1275:ZN *1477:D 10.44 
*END

*D_NET *125 0.000646144
*CONN
*I *1478:D I *D gf180mcu_fd_sc_mcu7t5v0__dffsnq_1
*I *1272:ZN O *D gf180mcu_fd_sc_mcu7t5v0__nor2_1
*CAP
1 *1478:D 6.79314e-05
2 *1272:ZN 6.79314e-05
3 *1478:D *1272:A1 0.000444513
4 *1478:D *219:10 6.57682e-05
*RES
1 *1272:ZN *1478:D 10.17 
*END

*D_NET *126 0.000419313
*CONN
*I *1479:D I *D gf180mcu_fd_sc_mcu7t5v0__dffrnq_1
*I *1270:ZN O *D gf180mcu_fd_sc_mcu7t5v0__nor2_1
*CAP
1 *1479:D 0.000150299
2 *1270:ZN 0.000150299
3 *1479:D *1493:CLK 9.98816e-05
4 *1479:D *293:39 1.07374e-05
5 *1479:D *327:16 8.09541e-06
*RES
1 *1270:ZN *1479:D 10.26 
*END

*D_NET *127 0.00449346
*CONN
*I *1480:D I *D gf180mcu_fd_sc_mcu7t5v0__dffrnq_1
*I *1262:ZN O *D gf180mcu_fd_sc_mcu7t5v0__nor2_1
*CAP
1 *1480:D 0.00128581
2 *1262:ZN 0.00128581
3 *1480:D *1261:A1 0.00023711
4 *1480:D *1324:A1 0
5 *1480:D *1336:A2 0
6 *1480:D *1377:I0 0
7 *1480:D *1388:I 2.03826e-05
8 *1480:D *1544:I 0
9 *1480:D *201:14 6.31783e-05
10 *1480:D *218:33 7.58723e-05
11 *1480:D *344:12 0.00127989
12 *1377:S *1480:D 0
13 *1480:RN *1480:D 0.000245401
14 *1487:RN *1480:D 0
*RES
1 *1262:ZN *1480:D 28.8 
*END

*D_NET *128 0.000475162
*CONN
*I *1481:D I *D gf180mcu_fd_sc_mcu7t5v0__dffrnq_1
*I *1260:ZN O *D gf180mcu_fd_sc_mcu7t5v0__aoi21_1
*CAP
1 *1481:D 5.91688e-05
2 *1260:ZN 5.91688e-05
3 *1481:D *1260:A1 7.93835e-05
4 *1481:D *218:33 9.98816e-05
5 *1481:D *345:14 0.000177559
*RES
1 *1260:ZN *1481:D 9.99 
*END

*D_NET *129 0.00123755
*CONN
*I *1482:D I *D gf180mcu_fd_sc_mcu7t5v0__dffrnq_1
*I *1258:ZN O *D gf180mcu_fd_sc_mcu7t5v0__nor2_1
*CAP
1 *1482:D 0.000105292
2 *1258:ZN 0.000105292
3 *1482:D *1258:A1 0.000177559
4 *1482:D *218:33 0.000464997
5 *1482:D *345:14 0.000143853
6 *1482:D *345:29 0.000240557
*RES
1 *1258:ZN *1482:D 11.79 
*END

*D_NET *130 0.00143259
*CONN
*I *1483:D I *D gf180mcu_fd_sc_mcu7t5v0__dffrnq_1
*I *1255:ZN O *D gf180mcu_fd_sc_mcu7t5v0__oai22_1
*CAP
1 *1483:D 0.000183654
2 *1255:ZN 0.000183654
3 *1483:D *1255:A1 6.62654e-05
4 *1483:D *1255:A2 0.00027175
5 *1483:D *1258:A1 0.000649549
6 *1483:D *304:23 7.77173e-05
*RES
1 *1255:ZN *1483:D 11.7 
*END

*D_NET *131 0.00196529
*CONN
*I *1484:D I *D gf180mcu_fd_sc_mcu7t5v0__dffrnq_1
*I *1235:ZN O *D gf180mcu_fd_sc_mcu7t5v0__nor3_1
*CAP
1 *1484:D 0.000423782
2 *1235:ZN 0.000423782
3 *1484:D *1233:A2 0.000218787
4 *1484:D *1233:A3 0.000515537
5 *1484:D *1235:A1 0.000114608
6 *1484:D *1235:A2 0.000268796
7 *1484:D *300:25 0
*RES
1 *1235:ZN *1484:D 13.32 
*END

*D_NET *132 0.00219597
*CONN
*I *1485:D I *D gf180mcu_fd_sc_mcu7t5v0__dffrnq_1
*I *1233:ZN O *D gf180mcu_fd_sc_mcu7t5v0__nor3_1
*CAP
1 *1485:D 0.000237548
2 *1233:ZN 0.000237548
3 *1485:D *1227:A1 0.000824046
4 *1485:D *1232:A2 0.000575844
5 *1485:D *1233:A1 7.96333e-06
6 *1485:D *1233:A3 0.000150531
7 *1485:D *1484:CLK 4.83522e-05
8 *1485:D *300:25 6.26074e-05
9 *1485:D *300:27 5.15282e-05
*RES
1 *1233:ZN *1485:D 12.96 
*END

*D_NET *133 0.00056856
*CONN
*I *1486:D I *D gf180mcu_fd_sc_mcu7t5v0__dffrnq_1
*I *1231:ZN O *D gf180mcu_fd_sc_mcu7t5v0__nor4_1
*CAP
1 *1486:D 0.000100367
2 *1231:ZN 0.000100367
3 *1486:D *1230:A1 0.00035741
4 *1486:D *1499:CLK 1.0415e-05
*RES
1 *1231:ZN *1486:D 9.99 
*END

*D_NET *134 0.00318321
*CONN
*I *1230:A1 I *D gf180mcu_fd_sc_mcu7t5v0__and2_1
*I *1229:A1 I *D gf180mcu_fd_sc_mcu7t5v0__nor2_1
*I *1324:A1 I *D gf180mcu_fd_sc_mcu7t5v0__nor3_1
*I *1160:ZN O *D gf180mcu_fd_sc_mcu7t5v0__clkinv_1
*CAP
1 *1230:A1 0.000226709
2 *1229:A1 7.56197e-05
3 *1324:A1 7.84413e-05
4 *1160:ZN 0.000202376
5 *134:10 0.000380766
6 *134:8 0.000655791
7 *1229:A1 *1324:A3 6.44696e-05
8 *1229:A1 *1388:I 0
9 *1229:A1 *202:8 0.000294431
10 *1229:A1 *372:10 8.69576e-05
11 *1230:A1 *1231:A4 0.000116467
12 *1230:A1 *1480:CLK 1.06178e-05
13 *1230:A1 *1499:CLK 0.000129067
14 *1324:A1 *1336:A2 9.08505e-05
15 *134:8 *300:31 0.000109508
16 *134:8 *300:33 3.45237e-05
17 *134:8 *372:36 0
18 *134:10 *1231:A3 0.000169917
19 *134:10 *1336:A2 2.36954e-05
20 *134:10 *1480:CLK 5.39521e-05
21 *134:10 *300:33 2.16372e-05
22 *134:10 *372:36 0
23 *1480:D *1324:A1 0
24 *1486:D *1230:A1 0.00035741
*RES
1 *1160:ZN *134:8 11.07 
2 *134:8 *134:10 1.89 
3 *134:10 *1324:A1 9.63 
4 *134:10 *1229:A1 10.17 
5 *134:8 *1230:A1 11.52 
*END

*D_NET *135 0.00188852
*CONN
*I *1234:A1 I *D gf180mcu_fd_sc_mcu7t5v0__xor2_1
*I *1203:A1 I *D gf180mcu_fd_sc_mcu7t5v0__aoi221_1
*I *1200:B2 I *D gf180mcu_fd_sc_mcu7t5v0__oai221_1
*I *1161:ZN O *D gf180mcu_fd_sc_mcu7t5v0__clkinv_1
*CAP
1 *1234:A1 0.000123572
2 *1203:A1 1.51665e-05
3 *1200:B2 0.000140494
4 *1161:ZN 0
5 *135:10 0.000361936
6 *135:4 0.000329847
7 *1200:B2 *1203:A2 0.00017699
8 *1200:B2 *1204:A1 2.09122e-05
9 *1200:B2 *1204:A2 0.000286386
10 *1203:A1 *179:16 0
11 *1234:A1 *1199:B1 0
12 *1234:A1 *1513:I 0
13 *1234:A1 *179:38 0.000246336
14 *135:10 *1200:C 1.27919e-05
15 *135:10 *1203:A2 9.84908e-05
16 *135:10 *1203:C 5.85819e-05
17 *135:10 *1513:I 1.70133e-05
18 *135:10 *179:16 0
*RES
1 *1161:ZN *135:4 4.5 
2 *135:4 *135:10 2.07 
3 *135:10 *1200:B2 6.12 
4 *135:10 *1203:A1 4.77 
5 *135:4 *1234:A1 14.85 
*END

*D_NET *136 0.00175339
*CONN
*I *1255:A1 I *D gf180mcu_fd_sc_mcu7t5v0__oai22_1
*I *1162:ZN O *D gf180mcu_fd_sc_mcu7t5v0__clkinv_1
*CAP
1 *1255:A1 0.000338252
2 *1162:ZN 0.000338252
3 *1255:A1 *1252:A1 5.71404e-05
4 *1255:A1 *1253:A1 0.00012512
5 *1255:A1 *1437:I 0
6 *1255:A1 *1540:I 0
7 *1255:A1 *222:10 0.000310002
8 *1255:A1 *304:12 0.000518361
9 *1483:D *1255:A1 6.62654e-05
*RES
1 *1162:ZN *1255:A1 21.6 
*END

*D_NET *137 0.000160952
*CONN
*I *1256:A1 I *D gf180mcu_fd_sc_mcu7t5v0__nor2_1
*I *1163:ZN O *D gf180mcu_fd_sc_mcu7t5v0__clkinv_1
*CAP
1 *1256:A1 8.0476e-05
2 *1163:ZN 8.0476e-05
*RES
1 *1163:ZN *1256:A1 9.63 
*END

*D_NET *138 0.00158958
*CONN
*I *1272:A1 I *D gf180mcu_fd_sc_mcu7t5v0__nor2_1
*I *1164:ZN O *D gf180mcu_fd_sc_mcu7t5v0__clkinv_1
*CAP
1 *1272:A1 0.000138455
2 *1164:ZN 0.000138455
3 *1272:A1 *218:33 0.000844075
4 *1272:A1 *219:10 2.40809e-05
5 *1478:D *1272:A1 0.000444513
*RES
1 *1164:ZN *1272:A1 11.52 
*END

*D_NET *139 0.00623835
*CONN
*I *1293:A1 I *D gf180mcu_fd_sc_mcu7t5v0__nand3_1
*I *1310:A1 I *D gf180mcu_fd_sc_mcu7t5v0__and3_1
*I *1275:A1 I *D gf180mcu_fd_sc_mcu7t5v0__aoi21_1
*I *1165:ZN O *D gf180mcu_fd_sc_mcu7t5v0__clkinv_1
*CAP
1 *1293:A1 0.000171104
2 *1310:A1 0.000321223
3 *1275:A1 0.000188252
4 *1165:ZN 0
5 *139:10 0.000626535
6 *139:4 0.000288163
7 *1275:A1 *1275:A2 0.000702887
8 *1275:A1 *1275:B 0.000210201
9 *1275:A1 *310:66 0.000427579
10 *1275:A1 *319:62 0.000470268
11 *1293:A1 *1466:CLK 0.000182436
12 *1293:A1 *357:10 8.81508e-05
13 *1310:A1 *1275:B 0
14 *1310:A1 *1277:A1 0.000351843
15 *1310:A1 *1289:A1 0.000288855
16 *1310:A1 *1310:A3 5.56123e-05
17 *1310:A1 *1431:I 0.000156008
18 *1310:A1 *1466:CLK 2.57818e-05
19 *1310:A1 *140:14 0.00102574
20 *1310:A1 *292:119 9.60211e-06
21 *1310:A1 *349:12 2.89145e-06
22 *139:10 *1289:A1 6.22343e-05
23 *139:10 *1466:CLK 3.46409e-05
24 *139:10 *310:66 3.55431e-05
25 *139:10 *319:62 0.000216025
26 *139:10 *357:10 9.93993e-06
27 *1466:D *1293:A1 3.55118e-05
28 *1466:D *139:10 9.30289e-05
29 *1476:RN *1310:A1 0.000158295
*RES
1 *1165:ZN *139:4 4.5 
2 *139:4 *139:10 6.12 
3 *139:10 *1275:A1 13.5 
4 *139:10 *1310:A1 13.68 
5 *139:4 *1293:A1 6.12 
*END

*D_NET *140 0.0055599
*CONN
*I *1310:A2 I *D gf180mcu_fd_sc_mcu7t5v0__and3_1
*I *1289:A2 I *D gf180mcu_fd_sc_mcu7t5v0__nand3_1
*I *1277:A1 I *D gf180mcu_fd_sc_mcu7t5v0__aoi21_1
*I *1166:ZN O *D gf180mcu_fd_sc_mcu7t5v0__clkinv_1
*CAP
1 *1310:A2 0
2 *1289:A2 0
3 *1277:A1 6.59116e-05
4 *1166:ZN 0.000157948
5 *140:14 0.000353078
6 *140:8 0.000445114
7 *1277:A1 *1291:S 2.63343e-05
8 *1277:A1 *1292:S 0.00104652
9 *1277:A1 *243:8 0.00028081
10 *1277:A1 *310:66 0.00110914
11 *140:8 *1166:I 5.08425e-05
12 *140:8 *1293:A2 6.97472e-05
13 *140:8 *1520:I 0.000177834
14 *140:8 *292:119 5.25746e-05
15 *140:14 *243:8 0.000191046
16 *140:14 *292:119 4.77004e-05
17 *140:14 *349:12 0.000107715
18 *1310:A1 *1277:A1 0.000351843
19 *1310:A1 *140:14 0.00102574
*RES
1 *1166:ZN *140:8 10.89 
2 *140:8 *140:14 8.1 
3 *140:14 *1277:A1 17.28 
4 *140:14 *1289:A2 4.5 
5 *140:8 *1310:A2 9 
*END

*D_NET *141 0.00976513
*CONN
*I *1264:A3 I *D gf180mcu_fd_sc_mcu7t5v0__nor4_1
*I *1295:A1 I *D gf180mcu_fd_sc_mcu7t5v0__oai21_1
*I *1312:A1 I *D gf180mcu_fd_sc_mcu7t5v0__aoi21_1
*I *1279:A1 I *D gf180mcu_fd_sc_mcu7t5v0__oai21_1
*I *1167:ZN O *D gf180mcu_fd_sc_mcu7t5v0__clkinv_1
*CAP
1 *1264:A3 0.000932267
2 *1295:A1 0.000375369
3 *1312:A1 0.000275375
4 *1279:A1 0.000229354
5 *1167:ZN 3.92287e-05
6 *141:29 0.00139863
7 *141:10 0.00115804
8 *141:8 0.00115229
9 *1264:A3 *1264:A2 0
10 *1264:A3 *1264:A4 2.03791e-05
11 *1264:A3 *1299:A1 1.51153e-05
12 *1264:A3 *1321:A1 6.22424e-05
13 *1264:A3 *1429:I 9.20679e-05
14 *1264:A3 *1522:I 0.000184811
15 *1264:A3 *1527:I 7.96333e-06
16 *1264:A3 *308:82 0
17 *1264:A3 *354:23 1.76011e-05
18 *1279:A1 *1278:A2 3.25224e-05
19 *1279:A1 *253:42 0.000365445
20 *1279:A1 *328:27 0
21 *1295:A1 *1295:A2 0.000174506
22 *1295:A1 *1300:A2 0
23 *1295:A1 *299:14 0
24 *1312:A1 *1321:A1 2.59366e-05
25 *1312:A1 *253:65 0
26 *141:8 *1429:I 0.000308353
27 *141:29 *1300:A1 0.000297533
28 *141:29 *1313:A1 0
29 *141:29 *1313:A2 0
30 *141:29 *1321:A1 0.000872096
31 *141:29 *253:65 0
32 *141:29 *354:48 0.000209482
33 *1455:RN *141:29 0.000433797
34 *1462:D *1264:A3 0.000100101
35 *1474:RN *1264:A3 0.000239562
36 *1475:D *1279:A1 0.000302466
37 *1505:I *141:8 0.000169917
38 *1505:I *141:10 0.00027267
*RES
1 *1167:ZN *141:8 9.99 
2 *141:8 *141:10 1.89 
3 *141:10 *1279:A1 11.34 
4 *141:10 *141:29 12.87 
5 *141:29 *1312:A1 6.48 
6 *141:29 *1295:A1 16.11 
7 *141:8 *1264:A3 16.38 
*END

*D_NET *142 0.00995838
*CONN
*I *1299:A1 I *D gf180mcu_fd_sc_mcu7t5v0__oai21_1
*I *1263:A1 I *D gf180mcu_fd_sc_mcu7t5v0__nor4_1
*I *1281:A1 I *D gf180mcu_fd_sc_mcu7t5v0__aoi21_1
*I *1283:A1 I *D gf180mcu_fd_sc_mcu7t5v0__oai21_1
*I *1168:ZN O *D gf180mcu_fd_sc_mcu7t5v0__clkinv_1
*CAP
1 *1299:A1 0.000199239
2 *1263:A1 0.00135943
3 *1281:A1 2.29101e-05
4 *1283:A1 0.000404651
5 *1168:ZN 0
6 *142:36 0.00177039
7 *142:25 0.00051938
8 *142:6 0.000689397
9 *1263:A1 *352:39 0
10 *1281:A1 *308:52 9.04462e-05
11 *1281:A1 *328:27 1.56862e-05
12 *1283:A1 *1283:A2 0.000609231
13 *1283:A1 *1315:A1 0.000173529
14 *1283:A1 *308:28 0.000356703
15 *1283:A1 *308:48 0.000134399
16 *1283:A1 *353:10 7.00004e-05
17 *1299:A1 *1280:A1 4.21964e-05
18 *1299:A1 *1299:A2 0
19 *1299:A1 *1522:I 0.000436478
20 *1299:A1 *296:55 0.000453197
21 *1299:A1 *296:61 0.000632512
22 *1299:A1 *354:23 0.000118531
23 *142:25 *296:61 5.31432e-05
24 *142:25 *308:48 0.000178801
25 *142:25 *308:52 0.000286386
26 *142:25 *328:27 4.0497e-05
27 *142:25 *353:10 0.000226823
28 *142:36 *1280:A1 6.85292e-05
29 *142:36 *296:61 0.00062533
30 *142:36 *352:39 0
31 *1264:A3 *1299:A1 1.51153e-05
32 *1462:D *1299:A1 0.000365454
*RES
1 *1168:ZN *142:6 9 
2 *142:6 *1283:A1 13.23 
3 *142:6 *142:25 7.56 
4 *142:25 *1281:A1 4.77 
5 *142:25 *142:36 6.21 
6 *142:36 *1263:A1 25.47 
7 *142:36 *1299:A1 12.96 
*END

*D_NET *143 0.00270101
*CONN
*I *1218:A1 I *D gf180mcu_fd_sc_mcu7t5v0__oai22_1
*I *1222:A1 I *D gf180mcu_fd_sc_mcu7t5v0__oai21_1
*I *1214:A1 I *D gf180mcu_fd_sc_mcu7t5v0__aoi22_1
*I *1169:ZN O *D gf180mcu_fd_sc_mcu7t5v0__clkinv_1
*CAP
1 *1218:A1 3.2363e-05
2 *1222:A1 0.000102426
3 *1214:A1 0.000162432
4 *1169:ZN 6.20729e-05
5 *143:12 0.000456578
6 *143:8 0.000286155
7 *1214:A1 *188:18 0.00014932
8 *1214:A1 *384:14 0
9 *1218:A1 *1217:B1 0.000365454
10 *1218:A1 *1219:A2 0.000294431
11 *1222:A1 *1222:B 0.000394221
12 *1222:A1 *1225:A2 0.000124757
13 *143:8 *1215:A2 0
14 *143:8 *1218:B1 6.84426e-06
15 *143:8 *188:18 3.26385e-05
16 *143:8 *384:14 0
17 *143:12 *188:18 0.000231314
18 *143:12 *384:14 0
*RES
1 *1169:ZN *143:8 9.45 
2 *143:8 *143:12 1.8 
3 *143:12 *1214:A1 10.08 
4 *143:12 *1222:A1 10.53 
5 *143:8 *1218:A1 9.99 
*END

*D_NET *144 0.00580921
*CONN
*I *1214:B2 I *D gf180mcu_fd_sc_mcu7t5v0__aoi22_1
*I *1217:A1 I *D gf180mcu_fd_sc_mcu7t5v0__oai22_1
*I *1297:A1 I *D gf180mcu_fd_sc_mcu7t5v0__aoi21_1
*I *1170:ZN O *D gf180mcu_fd_sc_mcu7t5v0__clkinv_1
*CAP
1 *1214:B2 0.000166338
2 *1217:A1 0
3 *1297:A1 0.000751118
4 *1170:ZN 0
5 *144:25 0.000575127
6 *144:4 0.00115991
7 *1214:B2 *1217:A2 6.85018e-05
8 *1214:B2 *1219:A2 0.000272409
9 *1214:B2 *1221:A2 2.65444e-06
10 *1214:B2 *1222:B 0.000156008
11 *1214:B2 *1225:A2 0.000227808
12 *1214:B2 *188:18 0.000182035
13 *1214:B2 *190:10 1.13574e-05
14 *1297:A1 *1170:I 3.55118e-05
15 *1297:A1 *1224:A1 3.96404e-05
16 *1297:A1 *1224:A2 4.05591e-05
17 *1297:A1 *1225:B1 3.01487e-05
18 *1297:A1 *1409:I 0
19 *1297:A1 *1417:I 0.000164228
20 *1297:A1 *199:76 0
21 *1297:A1 *283:35 0.000124895
22 *1297:A1 *307:32 0.000164219
23 *1297:A1 *317:27 3.34727e-05
24 *144:25 *1170:I 3.22348e-05
25 *144:25 *1217:B1 1.34934e-05
26 *144:25 *1219:A1 4.34467e-06
27 *144:25 *1219:A2 3.73807e-05
28 *144:25 *1221:A2 5.30888e-06
29 *144:25 *1224:A1 0.000159462
30 *144:25 *283:35 0.00134425
31 *144:25 *326:78 6.79568e-06
*RES
1 *1170:ZN *144:4 4.5 
2 *144:4 *1297:A1 18.72 
3 *144:4 *144:25 5.04 
4 *144:25 *1217:A1 4.5 
5 *144:25 *1214:B2 15.93 
*END

*D_NET *145 0.00304129
*CONN
*I *1217:B2 I *D gf180mcu_fd_sc_mcu7t5v0__oai22_1
*I *1215:A1 I *D gf180mcu_fd_sc_mcu7t5v0__aoi22_1
*I *1171:ZN O *D gf180mcu_fd_sc_mcu7t5v0__clkinv_1
*CAP
1 *1217:B2 0.000117247
2 *1215:A1 0.000309426
3 *1171:ZN 0.000132024
4 *145:8 0.000558698
5 *1215:A1 *1215:B2 2.32439e-05
6 *1215:A1 *1224:A1 5.27264e-05
7 *1215:A1 *1294:A1 3.38355e-05
8 *1215:A1 *146:23 0.000156008
9 *1215:A1 *188:18 0.0005174
10 *1215:A1 *383:20 1.0415e-05
11 *1217:B2 *188:18 2.11204e-05
12 *145:8 *1172:I 3.22348e-05
13 *145:8 *1224:A1 0.00084547
14 *145:8 *146:10 0.000231442
15 *145:8 *146:23 0
*RES
1 *1171:ZN *145:8 11.25 
2 *145:8 *1215:A1 12.24 
3 *145:8 *1217:B2 9.81 
*END

*D_NET *146 0.00569348
*CONN
*I *1215:B2 I *D gf180mcu_fd_sc_mcu7t5v0__aoi22_1
*I *1218:B2 I *D gf180mcu_fd_sc_mcu7t5v0__oai22_1
*I *1301:A1 I *D gf180mcu_fd_sc_mcu7t5v0__aoi21_1
*I *1172:ZN O *D gf180mcu_fd_sc_mcu7t5v0__clkinv_1
*CAP
1 *1215:B2 1.96646e-05
2 *1218:B2 0.000166369
3 *1301:A1 0.000709957
4 *1172:ZN 0.000238168
5 *146:23 0.000483755
6 *146:10 0.00124585
7 *1215:B2 *199:76 0.000142047
8 *1215:B2 *383:20 1.61174e-05
9 *1218:B2 *1218:B1 0.000225234
10 *1218:B2 *1294:A1 3.88059e-05
11 *1218:B2 *188:18 2.11238e-05
12 *1301:A1 *1300:A2 4.217e-05
13 *1301:A1 *1409:I 0
14 *1301:A1 *199:76 0
15 *146:10 *1172:I 3.55118e-05
16 *146:10 *1224:A1 2.36914e-05
17 *146:10 *1224:A4 5.8566e-05
18 *146:10 *199:76 0
19 *146:23 *1172:I 1.19491e-05
20 *146:23 *1224:A4 6.93035e-05
21 *146:23 *199:76 0.00173451
22 *1215:A1 *1215:B2 2.32439e-05
23 *1215:A1 *146:23 0.000156008
24 *145:8 *146:10 0.000231442
25 *145:8 *146:23 0
*RES
1 *1172:ZN *146:10 10.98 
2 *146:10 *1301:A1 13.77 
3 *146:10 *146:23 9.09 
4 *146:23 *1218:B2 15.21 
5 *146:23 *1215:B2 4.95 
*END

*D_NET *147 0.0030287
*CONN
*I *1212:A1 I *D gf180mcu_fd_sc_mcu7t5v0__oai22_1
*I *1303:A1 I *D gf180mcu_fd_sc_mcu7t5v0__aoi21_1
*I *1173:ZN O *D gf180mcu_fd_sc_mcu7t5v0__clkinv_1
*CAP
1 *1212:A1 0.000115008
2 *1303:A1 0.000507984
3 *1173:ZN 0
4 *147:4 0.000622992
5 *1212:A1 *1173:I 0.000106536
6 *1212:A1 *1207:B2 0.000622072
7 *1212:A1 *339:25 0
8 *1303:A1 *1173:I 0.000162562
9 *1303:A1 *1176:I 3.6437e-05
10 *1303:A1 *1207:B2 0.000365454
11 *1303:A1 *1211:A1 0
12 *1303:A1 *1223:A4 0.000191147
13 *1303:A1 *1309:A1 0.000109323
14 *1303:A1 *150:8 0.000126457
15 *1303:A1 *339:12 2.82079e-05
16 *1457:RN *1303:A1 3.45237e-05
*RES
1 *1173:ZN *147:4 4.5 
2 *147:4 *1303:A1 18.9 
3 *147:4 *1212:A1 6.21 
*END

*D_NET *148 0.00497076
*CONN
*I *1212:B2 I *D gf180mcu_fd_sc_mcu7t5v0__oai22_1
*I *1305:A1 I *D gf180mcu_fd_sc_mcu7t5v0__aoi21_1
*I *1174:ZN O *D gf180mcu_fd_sc_mcu7t5v0__clkinv_1
*CAP
1 *1212:B2 0.000924243
2 *1305:A1 0.000544505
3 *1174:ZN 0.000352623
4 *148:12 0.00182137
5 *1212:B2 *1207:B2 0.000277427
6 *1212:B2 *1210:A1 0
7 *1212:B2 *1213:A1 2.65444e-06
8 *1212:B2 *1223:A3 0
9 *1212:B2 *149:23 0.000128216
10 *1212:B2 *313:118 2.5343e-05
11 *1212:B2 *338:25 0
12 *1305:A1 *1306:A2 4.83522e-05
13 *1305:A1 *1307:A2 5.22092e-05
14 *1305:A1 *1307:B 0.000106324
15 *1305:A1 *306:35 2.67326e-05
16 *1305:A1 *306:41 5.07419e-05
17 *1305:A1 *313:103 0.000298647
18 *1305:A1 *313:118 7.29784e-05
19 *148:12 *1174:I 3.55118e-05
20 *148:12 *1175:I 6.60157e-06
21 *148:12 *1412:I 0
22 *148:12 *313:118 7.72457e-05
23 *1458:RN *1305:A1 0
24 *1458:RN *148:12 9.04539e-05
25 *1460:RN *1212:B2 2.85793e-05
*RES
1 *1174:ZN *148:12 11.43 
2 *148:12 *1305:A1 14.04 
3 *148:12 *1212:B2 15.75 
*END

*D_NET *149 0.00715585
*CONN
*I *1211:A1 I *D gf180mcu_fd_sc_mcu7t5v0__oai22_1
*I *1210:A1 I *D gf180mcu_fd_sc_mcu7t5v0__nand2_1
*I *1307:A1 I *D gf180mcu_fd_sc_mcu7t5v0__aoi21_1
*I *1175:ZN O *D gf180mcu_fd_sc_mcu7t5v0__clkinv_1
*CAP
1 *1211:A1 0.000357214
2 *1210:A1 0.000136765
3 *1307:A1 0.000259564
4 *1175:ZN 3.09365e-05
5 *149:23 0.00156351
6 *149:8 0.00136003
7 *1210:A1 *1210:A2 0.000164228
8 *1210:A1 *1213:A1 0.000252323
9 *1210:A1 *1213:A2 0.000177559
10 *1211:A1 *1210:A2 2.74005e-05
11 *1211:A1 *1211:B1 1.61174e-05
12 *1211:A1 *1211:B2 2.6441e-05
13 *1211:A1 *1213:A2 0
14 *1211:A1 *150:8 0
15 *1307:A1 *1459:CLK 0.000362773
16 *1307:A1 *1543:I 0.000713491
17 *1307:A1 *295:87 0.000183717
18 *1307:A1 *313:103 0.000215359
19 *149:8 *1543:I 0.000126457
20 *149:8 *313:103 8.68398e-06
21 *149:23 *1412:I 7.73282e-05
22 *149:23 *313:118 0.000190096
23 *149:23 *336:8 8.73082e-05
24 *1212:B2 *1210:A1 0
25 *1212:B2 *149:23 0.000128216
26 *1303:A1 *1211:A1 0
27 *1458:D *1307:A1 0.000361155
28 *1458:RN *149:8 0.00023711
29 *1458:RN *149:23 9.20698e-05
*RES
1 *1175:ZN *149:8 9.81 
2 *149:8 *1307:A1 13.68 
3 *149:8 *149:23 12.33 
4 *149:23 *1210:A1 15.21 
5 *149:23 *1211:A1 16.02 
*END

*D_NET *150 0.00198137
*CONN
*I *1211:B2 I *D gf180mcu_fd_sc_mcu7t5v0__oai22_1
*I *1309:A1 I *D gf180mcu_fd_sc_mcu7t5v0__aoi21_1
*I *1176:ZN O *D gf180mcu_fd_sc_mcu7t5v0__clkinv_1
*CAP
1 *1211:B2 0.000217491
2 *1309:A1 0.000211431
3 *1176:ZN 5.83224e-05
4 *150:8 0.000487245
5 *1211:B2 *1303:A2 8.49143e-05
6 *1211:B2 *1303:B 0.000119548
7 *1309:A1 *1303:A2 0.000175204
8 *1309:A1 *306:21 9.4836e-05
9 *150:8 *1303:A2 9.39061e-05
10 *1211:A1 *1211:B2 2.6441e-05
11 *1211:A1 *150:8 0
12 *1303:A1 *1309:A1 0.000109323
13 *1303:A1 *150:8 0.000126457
14 *1457:D *1309:A1 0.000109323
15 *1457:RN *1211:B2 5.12535e-05
16 *1457:RN *1309:A1 1.56708e-05
*RES
1 *1176:ZN *150:8 9.81 
2 *150:8 *1309:A1 11.16 
3 *150:8 *1211:B2 10.89 
*END

*D_NET *151 0.00662006
*CONN
*I *1314:A1 I *D gf180mcu_fd_sc_mcu7t5v0__oai21_1
*I *1199:B2 I *D gf180mcu_fd_sc_mcu7t5v0__aoi22_1
*I *1205:A1 I *D gf180mcu_fd_sc_mcu7t5v0__oai222_1
*I *1177:ZN O *D gf180mcu_fd_sc_mcu7t5v0__clkinv_1
*CAP
1 *1314:A1 0
2 *1199:B2 0.000222902
3 *1205:A1 0.000102552
4 *1177:ZN 0.00024355
5 *151:22 0.00203973
6 *151:12 0.00195782
7 *1199:B2 *1199:B1 0.000121774
8 *1199:B2 *1200:A1 5.38599e-05
9 *1199:B2 *1200:C 0.000291749
10 *1199:B2 *1203:A2 8.12856e-06
11 *1199:B2 *1206:A2 0.000284113
12 *1205:A1 *1199:B1 5.17714e-05
13 *1205:A1 *1206:A2 5.79737e-05
14 *1205:A1 *1206:A4 3.32109e-05
15 *151:12 *1177:I 8.69474e-05
16 *151:12 *1314:B 6.58906e-05
17 *151:12 *1510:I 3.15089e-05
18 *151:12 *330:41 0.000483377
19 *151:22 *1300:A1 3.1561e-05
20 *151:22 *1510:I 1.99836e-05
21 *151:22 *330:41 0.000311693
22 *1455:D *151:12 0.000119967
*RES
1 *1177:ZN *151:12 7.02 
2 *151:12 *151:22 23.22 
3 *151:22 *1205:A1 9.81 
4 *151:22 *1199:B2 11.7 
5 *151:12 *1314:A1 4.5 
*END

*D_NET *152 0.00607325
*CONN
*I *1205:B2 I *D gf180mcu_fd_sc_mcu7t5v0__oai222_1
*I *1201:B2 I *D gf180mcu_fd_sc_mcu7t5v0__aoi221_1
*I *1316:A1 I *D gf180mcu_fd_sc_mcu7t5v0__oai21_1
*I *1178:ZN O *D gf180mcu_fd_sc_mcu7t5v0__clkinv_1
*CAP
1 *1205:B2 0.000345587
2 *1201:B2 0
3 *1316:A1 0.000259334
4 *1178:ZN 8.41775e-05
5 *152:25 0.00128753
6 *152:10 0.00128546
7 *1205:B2 *1201:B1 0.000351196
8 *1205:B2 *1202:A2 0.000160093
9 *1205:B2 *1205:B1 0.00013586
10 *1205:B2 *153:27 0.000145556
11 *1205:B2 *375:6 3.01487e-05
12 *1316:A1 *1195:A2 0.000236727
13 *1316:A1 *1195:A4 0
14 *1316:A1 *1316:B 0.000177559
15 *1316:A1 *1319:A2 1.27919e-05
16 *1316:A1 *305:58 1.86887e-06
17 *1316:A1 *305:62 0
18 *1316:A1 *331:8 0
19 *1316:A1 *333:8 1.07374e-05
20 *152:10 *1195:A1 0
21 *152:10 *1319:A2 1.52191e-05
22 *152:10 *1319:B 0.000109332
23 *152:25 *1195:A1 5.69319e-05
24 *152:25 *1195:A2 0.000151427
25 *152:25 *1195:A4 0
26 *152:25 *1196:A1 0
27 *152:25 *1196:A2 0.000145104
28 *152:25 *1197:A2 1.00099e-05
29 *152:25 *1197:B 0.000433797
30 *152:25 *1201:B1 1.0415e-05
31 *152:25 *1202:A2 5.0649e-05
32 *152:25 *1317:I0 5.96096e-05
33 *152:25 *153:27 0.000402996
34 *152:25 *330:41 0
35 *1452:D *1316:A1 0.000103139
*RES
1 *1178:ZN *152:10 14.31 
2 *152:10 *1316:A1 7.2 
3 *152:10 *152:25 8.91 
4 *152:25 *1201:B2 4.5 
5 *152:25 *1205:B2 8.37 
*END

*D_NET *153 0.00805565
*CONN
*I *1203:B2 I *D gf180mcu_fd_sc_mcu7t5v0__aoi221_1
*I *1205:C2 I *D gf180mcu_fd_sc_mcu7t5v0__oai222_1
*I *1319:A1 I *D gf180mcu_fd_sc_mcu7t5v0__oai21_1
*I *1179:ZN O *D gf180mcu_fd_sc_mcu7t5v0__clkinv_1
*CAP
1 *1203:B2 0.00016285
2 *1205:C2 3.71927e-05
3 *1319:A1 0.00015356
4 *1179:ZN 0
5 *153:27 0.00125831
6 *153:4 0.00121183
7 *1203:B2 *1199:B1 5.6767e-06
8 *1203:B2 *1202:A2 0.000488731
9 *1203:B2 *179:16 0.000294166
10 *1203:B2 *318:56 0.000109731
11 *1203:B2 *375:10 0.000372606
12 *1205:C2 *318:56 7.72406e-05
13 *1205:C2 *375:10 0.000320262
14 *1319:A1 *1319:A2 3.94291e-05
15 *153:27 *1195:A3 0
16 *153:27 *1195:A4 0.000383378
17 *153:27 *1198:A1 0.000471494
18 *153:27 *1205:B1 0.000550324
19 *153:27 *1317:I0 0.000286733
20 *153:27 *292:66 0.000521471
21 *153:27 *305:62 0.000762116
22 *1205:B2 *153:27 0.000145556
23 *1452:D *1319:A1 0
24 *152:25 *153:27 0.000402996
*RES
1 *1179:ZN *153:4 4.5 
2 *153:4 *1319:A1 14.67 
3 *153:4 *153:27 17.55 
4 *153:27 *1205:C2 9.81 
5 *153:27 *1203:B2 11.7 
*END

*D_NET *154 0.00284901
*CONN
*I *1322:A1 I *D gf180mcu_fd_sc_mcu7t5v0__oai21_1
*I *1199:A2 I *D gf180mcu_fd_sc_mcu7t5v0__aoi22_1
*I *1200:A2 I *D gf180mcu_fd_sc_mcu7t5v0__oai221_1
*I *1180:ZN O *D gf180mcu_fd_sc_mcu7t5v0__clkinv_1
*CAP
1 *1322:A1 0.000120401
2 *1199:A2 0.000125756
3 *1200:A2 0.000238283
4 *1180:ZN 7.97038e-05
5 *154:10 0.000398528
6 *154:8 0.000234594
7 *1199:A2 *1194:A2 6.2702e-05
8 *1199:A2 *1200:A1 0.00037349
9 *1199:A2 *1450:CLK 7.77227e-05
10 *1200:A2 *1200:A1 1.07374e-05
11 *1200:A2 *1203:A2 1.55102e-05
12 *1200:A2 *328:34 1.7611e-05
13 *1322:A1 *1321:A2 0.000161845
14 *1322:A1 *1450:CLK 0.00023753
15 *1322:A1 *253:65 0.000161838
16 *1322:A1 *292:72 0.000110758
17 *1322:A1 *328:34 0
18 *154:8 *1194:A2 9.20679e-05
19 *154:8 *1450:CLK 0.000329933
*RES
1 *1180:ZN *154:8 5.58 
2 *154:8 *154:10 0.27 
3 *154:10 *1200:A2 6.3 
4 *154:10 *1199:A2 6.39 
5 *154:8 *1322:A1 15.12 
*END

*D_NET *155 0.00169264
*CONN
*I *1201:A2 I *D gf180mcu_fd_sc_mcu7t5v0__aoi221_1
*I *1197:A1 I *D gf180mcu_fd_sc_mcu7t5v0__aoi21_1
*I *1181:ZN O *D gf180mcu_fd_sc_mcu7t5v0__clkinv_1
*CAP
1 *1201:A2 0.000196286
2 *1197:A1 6.70619e-06
3 *1181:ZN 0.000199034
4 *155:8 0.000402026
5 *1197:A1 *1197:B 9.84908e-05
6 *1197:A1 *1202:A2 9.84908e-05
7 *1201:A2 *1194:A2 1.7795e-05
8 *1201:A2 *1197:B 4.72617e-05
9 *1201:A2 *1202:A2 4.67543e-05
10 *1201:A2 *1204:A1 0.000166843
11 *1201:A2 *1206:A1 0.000354738
12 *155:8 *1197:B 1.3026e-05
13 *155:8 *1201:C 4.51877e-05
*RES
1 *1181:ZN *155:8 10.35 
2 *155:8 *1197:A1 9.27 
3 *155:8 *1201:A2 10.8 
*END

*D_NET *156 0.000832266
*CONN
*I *1324:A2 I *D gf180mcu_fd_sc_mcu7t5v0__nor3_1
*I *1182:ZN O *D gf180mcu_fd_sc_mcu7t5v0__clkinv_1
*CAP
1 *1324:A2 0.000155818
2 *1182:ZN 0.000155818
3 *1324:A2 *1231:A2 0
4 *1324:A2 *1324:A3 0.00020487
5 *1324:A2 *372:10 0.00031576
*RES
1 *1182:ZN *1324:A2 10.53 
*END

*D_NET *157 0.00368919
*CONN
*I *1343:A2 I *D gf180mcu_fd_sc_mcu7t5v0__oai32_1
*I *1245:A2 I *D gf180mcu_fd_sc_mcu7t5v0__nor3_1
*I *1268:A2 I *D gf180mcu_fd_sc_mcu7t5v0__xor2_1
*I *1183:ZN O *D gf180mcu_fd_sc_mcu7t5v0__clkinv_1
*CAP
1 *1343:A2 0.00018399
2 *1245:A2 7.99647e-06
3 *1268:A2 0.000528395
4 *1183:ZN 0.000452582
5 *157:24 0.0002678
6 *1245:A2 *1245:A3 1.61174e-05
7 *1245:A2 *1269:A2 8.3864e-05
8 *1268:A2 *297:61 0
9 *1268:A2 *315:32 2.70125e-05
10 *1268:A2 *315:43 8.3187e-05
11 *1268:A2 *360:8 0
12 *1268:A2 *360:23 0
13 *1343:A2 *1245:A3 0.000515537
14 *1343:A2 *1268:A1 0.0011021
15 *1343:A2 *1269:A2 0
16 *1343:A2 *1343:A3 0.000132094
17 *1343:A2 *1343:B1 5.97457e-06
18 *157:24 *1268:A1 7.01651e-05
19 *157:24 *1269:A2 0.000127736
20 *157:24 *360:23 2.14748e-05
21 *1495:D *1343:A2 0
22 *1500:SETN *1268:A2 6.317e-05
*RES
1 *1183:ZN *1268:A2 21.06 
2 *1268:A2 *157:24 5.58 
3 *157:24 *1245:A2 4.86 
4 *157:24 *1343:A2 8.28 
*END

*D_NET *158 0.00386339
*CONN
*I *1237:A2 I *D gf180mcu_fd_sc_mcu7t5v0__nor3_1
*I *1236:A1 I *D gf180mcu_fd_sc_mcu7t5v0__nor2_1
*I *1238:A2 I *D gf180mcu_fd_sc_mcu7t5v0__or3_1
*I *1184:ZN O *D gf180mcu_fd_sc_mcu7t5v0__clkinv_1
*CAP
1 *1237:A2 0.000124781
2 *1236:A1 0
3 *1238:A2 1.50335e-05
4 *1184:ZN 0.000174356
5 *158:17 0.00025618
6 *158:6 0.000320789
7 *1237:A2 *1237:A3 0.00035741
8 *1237:A2 *319:30 0.000499457
9 *1237:A2 *358:12 0.000161479
10 *1237:A2 *358:23 9.4836e-05
11 *1238:A2 *1272:A2 0.000161479
12 *1238:A2 *1350:A1 5.36871e-05
13 *158:6 *1249:B 0.000199175
14 *158:6 *1272:A2 0.00117274
15 *158:6 *1350:A1 2.69913e-05
16 *158:17 *1238:A3 0.000169917
17 *158:17 *358:23 7.50811e-05
*RES
1 *1184:ZN *158:6 7.65 
2 *158:6 *1238:A2 4.95 
3 *158:6 *158:17 5.85 
4 *158:17 *1236:A1 9 
5 *158:17 *1237:A2 11.16 
*END

*D_NET *159 0.00154734
*CONN
*I *1243:A2 I *D gf180mcu_fd_sc_mcu7t5v0__and4_1
*I *1185:ZN O *D gf180mcu_fd_sc_mcu7t5v0__clkinv_1
*CAP
1 *1243:A2 0.000156589
2 *1185:ZN 0.000156589
3 *1243:A2 *1243:A1 0.000106536
4 *1243:A2 *1249:B 0.000924538
5 *1243:A2 *1502:D 0.000117805
6 *1243:A2 *1502:CLK 8.52804e-05
*RES
1 *1185:ZN *1243:A2 11.88 
*END

*D_NET *160 0.00226222
*CONN
*I *1341:A1 I *D gf180mcu_fd_sc_mcu7t5v0__oai22_1
*I *1186:ZN O *D gf180mcu_fd_sc_mcu7t5v0__clkinv_1
*CAP
1 *1341:A1 0.000468742
2 *1186:ZN 0.000468742
3 *1341:A1 *1186:I 0.000274279
4 *1341:A1 *1341:B2 8.48709e-05
5 *1341:A1 *293:24 3.57062e-05
6 *1341:A1 *293:26 1.65355e-05
7 *1341:A1 *293:30 1.51878e-05
8 *1341:A1 *310:36 0.000840429
9 *1341:A1 *319:30 1.79158e-05
10 *1496:D *1341:A1 3.98088e-05
*RES
1 *1186:ZN *1341:A1 22.32 
*END

*D_NET *161 0.000206938
*CONN
*I *1343:B2 I *D gf180mcu_fd_sc_mcu7t5v0__oai32_1
*I *1187:ZN O *D gf180mcu_fd_sc_mcu7t5v0__clkinv_1
*CAP
1 *1343:B2 0.000103469
2 *1187:ZN 0.000103469
*RES
1 *1187:ZN *1343:B2 9.81 
*END

*D_NET *162 0.00132939
*CONN
*I *1342:B2 I *D gf180mcu_fd_sc_mcu7t5v0__oai22_1
*I *1188:ZN O *D gf180mcu_fd_sc_mcu7t5v0__clkinv_1
*CAP
1 *1342:B2 0.000139824
2 *1188:ZN 0.000139824
3 *1342:B2 *1186:I 0.000458887
4 *1342:B2 *1341:B1 0.00036937
5 *1342:B2 *1342:A1 3.58926e-05
6 *1342:B2 *270:22 0.000171937
7 *1342:B2 *366:12 1.03831e-05
8 *1493:RN *1342:B2 3.27459e-06
*RES
1 *1188:ZN *1342:B2 19.98 
*END

*D_NET *163 0.00138352
*CONN
*I *1341:B2 I *D gf180mcu_fd_sc_mcu7t5v0__oai22_1
*I *1189:ZN O *D gf180mcu_fd_sc_mcu7t5v0__clkinv_1
*CAP
1 *1341:B2 0.00041365
2 *1189:ZN 0.00041365
3 *1341:B2 *1186:I 0
4 *1341:B2 *1342:A2 3.72197e-05
5 *1341:B2 *1465:CLK 0.00035741
6 *1341:A1 *1341:B2 8.48709e-05
7 *1493:RN *1341:B2 3.69158e-05
8 *1496:D *1341:B2 3.98088e-05
*RES
1 *1189:ZN *1341:B2 12.42 
*END

*D_NET *164 0.00111108
*CONN
*I *1226:A2 I *D gf180mcu_fd_sc_mcu7t5v0__and2_1
*I *1228:A4 I *D gf180mcu_fd_sc_mcu7t5v0__nand4_1
*I *1190:ZN O *D gf180mcu_fd_sc_mcu7t5v0__clkinv_1
*CAP
1 *1226:A2 0.000110448
2 *1228:A4 0
3 *1190:ZN 6.54783e-05
4 *164:10 0.000175927
5 *1226:A2 *1226:A1 0.000175108
6 *1226:A2 *1228:A1 1.19491e-05
7 *1226:A2 *1228:A2 0.000151427
8 *164:10 *1228:A3 7.03219e-05
9 *164:10 *300:31 3.01575e-05
10 *164:10 *377:16 0.000320262
*RES
1 *1190:ZN *164:10 14.49 
2 *164:10 *1228:A4 4.5 
3 *164:10 *1226:A2 5.94 
*END

*D_NET *165 0.00734477
*CONN
*I *1363:A1 I *D gf180mcu_fd_sc_mcu7t5v0__nor2_1
*I *1364:A1 I *D gf180mcu_fd_sc_mcu7t5v0__and2_1
*I *1208:A2 I *D gf180mcu_fd_sc_mcu7t5v0__nand2_1
*I *1207:A2 I *D gf180mcu_fd_sc_mcu7t5v0__oai22_1
*I *1191:ZN O *D gf180mcu_fd_sc_mcu7t5v0__clkinv_1
*CAP
1 *1363:A1 0
2 *1364:A1 0.000175083
3 *1208:A2 0.00010559
4 *1207:A2 0
5 *1191:ZN 0
6 *165:24 0.000302222
7 *165:6 0.000595052
8 *165:4 0.000616602
9 *1208:A2 *1207:A1 0.000350818
10 *1208:A2 *1209:A2 9.71964e-06
11 *1208:A2 *1225:B1 0.000192205
12 *1208:A2 *339:25 3.55118e-05
13 *1364:A1 *1220:A2 2.38064e-05
14 *1364:A1 *1363:A2 0.000169927
15 *1364:A1 *280:10 7.20334e-05
16 *165:6 *1207:B1 1.51153e-05
17 *165:6 *1209:A1 0.000164053
18 *165:6 *1209:A2 2.14748e-05
19 *165:6 *1212:A2 0.00357286
20 *165:6 *1220:A1 0.000483633
21 *165:6 *1225:B1 2.26729e-05
22 *165:6 *1397:I 0.000119182
23 *165:6 *180:6 0.000226494
24 *1443:RN *165:6 7.07199e-05
*RES
1 *1191:ZN *165:4 4.5 
2 *165:4 *165:6 9.81 
3 *165:6 *1207:A2 4.5 
4 *165:6 *1208:A2 6.12 
5 *165:4 *165:24 5.31 
6 *165:24 *1364:A1 10.8 
7 *165:24 *1363:A1 9 
*END

*D_NET *166 0.00144244
*CONN
*I *1360:A1 I *D gf180mcu_fd_sc_mcu7t5v0__nand2_1
*I *1207:B1 I *D gf180mcu_fd_sc_mcu7t5v0__oai22_1
*I *1192:ZN O *D gf180mcu_fd_sc_mcu7t5v0__clkinv_1
*CAP
1 *1360:A1 3.37448e-05
2 *1207:B1 0.000264974
3 *1192:ZN 9.2719e-05
4 *166:6 0.000391437
5 *1207:B1 *1207:B2 0
6 *1207:B1 *1209:A1 2.14748e-05
7 *1207:B1 *1209:A2 0.000293026
8 *1207:B1 *1212:B1 4.5615e-05
9 *1207:B1 *1213:B 9.84908e-05
10 *1207:B1 *1220:A1 0.000137519
11 *1360:A1 *1220:A1 3.22122e-05
12 *166:6 *381:18 1.61174e-05
13 *165:6 *1207:B1 1.51153e-05
*RES
1 *1192:ZN *166:6 5.31 
2 *166:6 *1207:B1 7.29 
3 *166:6 *1360:A1 4.95 
*END

*D_NET *167 0.000776111
*CONN
*I *1196:A1 I *D gf180mcu_fd_sc_mcu7t5v0__nand2_1
*I *1194:ZN O *D gf180mcu_fd_sc_mcu7t5v0__nor3_1
*CAP
1 *1196:A1 0.000119976
2 *1194:ZN 0.000119976
3 *1196:A1 *1196:A2 1.61174e-05
4 *1196:A1 *1197:A2 9.16087e-05
5 *1196:A1 *330:45 0.000428433
6 *152:25 *1196:A1 0
*RES
1 *1194:ZN *1196:A1 10.44 
*END

*D_NET *168 0.00237933
*CONN
*I *1196:A2 I *D gf180mcu_fd_sc_mcu7t5v0__nand2_1
*I *1195:ZN O *D gf180mcu_fd_sc_mcu7t5v0__nor4_1
*CAP
1 *1196:A2 0.000420495
2 *1195:ZN 0.000420495
3 *1196:A2 *1195:A1 8.69474e-05
4 *1196:A2 *305:70 0.000418993
5 *1196:A2 *305:83 0.000746443
6 *1196:A2 *330:41 7.39648e-05
7 *1196:A2 *330:45 2.99406e-05
8 *1196:A1 *1196:A2 1.61174e-05
9 *1455:D *1196:A2 2.08301e-05
10 *152:25 *1196:A2 0.000145104
*RES
1 *1195:ZN *1196:A2 13.86 
*END

*D_NET *169 0.000450462
*CONN
*I *1197:A2 I *D gf180mcu_fd_sc_mcu7t5v0__aoi21_1
*I *1196:ZN O *D gf180mcu_fd_sc_mcu7t5v0__nand2_1
*CAP
1 *1197:A2 0.000149143
2 *1196:ZN 0.000149143
3 *1197:A2 *1194:A2 5.97457e-06
4 *1197:A2 *1202:A2 4.45837e-05
5 *1197:A2 *328:27 0
6 *1196:A1 *1197:A2 9.16087e-05
7 *152:25 *1197:A2 1.00099e-05
*RES
1 *1196:ZN *1197:A2 10.26 
*END

*D_NET *170 0.0017753
*CONN
*I *1206:A1 I *D gf180mcu_fd_sc_mcu7t5v0__nor4_1
*I *1197:ZN O *D gf180mcu_fd_sc_mcu7t5v0__aoi21_1
*CAP
1 *1206:A1 0.000217872
2 *1197:ZN 0.000217872
3 *1206:A1 *1202:A2 0.000496921
4 *1206:A1 *1204:A1 0.000359262
5 *1206:A1 *1206:A2 3.01487e-05
6 *1206:A1 *179:16 9.84908e-05
7 *1201:A2 *1206:A1 0.000354738
*RES
1 *1197:ZN *1206:A1 12.78 
*END

*D_NET *171 0.000574769
*CONN
*I *1201:C I *D gf180mcu_fd_sc_mcu7t5v0__aoi221_1
*I *1198:Z O *D gf180mcu_fd_sc_mcu7t5v0__xor2_1
*CAP
1 *1201:C 0.000146231
2 *1198:Z 0.000146231
3 *1201:C *1197:B 0.00023712
4 *155:8 *1201:C 4.51877e-05
*RES
1 *1198:Z *1201:C 19.35 
*END

*D_NET *172 0.000828001
*CONN
*I *1200:C I *D gf180mcu_fd_sc_mcu7t5v0__oai221_1
*I *1199:ZN O *D gf180mcu_fd_sc_mcu7t5v0__aoi22_1
*CAP
1 *1200:C 0.000216442
2 *1199:ZN 0.000216442
3 *1200:C *1200:A1 1.19491e-05
4 *1200:C *1203:A2 7.86261e-05
5 *1200:C *370:16 0
6 *1199:B2 *1200:C 0.000291749
7 *135:10 *1200:C 1.27919e-05
*RES
1 *1199:ZN *1200:C 10.98 
*END

*D_NET *173 0.00238233
*CONN
*I *1206:A2 I *D gf180mcu_fd_sc_mcu7t5v0__nor4_1
*I *1200:ZN O *D gf180mcu_fd_sc_mcu7t5v0__oai221_1
*CAP
1 *1206:A2 0.000228408
2 *1200:ZN 0.000228408
3 *1206:A2 *1199:B1 8.54106e-06
4 *1206:A2 *1204:A1 0.000350612
5 *1206:A2 *1206:A4 0.000280447
6 *1206:A2 *1513:I 0
7 *1206:A2 *179:16 0.000288963
8 *1206:A2 *318:56 0.000624717
9 *1199:B2 *1206:A2 0.000284113
10 *1205:A1 *1206:A2 5.79737e-05
11 *1206:A1 *1206:A2 3.01487e-05
*RES
1 *1200:ZN *1206:A2 22.05 
*END

*D_NET *174 0.00217744
*CONN
*I *1204:A1 I *D gf180mcu_fd_sc_mcu7t5v0__nand2_1
*I *1201:ZN O *D gf180mcu_fd_sc_mcu7t5v0__aoi221_1
*CAP
1 *1204:A1 0.000424411
2 *1201:ZN 0.000424411
3 *1204:A1 *1194:A2 0.000258232
4 *1204:A1 *1203:A2 7.191e-07
5 *1204:A1 *1204:A2 4.6613e-06
6 *1204:A1 *1206:A3 0.000111463
7 *1204:A1 *179:16 5.5916e-05
8 *1200:B2 *1204:A1 2.09122e-05
9 *1201:A2 *1204:A1 0.000166843
10 *1206:A1 *1204:A1 0.000359262
11 *1206:A2 *1204:A1 0.000350612
*RES
1 *1201:ZN *1204:A1 14.4 
*END

*D_NET *175 0.000890336
*CONN
*I *1203:C I *D gf180mcu_fd_sc_mcu7t5v0__aoi221_1
*I *1202:Z O *D gf180mcu_fd_sc_mcu7t5v0__xor2_1
*CAP
1 *1203:C 0.000334259
2 *1202:Z 0.000334259
3 *1203:C *1161:I 4.5615e-05
4 *1203:C *1202:A2 0
5 *1203:C *1513:I 0
6 *1203:C *179:16 0.000117621
7 *135:10 *1203:C 5.85819e-05
*RES
1 *1202:Z *1203:C 11.88 
*END

*D_NET *176 0.000546128
*CONN
*I *1204:A2 I *D gf180mcu_fd_sc_mcu7t5v0__nand2_1
*I *1203:ZN O *D gf180mcu_fd_sc_mcu7t5v0__aoi221_1
*CAP
1 *1204:A2 0.000109645
2 *1203:ZN 0.000109645
3 *1204:A2 *1206:A3 1.07374e-05
4 *1204:A2 *179:16 2.50523e-05
5 *1200:B2 *1204:A2 0.000286386
6 *1204:A1 *1204:A2 4.6613e-06
*RES
1 *1203:ZN *1204:A2 10.08 
*END

*D_NET *177 0.000492497
*CONN
*I *1206:A3 I *D gf180mcu_fd_sc_mcu7t5v0__nor4_1
*I *1204:ZN O *D gf180mcu_fd_sc_mcu7t5v0__nand2_1
*CAP
1 *1206:A3 7.81696e-05
2 *1204:ZN 7.81696e-05
3 *1206:A3 *1206:A4 0.000213957
4 *1204:A1 *1206:A3 0.000111463
5 *1204:A2 *1206:A3 1.07374e-05
*RES
1 *1204:ZN *1206:A3 9.9 
*END

*D_NET *178 0.00110159
*CONN
*I *1206:A4 I *D gf180mcu_fd_sc_mcu7t5v0__nor4_1
*I *1205:ZN O *D gf180mcu_fd_sc_mcu7t5v0__oai222_1
*CAP
1 *1206:A4 0.000180035
2 *1205:ZN 0.000180035
3 *1206:A4 *1194:A2 3.55118e-05
4 *1206:A4 *318:56 0.000148722
5 *1206:A4 *328:34 2.96708e-05
6 *1205:A1 *1206:A4 3.32109e-05
7 *1206:A2 *1206:A4 0.000280447
8 *1206:A3 *1206:A4 0.000213957
*RES
1 *1205:ZN *1206:A4 19.8 
*END

*D_NET *179 0.00788919
*CONN
*I *1235:A1 I *D gf180mcu_fd_sc_mcu7t5v0__nor3_1
*I *1233:A1 I *D gf180mcu_fd_sc_mcu7t5v0__nor3_1
*I *1538:I I *D gf180mcu_fd_sc_mcu7t5v0__clkbuf_2
*I *1231:A1 I *D gf180mcu_fd_sc_mcu7t5v0__nor4_1
*I *1206:ZN O *D gf180mcu_fd_sc_mcu7t5v0__nor4_1
*CAP
1 *1235:A1 0.000172311
2 *1233:A1 0.000302441
3 *1538:I 0
4 *1231:A1 0.000592755
5 *1206:ZN 0.000404718
6 *179:38 0.000912454
7 *179:18 0.000871352
8 *179:16 0.00112102
9 *1231:A1 *1231:A2 0.00040142
10 *1231:A1 *302:10 0
11 *1231:A1 *325:27 9.6931e-05
12 *1231:A1 *372:36 0
13 *1233:A1 *1233:A2 0.000103168
14 *1233:A1 *1235:A2 4.76544e-05
15 *1233:A1 *300:25 0.000130877
16 *1233:A1 *370:16 5.90775e-05
17 *1235:A1 *1235:A2 0.000246513
18 *1235:A1 *1235:A3 5.05815e-05
19 *1235:A1 *325:27 5.61609e-05
20 *179:16 *1202:A2 0.000637079
21 *179:18 *1203:B1 0
22 *179:18 *325:27 0.000142428
23 *179:38 *1203:A2 0
24 *179:38 *1203:B1 0
25 *179:38 *1235:A3 1.91657e-05
26 *179:38 *1513:I 0
27 *179:38 *325:27 0.000271969
28 *1203:A1 *179:16 0
29 *1203:B2 *179:16 0.000294166
30 *1203:C *179:16 0.000117621
31 *1204:A1 *179:16 5.5916e-05
32 *1204:A2 *179:16 2.50523e-05
33 *1206:A1 *179:16 9.84908e-05
34 *1206:A2 *179:16 0.000288963
35 *1234:A1 *179:38 0.000246336
36 *1484:D *1235:A1 0.000114608
37 *1485:D *1233:A1 7.96333e-06
38 *135:10 *179:16 0
*RES
1 *1206:ZN *179:16 14.13 
2 *179:16 *179:18 2.25 
3 *179:18 *1231:A1 13.86 
4 *179:18 *1538:I 9 
5 *179:16 *179:38 4.23 
6 *179:38 *1233:A1 11.61 
7 *179:38 *1235:A1 10.89 
*END

*D_NET *180 0.00208932
*CONN
*I *1209:A1 I *D gf180mcu_fd_sc_mcu7t5v0__and2_1
*I *1213:C I *D gf180mcu_fd_sc_mcu7t5v0__aoi211_1
*I *1207:ZN O *D gf180mcu_fd_sc_mcu7t5v0__oai22_1
*CAP
1 *1209:A1 1.47012e-05
2 *1213:C 0.000338322
3 *1207:ZN 3.41376e-05
4 *180:6 0.00038716
5 *1209:A1 *1209:A2 2.76752e-05
6 *1213:C *1212:A2 3.45237e-05
7 *1213:C *1212:B1 0.000122672
8 *1213:C *1213:B 0.00027267
9 *1213:C *1220:A2 0.000304602
10 *1213:C *379:12 5.03972e-05
11 *180:6 *1209:A2 9.04376e-05
12 *1207:B1 *1209:A1 2.14748e-05
13 *165:6 *1209:A1 0.000164053
14 *165:6 *180:6 0.000226494
*RES
1 *1207:ZN *180:6 5.13 
2 *180:6 *1213:C 17.01 
3 *180:6 *1209:A1 4.95 
*END

*D_NET *181 0.00123581
*CONN
*I *1209:A2 I *D gf180mcu_fd_sc_mcu7t5v0__and2_1
*I *1208:ZN O *D gf180mcu_fd_sc_mcu7t5v0__nand2_1
*CAP
1 *1209:A2 0.000200527
2 *1208:ZN 0.000200527
3 *1209:A2 *1207:A1 9.93368e-05
4 *1209:A2 *1212:A2 0.000244736
5 *1209:A2 *1213:B 4.83522e-05
6 *1207:B1 *1209:A2 0.000293026
7 *1208:A2 *1209:A2 9.71964e-06
8 *1209:A1 *1209:A2 2.76752e-05
9 *165:6 *1209:A2 2.14748e-05
10 *180:6 *1209:A2 9.04376e-05
*RES
1 *1208:ZN *1209:A2 11.43 
*END

*D_NET *182 0.00796605
*CONN
*I *1220:A1 I *D gf180mcu_fd_sc_mcu7t5v0__oai211_1
*I *1209:Z O *D gf180mcu_fd_sc_mcu7t5v0__and2_1
*CAP
1 *1220:A1 0.00131626
2 *1209:Z 0.00131626
3 *1220:A1 *1212:A2 1.27919e-05
4 *1220:A1 *1212:B1 0
5 *1220:A1 *1220:A2 0.000465413
6 *1220:A1 *1220:B 3.55118e-05
7 *1220:A1 *1225:A2 1.19491e-05
8 *1220:A1 *1225:B1 0
9 *1220:A1 *1361:A2 0.00171305
10 *1220:A1 *1397:I 3.22348e-05
11 *1220:A1 *1534:I 0.000434615
12 *1220:A1 *283:12 0.00124375
13 *1220:A1 *381:18 0
14 *1220:A1 *382:8 5.30888e-06
15 *1207:B1 *1220:A1 0.000137519
16 *1360:A1 *1220:A1 3.22122e-05
17 *1443:RN *1220:A1 0.000494094
18 *1444:RN *1220:A1 0.000231442
19 *165:6 *1220:A1 0.000483633
*RES
1 *1209:Z *1220:A1 25.56 
*END

*D_NET *183 0.000858652
*CONN
*I *1213:A1 I *D gf180mcu_fd_sc_mcu7t5v0__aoi211_1
*I *1210:ZN O *D gf180mcu_fd_sc_mcu7t5v0__nand2_1
*CAP
1 *1213:A1 0.000152838
2 *1210:ZN 0.000152838
3 *1213:A1 *1207:B2 0
4 *1213:A1 *1210:A2 2.08301e-05
5 *1213:A1 *1212:B1 3.81737e-05
6 *1213:A1 *1213:A2 0.000132459
7 *1213:A1 *1220:A2 0.000106536
8 *1210:A1 *1213:A1 0.000252323
9 *1212:B2 *1213:A1 2.65444e-06
*RES
1 *1210:ZN *1213:A1 10.8 
*END

*D_NET *184 0.000886357
*CONN
*I *1213:A2 I *D gf180mcu_fd_sc_mcu7t5v0__aoi211_1
*I *1211:ZN O *D gf180mcu_fd_sc_mcu7t5v0__oai22_1
*CAP
1 *1213:A2 0.000263077
2 *1211:ZN 0.000263077
3 *1213:A2 *1211:B1 0
4 *1213:A2 *380:25 5.01855e-05
5 *1210:A1 *1213:A2 0.000177559
6 *1211:A1 *1213:A2 0
7 *1213:A1 *1213:A2 0.000132459
*RES
1 *1211:ZN *1213:A2 11.52 
*END

*D_NET *185 0.00130127
*CONN
*I *1213:B I *D gf180mcu_fd_sc_mcu7t5v0__aoi211_1
*I *1212:ZN O *D gf180mcu_fd_sc_mcu7t5v0__oai22_1
*CAP
1 *1213:B 0.000209659
2 *1212:ZN 0.000209659
3 *1213:B *1207:B2 0.00015997
4 *1213:B *1212:A2 0.000302466
5 *1213:B *1212:B1 0
6 *1207:B1 *1213:B 9.84908e-05
7 *1209:A2 *1213:B 4.83522e-05
8 *1213:C *1213:B 0.00027267
*RES
1 *1212:ZN *1213:B 20.88 
*END

*D_NET *186 0.00747342
*CONN
*I *1220:A2 I *D gf180mcu_fd_sc_mcu7t5v0__oai211_1
*I *1213:ZN O *D gf180mcu_fd_sc_mcu7t5v0__aoi211_1
*CAP
1 *1220:A2 0.00174067
2 *1213:ZN 0.00174067
3 *1220:A2 *1212:B1 0.00020358
4 *1220:A2 *1225:A2 1.07374e-05
5 *1220:A2 *1356:A1 0.000240538
6 *1220:A2 *1359:A2 9.20698e-05
7 *1220:A2 *1360:A2 0.000154571
8 *1220:A2 *1361:A2 0.000684069
9 *1220:A2 *1365:A4 0
10 *1220:A2 *1534:I 0.000559954
11 *1220:A2 *280:6 7.17427e-05
12 *1220:A2 *280:10 5.45276e-05
13 *1220:A2 *283:12 0.000524433
14 *1220:A2 *283:35 2.65444e-06
15 *1220:A2 *326:12 3.94638e-05
16 *1220:A2 *326:78 7.92329e-05
17 *1220:A2 *379:12 0.000103075
18 *1220:A2 *380:25 0
19 *1220:A2 *381:12 0.000146681
20 *1220:A2 *381:18 0.000124393
21 *1213:A1 *1220:A2 0.000106536
22 *1213:C *1220:A2 0.000304602
23 *1220:A1 *1220:A2 0.000465413
24 *1364:A1 *1220:A2 2.38064e-05
*RES
1 *1213:ZN *1220:A2 36.45 
*END

*D_NET *187 0.000849235
*CONN
*I *1216:A1 I *D gf180mcu_fd_sc_mcu7t5v0__and2_1
*I *1221:B I *D gf180mcu_fd_sc_mcu7t5v0__oai21_1
*I *1214:ZN O *D gf180mcu_fd_sc_mcu7t5v0__aoi22_1
*CAP
1 *1216:A1 0.000117796
2 *1221:B 0.000211145
3 *1214:ZN 9.33494e-05
4 *1216:A1 *1216:A2 0.00015997
5 *1216:A1 *1219:A1 2.14748e-05
6 *1221:B *1216:A2 1.61174e-05
7 *1221:B *1217:A2 0.000223407
8 *1221:B *385:45 5.97457e-06
*RES
1 *1214:ZN *1221:B 9.9 
2 *1221:B *1216:A1 10.17 
*END

*D_NET *188 0.00331955
*CONN
*I *1216:A2 I *D gf180mcu_fd_sc_mcu7t5v0__and2_1
*I *1221:A1 I *D gf180mcu_fd_sc_mcu7t5v0__oai21_1
*I *1215:ZN O *D gf180mcu_fd_sc_mcu7t5v0__aoi22_1
*CAP
1 *1216:A2 0.000106511
2 *1221:A1 0
3 *1215:ZN 0.000684507
4 *188:18 0.000791018
5 *1216:A2 *1219:A1 0.000148338
6 *1216:A2 *1221:A2 2.31089e-05
7 *1216:A2 *385:45 0
8 *188:18 *1217:A2 1.46975e-05
9 *188:18 *1218:B1 0
10 *188:18 *1219:A2 0
11 *188:18 *1225:A2 1.58239e-05
12 *188:18 *1294:A1 0.000204502
13 *188:18 *283:35 0
14 *1214:A1 *188:18 0.00014932
15 *1214:B2 *188:18 0.000182035
16 *1215:A1 *188:18 0.0005174
17 *1216:A1 *1216:A2 0.00015997
18 *1217:B2 *188:18 2.11204e-05
19 *1218:B2 *188:18 2.11238e-05
20 *1221:B *1216:A2 1.61174e-05
21 *143:8 *188:18 3.26385e-05
22 *143:12 *188:18 0.000231314
*RES
1 *1215:ZN *188:18 28.35 
2 *188:18 *1221:A1 4.5 
3 *188:18 *1216:A2 5.76 
*END

*D_NET *189 0.00186367
*CONN
*I *1220:B I *D gf180mcu_fd_sc_mcu7t5v0__oai211_1
*I *1216:Z O *D gf180mcu_fd_sc_mcu7t5v0__and2_1
*CAP
1 *1220:B 0.000311238
2 *1216:Z 0.000311238
3 *1220:B *1219:A1 0.000249366
4 *1220:B *1219:A2 0.000135293
5 *1220:B *1220:C 0.000704801
6 *1220:B *1225:A1 3.46245e-05
7 *1220:B *1225:A2 8.15974e-05
8 *1220:A1 *1220:B 3.55118e-05
*RES
1 *1216:Z *1220:B 12.96 
*END

*D_NET *190 0.00177937
*CONN
*I *1221:A2 I *D gf180mcu_fd_sc_mcu7t5v0__oai21_1
*I *1219:A1 I *D gf180mcu_fd_sc_mcu7t5v0__nor2_1
*I *1217:ZN O *D gf180mcu_fd_sc_mcu7t5v0__oai22_1
*CAP
1 *1221:A2 2.74637e-05
2 *1219:A1 0.000248
3 *1217:ZN 5.86289e-05
4 *190:10 0.000334093
5 *1219:A1 *1219:A2 0.000248874
6 *190:10 *1217:A2 8.76503e-05
7 *190:10 *1219:A2 0.000308703
8 *1214:B2 *1221:A2 2.65444e-06
9 *1214:B2 *190:10 1.13574e-05
10 *1216:A1 *1219:A1 2.14748e-05
11 *1216:A2 *1219:A1 0.000148338
12 *1216:A2 *1221:A2 2.31089e-05
13 *1220:B *1219:A1 0.000249366
14 *144:25 *1219:A1 4.34467e-06
15 *144:25 *1221:A2 5.30888e-06
*RES
1 *1217:ZN *190:10 14.49 
2 *190:10 *1219:A1 7.11 
3 *190:10 *1221:A2 4.77 
*END

*D_NET *191 0.00305388
*CONN
*I *1219:A2 I *D gf180mcu_fd_sc_mcu7t5v0__nor2_1
*I *1218:ZN O *D gf180mcu_fd_sc_mcu7t5v0__oai22_1
*CAP
1 *1219:A2 0.000549921
2 *1218:ZN 0.000549921
3 *1219:A2 *1217:B1 0.000258547
4 *1219:A2 *1225:A2 0.000177631
5 *1219:A2 *326:78 0.000220768
6 *1214:B2 *1219:A2 0.000272409
7 *1218:A1 *1219:A2 0.000294431
8 *1219:A1 *1219:A2 0.000248874
9 *1220:B *1219:A2 0.000135293
10 *144:25 *1219:A2 3.73807e-05
11 *188:18 *1219:A2 0
12 *190:10 *1219:A2 0.000308703
*RES
1 *1218:ZN *1219:A2 24.39 
*END

*D_NET *192 0.00107779
*CONN
*I *1220:C I *D gf180mcu_fd_sc_mcu7t5v0__oai211_1
*I *1219:ZN O *D gf180mcu_fd_sc_mcu7t5v0__nor2_1
*CAP
1 *1220:C 0.000186495
2 *1219:ZN 0.000186495
3 *1220:B *1220:C 0.000704801
*RES
1 *1219:ZN *1220:C 11.07 
*END

*D_NET *193 0.000792005
*CONN
*I *1225:A1 I *D gf180mcu_fd_sc_mcu7t5v0__aoi22_1
*I *1220:ZN O *D gf180mcu_fd_sc_mcu7t5v0__oai211_1
*CAP
1 *1225:A1 0.000236255
2 *1220:ZN 0.000236255
3 *1225:A1 *1225:A2 1.31271e-05
4 *1225:A1 *1534:I 0
5 *1225:A1 *283:35 0.000100105
6 *1225:A1 *326:78 0.000171639
7 *1220:B *1225:A1 3.46245e-05
*RES
1 *1220:ZN *1225:A1 19.71 
*END

*D_NET *194 0.00162103
*CONN
*I *1222:B I *D gf180mcu_fd_sc_mcu7t5v0__oai21_1
*I *1221:ZN O *D gf180mcu_fd_sc_mcu7t5v0__oai21_1
*CAP
1 *1222:B 0.000176167
2 *1221:ZN 0.000176167
3 *1222:B *1217:A2 0.000286386
4 *1222:B *1225:A2 3.10784e-05
5 *1222:B *385:45 0.000401004
6 *1214:B2 *1222:B 0.000156008
7 *1222:A1 *1222:B 0.000394221
*RES
1 *1221:ZN *1222:B 12.06 
*END

*D_NET *195 0.00395148
*CONN
*I *1225:A2 I *D gf180mcu_fd_sc_mcu7t5v0__aoi22_1
*I *1222:ZN O *D gf180mcu_fd_sc_mcu7t5v0__oai21_1
*CAP
1 *1225:A2 0.000819092
2 *1222:ZN 0.000819092
3 *1225:A2 *1217:A2 0.000173539
4 *1225:A2 *1222:A2 0
5 *1225:A2 *283:35 0.000200271
6 *1225:A2 *326:78 0.00124498
7 *1214:B2 *1225:A2 0.000227808
8 *1219:A2 *1225:A2 0.000177631
9 *1220:A1 *1225:A2 1.19491e-05
10 *1220:A2 *1225:A2 1.07374e-05
11 *1220:B *1225:A2 8.15974e-05
12 *1222:A1 *1225:A2 0.000124757
13 *1222:B *1225:A2 3.10784e-05
14 *1225:A1 *1225:A2 1.31271e-05
15 *188:18 *1225:A2 1.58239e-05
*RES
1 *1222:ZN *1225:A2 35.55 
*END

*D_NET *196 0.00926202
*CONN
*I *1225:B1 I *D gf180mcu_fd_sc_mcu7t5v0__aoi22_1
*I *1223:ZN O *D gf180mcu_fd_sc_mcu7t5v0__nor4_1
*CAP
1 *1225:B1 0.0028079
2 *1223:ZN 0.0028079
3 *1225:B1 *1212:A2 0.000980185
4 *1225:B1 *1534:I 2.72931e-05
5 *1225:B1 *199:76 0
6 *1225:B1 *283:35 0.00084548
7 *1225:B1 *339:12 0.000261161
8 *1225:B1 *339:25 0.00025903
9 *1225:B1 *382:8 0.000444513
10 *1208:A2 *1225:B1 0.000192205
11 *1220:A1 *1225:B1 0
12 *1297:A1 *1225:B1 3.01487e-05
13 *1444:RN *1225:B1 0
14 *1505:I *1225:B1 0.000583531
15 *165:6 *1225:B1 2.26729e-05
*RES
1 *1223:ZN *1225:B1 43.47 
*END

*D_NET *197 0.000164506
*CONN
*I *1225:B2 I *D gf180mcu_fd_sc_mcu7t5v0__aoi22_1
*I *1224:ZN O *D gf180mcu_fd_sc_mcu7t5v0__nor4_1
*CAP
1 *1225:B2 6.73164e-05
2 *1224:ZN 6.73164e-05
3 *1225:B2 *1170:I 2.98728e-05
*RES
1 *1224:ZN *1225:B2 9.63 
*END

*D_NET *198 0.00189587
*CONN
*I *1534:I I *D gf180mcu_fd_sc_mcu7t5v0__dlyb_1
*I *1225:ZN O *D gf180mcu_fd_sc_mcu7t5v0__aoi22_1
*CAP
1 *1534:I 0.000327929
2 *1225:ZN 0.000327929
3 *1534:I *283:35 0.000111618
4 *1534:I *326:78 0.000106536
5 *1220:A1 *1534:I 0.000434615
6 *1220:A2 *1534:I 0.000559954
7 *1225:A1 *1534:I 0
8 *1225:B1 *1534:I 2.72931e-05
*RES
1 *1225:ZN *1534:I 21.87 
*END

*D_NET *199 0.0266489
*CONN
*I *1374:A2 I *D gf180mcu_fd_sc_mcu7t5v0__nor3_1
*I *1376:A2 I *D gf180mcu_fd_sc_mcu7t5v0__nor3_1
*I *1365:A2 I *D gf180mcu_fd_sc_mcu7t5v0__nor4_1
*I *1362:A2 I *D gf180mcu_fd_sc_mcu7t5v0__nor3_1
*I *1358:A2 I *D gf180mcu_fd_sc_mcu7t5v0__nor3_1
*I *1355:A3 I *D gf180mcu_fd_sc_mcu7t5v0__nor3_1
*I *1368:A2 I *D gf180mcu_fd_sc_mcu7t5v0__nor4_1
*I *1371:A2 I *D gf180mcu_fd_sc_mcu7t5v0__nor3_1
*I *1227:A2 I *D gf180mcu_fd_sc_mcu7t5v0__nand2_1
*I *1234:A2 I *D gf180mcu_fd_sc_mcu7t5v0__xor2_1
*I *1226:Z O *D gf180mcu_fd_sc_mcu7t5v0__and2_1
*CAP
1 *1374:A2 3.44897e-05
2 *1376:A2 0
3 *1365:A2 0
4 *1362:A2 0
5 *1358:A2 0
6 *1355:A3 0.000318023
7 *1368:A2 0.0001094
8 *1371:A2 0
9 *1227:A2 0.00040644
10 *1234:A2 0.000312465
11 *1226:Z 3.44897e-05
12 *199:86 0.000868868
13 *199:78 0.000938865
14 *199:76 0.00177587
15 *199:53 0.002331
16 *199:47 0.000964137
17 *199:45 0.000700069
18 *199:32 0.00087007
19 *199:17 0.000967455
20 *199:6 0.000573091
21 *1227:A2 *1227:A1 0.000260328
22 *1227:A2 *1232:A1 0.000294421
23 *1234:A2 *1161:I 9.57249e-05
24 *1234:A2 *1228:A2 8.69576e-05
25 *1234:A2 *1513:I 8.85261e-05
26 *1234:A2 *1519:I 0.000183662
27 *1234:A2 *370:16 0.00183367
28 *1355:A3 *1355:A1 5.79557e-05
29 *1355:A3 *1355:A2 0.000664126
30 *1355:A3 *1358:A3 0.000372037
31 *1355:A3 *1426:I 4.21768e-05
32 *1355:A3 *1471:CLK 0
33 *1355:A3 *1522:I 0.000106536
34 *1355:A3 *296:6 0
35 *1355:A3 *296:19 0
36 *1355:A3 *306:119 0.000905787
37 *1368:A2 *1368:A1 1.0415e-05
38 *1368:A2 *1418:I 3.44834e-06
39 *1368:A2 *1445:CLK 1.68677e-06
40 *1368:A2 *317:90 3.01487e-05
41 *199:6 *1228:A2 0
42 *199:17 *300:31 0.00012775
43 *199:17 *369:8 4.22217e-05
44 *199:17 *369:12 0.000173829
45 *199:17 *370:8 0
46 *199:17 *370:12 0
47 *199:32 *369:8 0.000493797
48 *199:32 *370:8 0
49 *199:45 *1370:A1 0
50 *199:45 *1370:A2 8.3538e-05
51 *199:45 *1374:A3 8.69474e-05
52 *199:45 *369:8 0.000130361
53 *199:45 *370:8 0
54 *199:47 *1374:A1 0.000880982
55 *199:47 *1376:A3 0.00037349
56 *199:47 *285:27 0
57 *199:47 *326:95 3.12627e-05
58 *199:53 *1368:A1 1.38253e-05
59 *199:53 *1368:A3 0.00037349
60 *199:53 *1368:A4 2.26729e-05
61 *199:53 *285:10 9.34006e-05
62 *199:53 *325:23 0
63 *199:53 *326:95 0.000137492
64 *199:53 *383:14 3.98244e-05
65 *199:53 *383:20 1.86887e-06
66 *199:76 *1171:I 0.000117534
67 *199:76 *1224:A1 0.00048874
68 *199:76 *1224:A2 0.000392953
69 *199:76 *1224:A4 9.86349e-05
70 *199:76 *1365:A3 5.8316e-05
71 *199:76 *1530:I 0.00059859
72 *199:76 *283:35 0
73 *199:76 *317:66 2.782e-05
74 *199:76 *317:90 5.3289e-05
75 *199:76 *341:25 0.000195241
76 *199:76 *383:20 0.000231042
77 *199:78 *1365:A3 1.61174e-05
78 *199:78 *1365:A4 0.000219834
79 *199:78 *280:10 0.000125562
80 *199:78 *326:12 2.40933e-06
81 *199:78 *326:14 0.000778267
82 *199:78 *341:25 0
83 *199:86 *1397:I 0.00050188
84 *199:86 *280:6 2.3037e-05
85 *199:86 *280:10 4.1822e-05
86 *199:86 *314:25 0.00016201
87 *199:86 *326:14 1.0415e-05
88 *199:86 *326:22 0
89 *1215:B2 *199:76 0.000142047
90 *1225:B1 *199:76 0
91 *1297:A1 *199:76 0
92 *1301:A1 *199:76 0
93 *1443:D *199:86 2.56915e-05
94 *1444:D *199:76 7.55765e-06
95 *1446:RN *199:45 2.32439e-05
96 *1446:RN *199:47 6.317e-05
97 *1447:D *199:45 2.37622e-05
98 *1448:D *199:53 6.57682e-05
99 *1464:SETN *199:76 0.00107052
100 *146:10 *199:76 0
101 *146:23 *199:76 0.00173451
*RES
1 *1226:Z *199:6 4.77 
2 *199:6 *1234:A2 9.45 
3 *199:6 *199:17 6.57 
4 *199:17 *1227:A2 12.33 
5 *199:17 *199:32 4.05 
6 *199:32 *1371:A2 9 
7 *199:32 *199:45 9 
8 *199:45 *199:47 2.61 
9 *199:47 *199:53 7.11 
10 *199:53 *1368:A2 5.4 
11 *199:53 *199:76 25.83 
12 *199:76 *199:78 5.13 
13 *199:78 *199:86 14.4 
14 *199:86 *1355:A3 18.45 
15 *199:86 *1358:A2 4.5 
16 *199:78 *1362:A2 4.5 
17 *199:76 *1365:A2 4.5 
18 *199:47 *1376:A2 4.5 
19 *199:45 *1374:A2 4.77 
*END

*D_NET *200 0.00137168
*CONN
*I *1232:A2 I *D gf180mcu_fd_sc_mcu7t5v0__xor2_1
*I *1227:ZN O *D gf180mcu_fd_sc_mcu7t5v0__nand2_1
*CAP
1 *1232:A2 0.000226226
2 *1227:ZN 0.000226226
3 *1232:A2 *1227:A1 0.0001987
4 *1232:A2 *1485:CLK 0.000121587
5 *1232:A2 *300:27 2.30981e-05
6 *1485:D *1232:A2 0.000575844
*RES
1 *1227:ZN *1232:A2 11.79 
*END

*D_NET *201 0.00476514
*CONN
*I *1230:A2 I *D gf180mcu_fd_sc_mcu7t5v0__and2_1
*I *1229:A2 I *D gf180mcu_fd_sc_mcu7t5v0__nor2_1
*I *1324:A3 I *D gf180mcu_fd_sc_mcu7t5v0__nor3_1
*I *1228:ZN O *D gf180mcu_fd_sc_mcu7t5v0__nand4_1
*CAP
1 *1230:A2 0
2 *1229:A2 0
3 *1324:A3 0.000190344
4 *1228:ZN 0.000385062
5 *201:14 0.000484319
6 *201:8 0.000679038
7 *1324:A3 *1231:A2 1.03692e-05
8 *1324:A3 *1231:A4 5.56207e-05
9 *1324:A3 *1480:CLK 4.83522e-05
10 *1324:A3 *202:8 0.00045591
11 *201:8 *1228:A3 7.772e-05
12 *201:8 *1389:I 0.0008099
13 *201:8 *300:31 0
14 *201:8 *300:33 0
15 *201:8 *377:10 8.92778e-05
16 *201:8 *377:16 0.000857574
17 *201:14 *1388:I 0
18 *201:14 *1480:CLK 0.000192205
19 *201:14 *300:33 0
20 *201:14 *377:10 9.6931e-05
21 *1229:A1 *1324:A3 6.44696e-05
22 *1324:A2 *1324:A3 0.00020487
23 *1480:D *201:14 6.31783e-05
*RES
1 *1228:ZN *201:8 15.21 
2 *201:8 *201:14 7.38 
3 *201:14 *1324:A3 7.29 
4 *201:14 *1229:A2 4.5 
5 *201:8 *1230:A2 9 
*END

*D_NET *202 0.00171381
*CONN
*I *1231:A3 I *D gf180mcu_fd_sc_mcu7t5v0__nor4_1
*I *1336:A2 I *D gf180mcu_fd_sc_mcu7t5v0__nor2_1
*I *1229:ZN O *D gf180mcu_fd_sc_mcu7t5v0__nor2_1
*CAP
1 *1231:A3 8.62285e-05
2 *1336:A2 0.000201739
3 *1229:ZN 3.84631e-05
4 *202:8 0.000326431
5 *1231:A3 *372:23 0
6 *1231:A3 *372:36 0
7 *1336:A2 *1336:A1 0
8 *1336:A2 *259:10 0
9 *1336:A2 *372:23 0
10 *202:8 *372:10 2.6147e-05
11 *1229:A1 *202:8 0.000294431
12 *1324:A1 *1336:A2 9.08505e-05
13 *1324:A3 *202:8 0.00045591
14 *1480:D *1336:A2 0
15 *134:10 *1231:A3 0.000169917
16 *134:10 *1336:A2 2.36954e-05
*RES
1 *1229:ZN *202:8 10.17 
2 *202:8 *1336:A2 10.53 
3 *202:8 *1231:A3 9.99 
*END

*D_NET *203 0.000788708
*CONN
*I *1231:A4 I *D gf180mcu_fd_sc_mcu7t5v0__nor4_1
*I *1230:Z O *D gf180mcu_fd_sc_mcu7t5v0__and2_1
*CAP
1 *1231:A4 0.000232596
2 *1230:Z 0.000232596
3 *1231:A4 *1480:CLK 0.000151427
4 *1230:A1 *1231:A4 0.000116467
5 *1324:A3 *1231:A4 5.56207e-05
*RES
1 *1230:Z *1231:A4 11.16 
*END

*D_NET *204 0.00137471
*CONN
*I *1233:A3 I *D gf180mcu_fd_sc_mcu7t5v0__nor3_1
*I *1232:Z O *D gf180mcu_fd_sc_mcu7t5v0__xor2_1
*CAP
1 *1233:A3 0.00030042
2 *1232:Z 0.00030042
3 *1233:A3 *1227:A1 0.000107798
4 *1233:A3 *300:25 0
5 *1484:D *1233:A3 0.000515537
6 *1485:D *1233:A3 0.000150531
*RES
1 *1232:Z *1233:A3 12.06 
*END

*D_NET *205 0.000335022
*CONN
*I *1235:A3 I *D gf180mcu_fd_sc_mcu7t5v0__nor3_1
*I *1234:Z O *D gf180mcu_fd_sc_mcu7t5v0__xor2_1
*CAP
1 *1235:A3 9.95447e-05
2 *1234:Z 9.95447e-05
3 *1235:A3 *1235:A2 1.17725e-05
4 *1235:A3 *1513:I 2.22008e-05
5 *1235:A3 *370:16 3.22122e-05
6 *1235:A1 *1235:A3 5.05815e-05
7 *179:38 *1235:A3 1.91657e-05
*RES
1 *1234:Z *1235:A3 19.08 
*END

*D_NET *206 0.00468508
*CONN
*I *1344:A1 I *D gf180mcu_fd_sc_mcu7t5v0__nor2_1
*I *1242:A1 I *D gf180mcu_fd_sc_mcu7t5v0__nand2_1
*I *1338:A2 I *D gf180mcu_fd_sc_mcu7t5v0__nand2_1
*I *1236:ZN O *D gf180mcu_fd_sc_mcu7t5v0__nor2_1
*CAP
1 *1344:A1 3.44897e-05
2 *1242:A1 0
3 *1338:A2 0.000555068
4 *1236:ZN 0.000242413
5 *206:8 0.000605329
6 *206:6 0.000327164
7 *1338:A2 *211:10 0.000109899
8 *1338:A2 *211:16 1.86249e-05
9 *1338:A2 *319:30 0.000677064
10 *1338:A2 *363:35 0.000146193
11 *1338:A2 *366:35 0
12 *206:6 *1237:A3 8.69576e-05
13 *206:6 *1270:A2 3.08015e-05
14 *206:6 *211:16 9.73726e-05
15 *206:6 *231:29 0.00100964
16 *206:6 *319:30 0.00015306
17 *206:8 *1242:A2 0.000215362
18 *206:8 *1270:A2 2.09122e-05
19 *206:8 *231:29 0.000354728
20 *1493:RN *1338:A2 0
*RES
1 *1236:ZN *206:6 8.01 
2 *206:6 *206:8 0.99 
3 *206:8 *1338:A2 19.08 
4 *206:8 *1242:A1 4.5 
5 *206:6 *1344:A1 4.77 
*END

*D_NET *207 0.00602373
*CONN
*I *1345:A2 I *D gf180mcu_fd_sc_mcu7t5v0__and2_1
*I *1273:A2 I *D gf180mcu_fd_sc_mcu7t5v0__nand2_1
*I *1347:A1 I *D gf180mcu_fd_sc_mcu7t5v0__oai21_1
*I *1237:ZN O *D gf180mcu_fd_sc_mcu7t5v0__nor3_1
*CAP
1 *1345:A2 0.000352369
2 *1273:A2 0
3 *1347:A1 2.35786e-05
4 *1237:ZN 0.000393463
5 *207:25 0.000917799
6 *207:10 0.000982472
7 *1345:A2 *1345:A1 0.000280356
8 *1345:A2 *237:8 6.0284e-05
9 *1345:A2 *270:22 0
10 *1345:A2 *310:88 0
11 *1347:A1 *1348:A2 3.01487e-05
12 *1347:A1 *1353:A2 9.04462e-05
13 *1347:A1 *1353:B1 1.0415e-05
14 *1347:A1 *270:22 7.191e-07
15 *207:10 *1353:A2 0
16 *207:10 *235:18 0.00101147
17 *207:10 *269:34 0
18 *207:10 *271:19 0.0011998
19 *207:10 *319:30 0.000482101
20 *207:10 *366:35 0
21 *207:25 *1384:I 3.01487e-05
22 *207:25 *1469:CLK 1.27836e-05
23 *207:25 *270:22 0
24 *207:25 *271:19 0.000121481
25 *207:25 *362:10 0
26 *207:25 *362:12 0
27 *207:25 *362:14 0
28 *1492:RN *1345:A2 0
29 *1494:RN *207:25 2.38983e-05
*RES
1 *1237:ZN *207:10 14.58 
2 *207:10 *1347:A1 9.27 
3 *207:10 *207:25 8.46 
4 *207:25 *1273:A2 4.5 
5 *207:25 *1345:A2 7.56 
*END

*D_NET *208 0.00631561
*CONN
*I *1350:A1 I *D gf180mcu_fd_sc_mcu7t5v0__nor2_1
*I *1249:B I *D gf180mcu_fd_sc_mcu7t5v0__oai31_1
*I *1238:Z O *D gf180mcu_fd_sc_mcu7t5v0__or3_1
*CAP
1 *1350:A1 0.000279324
2 *1249:B 0.000453733
3 *1238:Z 0.000153095
4 *208:8 0.000886151
5 *1249:B *1243:A1 0.000220609
6 *1249:B *1272:A2 0.00181395
7 *1249:B *1502:D 8.12023e-06
8 *1249:B *1504:CLK 0.000616481
9 *1350:A1 *1272:A2 0.000171249
10 *1350:A1 *327:67 7.20334e-05
11 *1238:A2 *1350:A1 5.36871e-05
12 *1243:A2 *1249:B 0.000924538
13 *1537:I *1249:B 0.000436469
14 *158:6 *1249:B 0.000199175
15 *158:6 *1350:A1 2.69913e-05
*RES
1 *1238:Z *208:8 5.4 
2 *208:8 *1249:B 13.41 
3 *208:8 *1350:A1 7.11 
*END

*D_NET *209 0.00423947
*CONN
*I *1243:A3 I *D gf180mcu_fd_sc_mcu7t5v0__and4_1
*I *1239:ZN O *D gf180mcu_fd_sc_mcu7t5v0__nor3_1
*CAP
1 *1243:A3 0.00119173
2 *1239:ZN 0.00119173
3 *1243:A3 *1246:B 3.12451e-05
4 *1243:A3 *1247:A1 0.000112212
5 *1243:A3 *1249:A1 0
6 *1243:A3 *1272:A2 0.000302466
7 *1243:A3 *1340:A2 3.2559e-05
8 *1243:A3 *1495:CLK 6.83517e-05
9 *1243:A3 *211:20 6.93035e-05
10 *1243:A3 *294:52 0.000436469
11 *1243:A3 *294:58 0.000419388
12 *1243:A3 *359:8 3.325e-05
13 *1243:A3 *365:14 7.59619e-05
14 *1243:A3 *365:20 0.00027481
*RES
1 *1239:ZN *1243:A3 27.81 
*END

*D_NET *210 0.00367485
*CONN
*I *1266:A1 I *D gf180mcu_fd_sc_mcu7t5v0__aoi211_1
*I *1342:A1 I *D gf180mcu_fd_sc_mcu7t5v0__oai22_1
*I *1240:ZN O *D gf180mcu_fd_sc_mcu7t5v0__nor2_1
*CAP
1 *1266:A1 0.000705509
2 *1342:A1 0.000405631
3 *1240:ZN 5.90981e-05
4 *210:6 0.00117024
5 *1266:A1 *1270:A2 0.000463466
6 *1266:A1 *327:10 6.33323e-05
7 *1266:A1 *327:16 0.000135054
8 *1342:A1 *1186:I 4.12217e-05
9 *1342:A1 *1342:A2 1.55466e-05
10 *1342:A1 *1354:A2 1.29505e-05
11 *1342:A1 *270:22 2.47376e-05
12 *1342:A1 *366:35 0.000185262
13 *210:6 *1354:A2 0.000183662
14 *210:6 *366:35 0.000173247
15 *1342:B2 *1342:A1 3.58926e-05
16 *1493:RN *1342:A1 0
*RES
1 *1240:ZN *210:6 5.67 
2 *210:6 *1342:A1 7.47 
3 *210:6 *1266:A1 18.09 
*END

*D_NET *211 0.00881916
*CONN
*I *1242:A2 I *D gf180mcu_fd_sc_mcu7t5v0__nand2_1
*I *1248:A2 I *D gf180mcu_fd_sc_mcu7t5v0__nor3_1
*I *1250:A1 I *D gf180mcu_fd_sc_mcu7t5v0__nor2_1
*I *1243:A4 I *D gf180mcu_fd_sc_mcu7t5v0__and4_1
*I *1241:Z O *D gf180mcu_fd_sc_mcu7t5v0__or3_1
*CAP
1 *1242:A2 7.54277e-05
2 *1248:A2 0
3 *1250:A1 0.000317853
4 *1243:A4 0
5 *1241:Z 0.000294488
6 *211:20 0.000523811
7 *211:16 0.000937033
8 *211:10 0.00110099
9 *1242:A2 *1266:A2 1.51153e-05
10 *1242:A2 *1270:A2 5.71512e-05
11 *1250:A1 *1249:A1 0.000133906
12 *1250:A1 *1249:A2 0.000213957
13 *1250:A1 *1272:A2 3.38019e-05
14 *1250:A1 *1531:I 5.24732e-06
15 *1250:A1 *218:12 0.000413251
16 *1250:A1 *218:33 0.00023506
17 *1250:A1 *219:10 6.44245e-05
18 *1250:A1 *220:10 0.000106536
19 *211:10 *1351:A1 7.772e-05
20 *211:10 *271:19 0.000247391
21 *211:10 *319:30 0
22 *211:10 *363:35 1.77066e-05
23 *211:10 *366:35 3.5061e-05
24 *211:16 *1184:I 2.36914e-05
25 *211:16 *1237:A3 2.32355e-05
26 *211:16 *1238:A1 4.8063e-05
27 *211:16 *1248:A3 0.000176088
28 *211:16 *1272:A2 0.000127075
29 *211:16 *1351:A1 8.29339e-05
30 *211:16 *1351:A2 0.000117358
31 *211:16 *1351:B 3.55118e-05
32 *211:16 *1504:D 0.000436469
33 *211:16 *218:12 0.000177559
34 *211:16 *231:29 0.00117112
35 *211:16 *358:12 0.000151361
36 *211:16 *363:35 8.54106e-06
37 *211:20 *1184:I 0.000177559
38 *211:20 *1272:A2 5.63687e-05
39 *211:20 *218:12 0.000366334
40 *211:20 *359:42 0.000223398
41 *1243:A3 *211:20 6.93035e-05
42 *1338:A2 *211:10 0.000109899
43 *1338:A2 *211:16 1.86249e-05
44 *206:6 *211:16 9.73726e-05
45 *206:8 *1242:A2 0.000215362
*RES
1 *1241:Z *211:10 11.7 
2 *211:10 *211:16 13.14 
3 *211:16 *211:20 2.88 
4 *211:20 *1243:A4 4.5 
5 *211:20 *1250:A1 8.64 
6 *211:16 *1248:A2 4.5 
7 *211:10 *1242:A2 9.81 
*END

*D_NET *212 0.00382282
*CONN
*I *1271:B I *D gf180mcu_fd_sc_mcu7t5v0__aoi211_1
*I *1267:A2 I *D gf180mcu_fd_sc_mcu7t5v0__aoi21_1
*I *1266:B I *D gf180mcu_fd_sc_mcu7t5v0__aoi211_1
*I *1242:ZN O *D gf180mcu_fd_sc_mcu7t5v0__nand2_1
*CAP
1 *1271:B 0
2 *1267:A2 6.88223e-05
3 *1266:B 0.000296952
4 *1242:ZN 0
5 *212:23 0.000245337
6 *212:4 0.000473466
7 *1266:B *1266:A2 0.00117541
8 *1266:B *1270:A2 0.000581665
9 *1267:A2 *1270:A1 0
10 *1267:A2 *1271:C 0.000329933
11 *1267:A2 *327:29 3.55118e-05
12 *212:23 *1271:A1 0.000255088
13 *212:23 *1352:A2 0
14 *212:23 *363:35 0.00020066
15 *1493:D *1267:A2 0.00015997
*RES
1 *1242:ZN *212:4 4.5 
2 *212:4 *1266:B 17.64 
3 *212:4 *212:23 10.53 
4 *212:23 *1267:A2 5.76 
5 *212:23 *1271:B 4.5 
*END

*D_NET *213 0.0015244
*CONN
*I *1249:A1 I *D gf180mcu_fd_sc_mcu7t5v0__oai31_1
*I *1243:Z O *D gf180mcu_fd_sc_mcu7t5v0__and4_1
*CAP
1 *1249:A1 0.000308022
2 *1243:Z 0.000308022
3 *1249:A1 *1272:A2 0.000774446
4 *1243:A3 *1249:A1 0
5 *1250:A1 *1249:A1 0.000133906
*RES
1 *1243:Z *1249:A1 21.06 
*END

*D_NET *214 0.00196743
*CONN
*I *1245:A3 I *D gf180mcu_fd_sc_mcu7t5v0__nor3_1
*I *1343:A3 I *D gf180mcu_fd_sc_mcu7t5v0__oai32_1
*I *1269:A1 I *D gf180mcu_fd_sc_mcu7t5v0__nor2_1
*I *1244:ZN O *D gf180mcu_fd_sc_mcu7t5v0__nand2_1
*CAP
1 *1245:A3 0.00010262
2 *1343:A3 7.33027e-05
3 *1269:A1 0
4 *1244:ZN 0.000210767
5 *214:19 0.000200436
6 *214:10 0.000235281
7 *1245:A3 *1269:A2 0.00013356
8 *1245:A3 *235:6 1.51153e-05
9 *1245:A3 *360:29 5.97457e-06
10 *1343:A3 *235:6 0.000173237
11 *214:10 *215:8 6.53565e-06
12 *214:10 *360:29 0
13 *214:19 *1269:A2 4.83522e-05
14 *214:19 *235:6 9.85004e-05
15 *1245:A2 *1245:A3 1.61174e-05
16 *1343:A2 *1245:A3 0.000515537
17 *1343:A2 *1343:A3 0.000132094
*RES
1 *1244:ZN *214:10 14.49 
2 *214:10 *1269:A1 4.5 
3 *214:10 *214:19 0.54 
4 *214:19 *1343:A3 5.85 
5 *214:19 *1245:A3 6.3 
*END

*D_NET *215 0.00207715
*CONN
*I *1250:A2 I *D gf180mcu_fd_sc_mcu7t5v0__nor2_1
*I *1249:A2 I *D gf180mcu_fd_sc_mcu7t5v0__oai31_1
*I *1245:ZN O *D gf180mcu_fd_sc_mcu7t5v0__nor3_1
*CAP
1 *1250:A2 0
2 *1249:A2 0.000159478
3 *1245:ZN 0.000668421
4 *215:8 0.000827899
5 *1249:A2 *218:33 5.92385e-05
6 *1249:A2 *219:10 8.5878e-05
7 *1249:A2 *358:47 8.54106e-06
8 *215:8 *1244:A2 4.38853e-05
9 *215:8 *358:47 3.31517e-06
10 *1250:A1 *1249:A2 0.000213957
11 *214:10 *215:8 6.53565e-06
*RES
1 *1245:ZN *215:8 12.51 
2 *215:8 *1249:A2 10.44 
3 *215:8 *1250:A2 9 
*END

*D_NET *216 0.00443918
*CONN
*I *1247:A2 I *D gf180mcu_fd_sc_mcu7t5v0__nor2_1
*I *1248:A3 I *D gf180mcu_fd_sc_mcu7t5v0__nor3_1
*I *1246:ZN O *D gf180mcu_fd_sc_mcu7t5v0__oai31_1
*CAP
1 *1247:A2 0.000143025
2 *1248:A3 0.000390859
3 *1246:ZN 0.000147169
4 *216:8 0.000681052
5 *1247:A2 *1247:A1 0.000484915
6 *1247:A2 *269:32 3.09452e-05
7 *1248:A3 *1394:I 6.71551e-05
8 *1248:A3 *217:16 0.000601742
9 *1248:A3 *218:12 0.000177559
10 *1248:A3 *311:31 0.000205191
11 *1248:A3 *358:10 8.16511e-05
12 *1248:A3 *358:12 0.000104278
13 *1248:A3 *358:43 0.000143853
14 *216:8 *217:16 0.000732216
15 *216:8 *311:31 0.000271481
16 *211:16 *1248:A3 0.000176088
*RES
1 *1246:ZN *216:8 11.07 
2 *216:8 *1248:A3 13.5 
3 *216:8 *1247:A2 10.44 
*END

*D_NET *217 0.0138449
*CONN
*I *1339:A1 I *D gf180mcu_fd_sc_mcu7t5v0__and2_1
*I *1523:I I *D gf180mcu_fd_sc_mcu7t5v0__dlyb_1
*I *1288:S I *D gf180mcu_fd_sc_mcu7t5v0__mux2_2
*I *1247:ZN O *D gf180mcu_fd_sc_mcu7t5v0__nor2_1
*CAP
1 *1339:A1 0.000316254
2 *1523:I 0.000715504
3 *1288:S 0
4 *1247:ZN 0.000197437
5 *217:16 0.00108926
6 *217:12 0.000887451
7 *1339:A1 *1392:I 0.00173785
8 *1339:A1 *1531:I 0.00238204
9 *1339:A1 *269:16 0
10 *1339:A1 *311:14 0.000496776
11 *1339:A1 *319:30 0.000327261
12 *1523:I *1264:A2 1.3026e-05
13 *1523:I *1287:S 0
14 *1523:I *1288:I0 0.0011117
15 *1523:I *1323:I1 0
16 *1523:I *1449:CLK 0.000154129
17 *1523:I *348:10 0.000286386
18 *217:12 *1394:I 0.000189567
19 *217:12 *311:14 0.000221777
20 *217:12 *311:31 4.843e-05
21 *217:12 *319:30 0.000229759
22 *217:16 *1246:B 0.000186229
23 *217:16 *1449:CLK 0.000747296
24 *217:16 *270:22 0.000126457
25 *217:16 *294:52 3.61049e-05
26 *217:16 *311:31 1.17934e-05
27 *217:16 *358:10 0.000930487
28 *1248:A3 *217:16 0.000601742
29 *1502:SETN *1339:A1 0
30 *1504:SETN *217:12 6.7989e-05
31 *216:8 *217:16 0.000732216
*RES
1 *1247:ZN *217:12 15.48 
2 *217:12 *217:16 10.89 
3 *217:16 *1288:S 9 
4 *217:16 *1523:I 15.75 
5 *217:12 *1339:A1 12.42 
*END

*D_NET *218 0.0149658
*CONN
*I *1261:A2 I *D gf180mcu_fd_sc_mcu7t5v0__nor2_1
*I *1249:A3 I *D gf180mcu_fd_sc_mcu7t5v0__oai31_1
*I *1248:ZN O *D gf180mcu_fd_sc_mcu7t5v0__nor3_1
*CAP
1 *1261:A2 0
2 *1249:A3 0
3 *1248:ZN 0.00040576
4 *218:33 0.00249022
5 *218:12 0.00289598
6 *218:12 *1531:I 1.27919e-05
7 *218:12 *220:10 0
8 *218:12 *358:43 0.00060899
9 *218:33 *1252:A1 0
10 *218:33 *1255:A2 0.00015997
11 *218:33 *1255:B1 0
12 *218:33 *1258:A1 0.000514146
13 *218:33 *1260:A1 1.19491e-05
14 *218:33 *1260:A2 4.83522e-05
15 *218:33 *1262:A1 5.85552e-05
16 *218:33 *1272:A2 0.00030015
17 *218:33 *1478:CLK 0.000297517
18 *218:33 *1481:CLK 0.000995562
19 *218:33 *1483:CLK 0.000436469
20 *218:33 *1503:CLK 0.000715101
21 *218:33 *1531:I 2.79319e-05
22 *218:33 *219:10 0
23 *218:33 *225:26 2.65444e-06
24 *218:33 *298:23 0.00153858
25 *218:33 *345:10 0
26 *218:33 *345:14 0.000178118
27 *218:33 *358:47 0.000155079
28 sda *218:33 3.38355e-05
29 *1248:A3 *218:12 0.000177559
30 *1249:A2 *218:33 5.92385e-05
31 *1250:A1 *218:12 0.000413251
32 *1250:A1 *218:33 0.00023506
33 *1272:A1 *218:33 0.000844075
34 *1480:D *218:33 7.58723e-05
35 *1481:D *218:33 9.98816e-05
36 *1482:D *218:33 0.000464997
37 *10:19 *218:33 0.000164306
38 *211:16 *218:12 0.000177559
39 *211:20 *218:12 0.000366334
*RES
1 *1248:ZN *218:12 10.62 
2 *218:12 *1249:A3 4.5 
3 *218:12 *218:33 45.54 
4 *218:33 *1261:A2 4.5 
*END

*D_NET *219 0.00548292
*CONN
*I *1540:I I *D gf180mcu_fd_sc_mcu7t5v0__clkbuf_1
*I *1255:B2 I *D gf180mcu_fd_sc_mcu7t5v0__oai22_1
*I *1249:ZN O *D gf180mcu_fd_sc_mcu7t5v0__oai31_1
*CAP
1 *1540:I 0.000330278
2 *1255:B2 0
3 *1249:ZN 0.00104769
4 *219:10 0.00137797
5 *1540:I *1252:A1 0
6 *1540:I *1253:A1 0.000294421
7 *1540:I *1253:A2 1.51153e-05
8 *1540:I *1254:A2 4.01448e-05
9 *1540:I *1489:CLK 0
10 *1540:I *222:10 0
11 *1540:I *223:6 3.01487e-05
12 *219:10 *1252:A1 6.44696e-05
13 *219:10 *1255:B1 0.000365445
14 *219:10 *1272:A2 0.000573529
15 *219:10 *220:10 0.000845059
16 *219:10 *222:10 0
17 sda *219:10 3.07932e-05
18 *1249:A2 *219:10 8.5878e-05
19 *1250:A1 *219:10 6.44245e-05
20 *1255:A1 *1540:I 0
21 *1272:A1 *219:10 2.40809e-05
22 *1478:D *219:10 6.57682e-05
23 *1483:RN *1540:I 0.000119182
24 *10:19 *219:10 0.000108524
25 *218:33 *219:10 0
*RES
1 *1249:ZN *219:10 20.52 
2 *219:10 *1255:B2 9 
3 *219:10 *1540:I 12.24 
*END

*D_NET *220 0.00682251
*CONN
*I *1259:A2 I *D gf180mcu_fd_sc_mcu7t5v0__oai22_1
*I *1254:A1 I *D gf180mcu_fd_sc_mcu7t5v0__nand2_1
*I *1252:A1 I *D gf180mcu_fd_sc_mcu7t5v0__aoi21_1
*I *1250:ZN O *D gf180mcu_fd_sc_mcu7t5v0__nor2_1
*CAP
1 *1259:A2 0.000305549
2 *1254:A1 0
3 *1252:A1 0.000647139
4 *1250:ZN 0.000785762
5 *220:10 0.00112735
6 *1252:A1 *1253:A2 3.94491e-05
7 *1252:A1 *1255:A2 0
8 *1252:A1 *1255:B1 0.000433797
9 *1252:A1 *1339:A2 0
10 *1252:A1 *223:6 0
11 *1259:A2 *1251:A1 2.40933e-06
12 *1259:A2 *1251:A2 0.000578516
13 *1259:A2 *1260:B 1.07374e-05
14 *1259:A2 *221:8 0.00035975
15 *1259:A2 *304:23 0.000709023
16 *1259:A2 *346:14 6.46422e-05
17 *220:10 *1339:A2 0
18 *220:10 *1531:I 0.000129584
19 *1250:A1 *220:10 0.000106536
20 *1255:A1 *1252:A1 5.71404e-05
21 *1503:SETN *220:10 0.000555598
22 *1540:I *1252:A1 0
23 *218:12 *220:10 0
24 *218:33 *1252:A1 0
25 *219:10 *1252:A1 6.44696e-05
26 *219:10 *220:10 0.000845059
*RES
1 *1250:ZN *220:10 13.59 
2 *220:10 *1252:A1 7.56 
3 *220:10 *1254:A1 4.5 
4 *1252:A1 *1259:A2 14.04 
*END

*D_NET *221 0.00163506
*CONN
*I *1253:A2 I *D gf180mcu_fd_sc_mcu7t5v0__nor2_1
*I *1252:A2 I *D gf180mcu_fd_sc_mcu7t5v0__aoi21_1
*I *1251:ZN O *D gf180mcu_fd_sc_mcu7t5v0__nand3_1
*CAP
1 *1253:A2 0.00022072
2 *1252:A2 0
3 *1251:ZN 0.000307162
4 *221:8 0.000527882
5 *1253:A2 *1253:A1 6.46313e-05
6 *1253:A2 *304:12 9.04462e-05
7 *221:8 *1251:A1 0
8 *221:8 *1253:A1 9.90362e-06
9 *1252:A1 *1253:A2 3.94491e-05
10 *1259:A2 *221:8 0.00035975
11 *1483:RN *221:8 0
12 *1540:I *1253:A2 1.51153e-05
*RES
1 *1251:ZN *221:8 7.38 
2 *221:8 *1252:A2 4.5 
3 *221:8 *1253:A2 6.39 
*END

*D_NET *222 0.00352412
*CONN
*I *1258:A1 I *D gf180mcu_fd_sc_mcu7t5v0__nor2_1
*I *1255:A2 I *D gf180mcu_fd_sc_mcu7t5v0__oai22_1
*I *1252:ZN O *D gf180mcu_fd_sc_mcu7t5v0__aoi21_1
*CAP
1 *1258:A1 0.00030887
2 *1255:A2 9.97727e-05
3 *1252:ZN 0.000223764
4 *222:10 0.000632406
5 *1258:A1 *1257:A2 2.14748e-05
6 *1258:A1 *304:23 0.000119346
7 *1258:A1 *345:29 3.55118e-05
8 *1252:A1 *1255:A2 0
9 *1255:A1 *222:10 0.000310002
10 *1482:D *1258:A1 0.000177559
11 *1483:D *1255:A2 0.00027175
12 *1483:D *1258:A1 0.000649549
13 *1540:I *222:10 0
14 *218:33 *1255:A2 0.00015997
15 *218:33 *1258:A1 0.000514146
16 *219:10 *222:10 0
*RES
1 *1252:ZN *222:10 15.03 
2 *222:10 *1255:A2 5.94 
3 *222:10 *1258:A1 9.27 
*END

*D_NET *223 0.00451247
*CONN
*I *1254:A2 I *D gf180mcu_fd_sc_mcu7t5v0__nand2_1
*I *1339:A2 I *D gf180mcu_fd_sc_mcu7t5v0__and2_1
*I *1253:ZN O *D gf180mcu_fd_sc_mcu7t5v0__nor2_1
*CAP
1 *1254:A2 0.000146728
2 *1339:A2 0.00113068
3 *1253:ZN 0.000179849
4 *223:6 0.00145726
5 *1339:A2 *1432:I 0.000507492
6 *1339:A2 *1500:CLK 0
7 *1339:A2 *1528:I 0
8 *1339:A2 *1531:I 0.000779809
9 *1339:A2 *318:31 0
10 *1339:A2 *360:23 0
11 *1252:A1 *1339:A2 0
12 *1252:A1 *223:6 0
13 *1478:SETN *1339:A2 0.000173247
14 *1502:SETN *1339:A2 0
15 *1503:SETN *1254:A2 3.44263e-05
16 *1503:SETN *1339:A2 3.26871e-05
17 *1540:I *1254:A2 4.01448e-05
18 *1540:I *223:6 3.01487e-05
19 *220:10 *1339:A2 0
*RES
1 *1253:ZN *223:6 5.67 
2 *223:6 *1339:A2 14.22 
3 *223:6 *1254:A2 14.85 
*END

*D_NET *224 0.000866256
*CONN
*I *1255:B1 I *D gf180mcu_fd_sc_mcu7t5v0__oai22_1
*I *1254:ZN O *D gf180mcu_fd_sc_mcu7t5v0__nand2_1
*CAP
1 *1255:B1 3.35074e-05
2 *1254:ZN 3.35074e-05
3 *1252:A1 *1255:B1 0.000433797
4 *218:33 *1255:B1 0
5 *219:10 *1255:B1 0.000365445
*RES
1 *1254:ZN *1255:B1 10.17 
*END

*D_NET *225 0.00425258
*CONN
*I *1262:A1 I *D gf180mcu_fd_sc_mcu7t5v0__nor2_1
*I *1260:A2 I *D gf180mcu_fd_sc_mcu7t5v0__aoi21_1
*I *1259:B1 I *D gf180mcu_fd_sc_mcu7t5v0__oai22_1
*I *1257:A2 I *D gf180mcu_fd_sc_mcu7t5v0__aoi21_1
*I *1256:ZN O *D gf180mcu_fd_sc_mcu7t5v0__nor2_1
*CAP
1 *1262:A1 0.000162304
2 *1260:A2 4.2059e-05
3 *1259:B1 0
4 *1257:A2 8.42118e-05
5 *1256:ZN 5.74829e-05
6 *225:26 0.00043957
7 *225:8 0.000159643
8 *225:6 0.000368121
9 *1257:A2 *304:23 0.000442682
10 *1257:A2 *345:29 0.000183662
11 *1262:A1 *1544:I 0
12 *225:8 *1256:A2 0.000889027
13 *225:8 *1260:B 4.29496e-05
14 *225:8 *304:23 3.55118e-05
15 *225:8 *345:14 0.000400528
16 *225:8 *345:29 6.44696e-05
17 *225:26 *1260:A1 0.000294431
18 *225:26 *1260:B 0.000219834
19 *225:26 *1262:A2 2.65444e-06
20 *225:26 *344:25 0
21 *225:26 *345:14 0.000232403
22 *1258:A1 *1257:A2 2.14748e-05
23 *218:33 *1260:A2 4.83522e-05
24 *218:33 *1262:A1 5.85552e-05
25 *218:33 *225:26 2.65444e-06
*RES
1 *1256:ZN *225:6 4.95 
2 *225:6 *225:8 2.79 
3 *225:8 *1257:A2 6.12 
4 *225:8 *1259:B1 4.5 
5 *225:6 *225:26 3.24 
6 *225:26 *1260:A2 5.04 
7 *225:26 *1262:A1 5.67 
*END

*D_NET *226 0.000278267
*CONN
*I *1258:A2 I *D gf180mcu_fd_sc_mcu7t5v0__nor2_1
*I *1257:ZN O *D gf180mcu_fd_sc_mcu7t5v0__aoi21_1
*CAP
1 *1258:A2 6.7342e-05
2 *1257:ZN 6.7342e-05
3 *1258:A2 *298:14 0
4 *1258:A2 *345:29 0.000143583
*RES
1 *1257:ZN *1258:A2 18.81 
*END

*D_NET *227 0.00189689
*CONN
*I *1260:B I *D gf180mcu_fd_sc_mcu7t5v0__aoi21_1
*I *1259:ZN O *D gf180mcu_fd_sc_mcu7t5v0__oai22_1
*CAP
1 *1260:B 0.000495789
2 *1259:ZN 0.000495789
3 *1260:B *1251:A3 0.00014946
4 *1260:B *1256:A2 0.000368293
5 *1260:B *1262:A2 0
6 *1260:B *304:23 2.65444e-06
7 *1260:B *344:25 0.000111383
8 *1259:A2 *1260:B 1.07374e-05
9 *225:8 *1260:B 4.29496e-05
10 *225:26 *1260:B 0.000219834
*RES
1 *1259:ZN *1260:B 14.49 
*END

*D_NET *228 0.000207367
*CONN
*I *1262:A2 I *D gf180mcu_fd_sc_mcu7t5v0__nor2_1
*I *1261:ZN O *D gf180mcu_fd_sc_mcu7t5v0__nor2_1
*CAP
1 *1262:A2 0.000101029
2 *1261:ZN 0.000101029
3 *1262:A2 *1544:I 2.65444e-06
4 *1260:B *1262:A2 0
5 *225:26 *1262:A2 2.65444e-06
*RES
1 *1261:ZN *1262:A2 9.81 
*END

*D_NET *229 0.00226085
*CONN
*I *1265:A1 I *D gf180mcu_fd_sc_mcu7t5v0__nand2_1
*I *1263:ZN O *D gf180mcu_fd_sc_mcu7t5v0__nor4_1
*CAP
1 *1265:A1 0.000375403
2 *1263:ZN 0.000375403
3 *1265:A1 *1263:A2 0.000121576
4 *1265:A1 *1265:A2 0.000212474
5 *1265:A1 *1285:S 0.000109981
6 *1265:A1 *1509:I 0
7 *1265:A1 *308:82 9.00027e-05
8 *1265:A1 *351:16 0.000223398
9 *1265:A1 *352:14 0.000294431
10 *1265:A1 *352:39 0.000458181
*RES
1 *1263:ZN *1265:A1 13.77 
*END

*D_NET *230 0.000912973
*CONN
*I *1265:A2 I *D gf180mcu_fd_sc_mcu7t5v0__nand2_1
*I *1264:ZN O *D gf180mcu_fd_sc_mcu7t5v0__nor4_1
*CAP
1 *1265:A2 0.000109886
2 *1264:ZN 0.000109886
3 *1265:A2 *1516:I 0.000294421
4 *1265:A2 *308:82 0.000183652
5 *1265:A2 *352:39 2.65444e-06
6 *1265:A1 *1265:A2 0.000212474
*RES
1 *1264:ZN *1265:A2 10.98 
*END

*D_NET *231 0.0146527
*CONN
*I *1266:A2 I *D gf180mcu_fd_sc_mcu7t5v0__aoi211_1
*I *1271:A2 I *D gf180mcu_fd_sc_mcu7t5v0__aoi211_1
*I *1350:A2 I *D gf180mcu_fd_sc_mcu7t5v0__nor2_1
*I *1265:ZN O *D gf180mcu_fd_sc_mcu7t5v0__nand2_1
*CAP
1 *1266:A2 0.000369967
2 *1271:A2 5.02623e-05
3 *1350:A2 0.000101415
4 *1265:ZN 0.00228432
5 *231:29 0.00055926
6 *231:14 0.00252476
7 *1266:A2 *1267:B 0.000377729
8 *1266:A2 *1270:A2 7.47548e-06
9 *1266:A2 *1271:A1 2.31089e-05
10 *1266:A2 *1271:C 2.20694e-05
11 *1266:A2 *319:30 1.4382e-06
12 *1266:A2 *327:29 5.30888e-06
13 *1271:A2 *1267:B 0
14 *1271:A2 *1272:A2 7.55765e-06
15 *1350:A2 *1237:A1 0.000346425
16 *1350:A2 *1352:A1 0
17 *1350:A2 *327:67 0.000109323
18 *231:14 *1237:A1 0.000445488
19 *231:14 *1284:I1 0.00020858
20 *231:14 *1285:S 1.7795e-05
21 *231:14 *1287:I0 3.72839e-05
22 *231:14 *1318:A1 0
23 *231:14 *1320:I0 0
24 *231:14 *1348:A1 0
25 *231:14 *1349:A1 1.18076e-06
26 *231:14 *1352:A1 0
27 *231:14 *1471:CLK 6.71645e-05
28 *231:14 *1507:I 0.000331277
29 *231:14 *253:42 0.00131606
30 *231:14 *269:32 0.000412061
31 *231:14 *294:12 0.000214199
32 *231:14 *308:82 1.79237e-05
33 *231:14 *330:12 0
34 *231:14 *349:83 8.09812e-05
35 *231:14 *351:22 0.000439565
36 *231:14 *352:39 0.00037349
37 *231:14 *366:45 7.45032e-05
38 *231:29 *1272:A2 0
39 *231:29 *1351:B 2.57443e-05
40 *1242:A2 *1266:A2 1.51153e-05
41 *1266:B *1266:A2 0.00117541
42 *1472:D *231:14 6.76406e-05
43 *1493:D *1266:A2 0
44 *1493:D *1271:A2 5.30888e-06
45 *206:6 *231:29 0.00100964
46 *206:8 *231:29 0.000354728
47 *211:16 *231:29 0.00117112
*RES
1 *1265:ZN *231:14 30.06 
2 *231:14 *1350:A2 10.17 
3 *231:14 *231:29 8.64 
4 *231:29 *1271:A2 5.04 
5 *231:29 *1266:A2 9.54 
*END

*D_NET *232 0.00154211
*CONN
*I *1267:B I *D gf180mcu_fd_sc_mcu7t5v0__aoi21_1
*I *1266:ZN O *D gf180mcu_fd_sc_mcu7t5v0__aoi211_1
*CAP
1 *1267:B 0.000177879
2 *1266:ZN 0.000177879
3 *1267:B *319:30 0
4 *1267:B *327:16 6.44696e-05
5 *1267:B *327:29 0.000744155
6 *1266:A2 *1267:B 0.000377729
7 *1271:A2 *1267:B 0
*RES
1 *1266:ZN *1267:B 12.06 
*END

*D_NET *233 0.00117466
*CONN
*I *1270:A1 I *D gf180mcu_fd_sc_mcu7t5v0__nor2_1
*I *1267:ZN O *D gf180mcu_fd_sc_mcu7t5v0__aoi21_1
*CAP
1 *1270:A1 0.000289003
2 *1267:ZN 0.000289003
3 *1270:A1 *1493:CLK 0.000200169
4 *1270:A1 *327:16 0
5 *1270:A1 *327:29 0.000236517
6 *1267:A2 *1270:A1 0
7 *1493:D *1270:A1 0.00015997
*RES
1 *1267:ZN *1270:A1 12.33 
*END

*D_NET *234 0.00130535
*CONN
*I *1269:A2 I *D gf180mcu_fd_sc_mcu7t5v0__nor2_1
*I *1268:Z O *D gf180mcu_fd_sc_mcu7t5v0__xor2_1
*CAP
1 *1269:A2 0.000168841
2 *1268:Z 0.000168841
3 *1269:A2 *1245:A1 0.000166876
4 *1269:A2 *360:23 0.000377211
5 *1269:A2 *360:29 3.00687e-05
6 *1245:A2 *1269:A2 8.3864e-05
7 *1245:A3 *1269:A2 0.00013356
8 *1343:A2 *1269:A2 0
9 *157:24 *1269:A2 0.000127736
10 *214:19 *1269:A2 4.83522e-05
*RES
1 *1268:Z *1269:A2 11.88 
*END

*D_NET *235 0.0114448
*CONN
*I *1340:A1 I *D gf180mcu_fd_sc_mcu7t5v0__or2_1
*I *1344:A2 I *D gf180mcu_fd_sc_mcu7t5v0__nor2_1
*I *1270:A2 I *D gf180mcu_fd_sc_mcu7t5v0__nor2_1
*I *1269:ZN O *D gf180mcu_fd_sc_mcu7t5v0__nor2_1
*CAP
1 *1340:A1 0
2 *1344:A2 0
3 *1270:A2 0.000596727
4 *1269:ZN 0.000257547
5 *235:18 0.00222444
6 *235:6 0.00188526
7 *1270:A2 *319:30 0.00196769
8 *1270:A2 *327:16 2.84247e-05
9 *235:6 *1268:A1 2.40933e-06
10 *235:6 *1343:B1 0
11 *235:6 *359:8 2.73782e-05
12 *235:6 *360:29 0.000638833
13 *235:18 *1349:A1 0
14 *235:18 *1352:A1 0.000142743
15 *235:18 *1353:A2 2.04685e-05
16 *235:18 *271:19 5.00391e-05
17 *235:18 *301:12 0.00112735
18 *1242:A2 *1270:A2 5.71512e-05
19 *1245:A3 *235:6 1.51153e-05
20 *1266:A1 *1270:A2 0.000463466
21 *1266:A2 *1270:A2 7.47548e-06
22 *1266:B *1270:A2 0.000581665
23 *1343:A3 *235:6 0.000173237
24 *1495:D *235:6 1.56779e-05
25 *206:6 *1270:A2 3.08015e-05
26 *206:8 *1270:A2 2.09122e-05
27 *207:10 *235:18 0.00101147
28 *214:19 *235:6 9.85004e-05
*RES
1 *1269:ZN *235:6 7.47 
2 *235:6 *235:18 30.78 
3 *235:18 *1270:A2 21.42 
4 *235:18 *1344:A2 4.5 
5 *235:6 *1340:A1 4.5 
*END

*D_NET *236 0.00936346
*CONN
*I *1272:A2 I *D gf180mcu_fd_sc_mcu7t5v0__nor2_1
*I *1271:ZN O *D gf180mcu_fd_sc_mcu7t5v0__aoi211_1
*CAP
1 *1272:A2 0.00137847
2 *1271:ZN 0.00137847
3 *1272:A2 *1184:I 6.60586e-05
4 *1272:A2 *1238:A1 0.000143627
5 *1272:A2 *1271:C 0
6 *1272:A2 *1351:A2 0.000376293
7 *1272:A2 *1351:B 1.34641e-05
8 *1272:A2 *1352:A1 0.000163788
9 *1272:A2 *1504:D 7.82853e-05
10 *1272:A2 *327:67 0.000121486
11 *1272:A2 *359:42 3.70804e-05
12 *1238:A2 *1272:A2 0.000161479
13 *1243:A3 *1272:A2 0.000302466
14 *1249:A1 *1272:A2 0.000774446
15 *1249:B *1272:A2 0.00181395
16 *1250:A1 *1272:A2 3.38019e-05
17 *1271:A2 *1272:A2 7.55765e-06
18 *1350:A1 *1272:A2 0.000171249
19 *1493:D *1272:A2 0.000111618
20 *158:6 *1272:A2 0.00117274
21 *211:16 *1272:A2 0.000127075
22 *211:20 *1272:A2 5.63687e-05
23 *218:33 *1272:A2 0.00030015
24 *219:10 *1272:A2 0.000573529
25 *231:29 *1272:A2 0
*RES
1 *1271:ZN *1272:A2 28.71 
*END

*D_NET *237 0.00726326
*CONN
*I *1277:A2 I *D gf180mcu_fd_sc_mcu7t5v0__aoi21_1
*I *1274:A2 I *D gf180mcu_fd_sc_mcu7t5v0__nor2_1
*I *1275:A2 I *D gf180mcu_fd_sc_mcu7t5v0__aoi21_1
*I *1276:A2 I *D gf180mcu_fd_sc_mcu7t5v0__nor2_1
*I *1354:A1 I *D gf180mcu_fd_sc_mcu7t5v0__nand2_1
*I *1273:ZN O *D gf180mcu_fd_sc_mcu7t5v0__nand2_1
*CAP
1 *1277:A2 0
2 *1274:A2 8.0476e-05
3 *1275:A2 0.000341333
4 *1276:A2 5.77005e-05
5 *1354:A1 0.000272845
6 *1273:ZN 0.000396798
7 *237:34 0.00115885
8 *237:19 0.00115767
9 *237:8 0.00103258
10 *1274:A2 *1275:B 0
11 *1275:A2 *1275:B 1.62567e-05
12 *1275:A2 *1277:B 2.89427e-06
13 *1275:A2 *1477:CLK 0
14 *1275:A2 *1541:I 0
15 *1276:A2 *1292:I0 3.55118e-05
16 *1276:A2 *310:88 0.000119182
17 *1276:A2 *348:24 0.000103065
18 *1354:A1 *366:12 3.51497e-05
19 *237:8 *1345:A1 0.000280356
20 *237:8 *1514:I 0.000192205
21 *237:8 *270:22 0.000164978
22 *237:8 *293:18 1.17725e-05
23 *237:19 *310:96 0
24 *237:19 *366:12 4.11306e-05
25 *237:34 *1274:A1 3.08792e-05
26 *237:34 *1277:B 3.92905e-06
27 *237:34 *1476:CLK 0
28 *237:34 *310:96 0
29 *237:34 *366:12 3.24058e-06
30 *1275:A1 *1275:A2 0.000702887
31 *1345:A2 *237:8 6.0284e-05
32 *1476:D *237:34 0.000209497
33 *1477:D *1275:A2 0.00037349
34 *1501:D *237:8 0
35 *1501:RN *237:34 0.000378299
*RES
1 *1273:ZN *237:8 13.23 
2 *237:8 *1354:A1 10.89 
3 *237:8 *237:19 2.43 
4 *237:19 *1276:A2 9.81 
5 *237:19 *237:34 10.8 
6 *237:34 *1275:A2 8.01 
7 *237:34 *1274:A2 5.13 
8 *237:34 *1277:A2 4.5 
*END

*D_NET *238 0.000944994
*CONN
*I *1275:B I *D gf180mcu_fd_sc_mcu7t5v0__aoi21_1
*I *1274:ZN O *D gf180mcu_fd_sc_mcu7t5v0__nor2_1
*CAP
1 *1275:B 0.000359268
2 *1274:ZN 0.000359268
3 *1275:B *1431:I 0
4 *1274:A2 *1275:B 0
5 *1275:A1 *1275:B 0.000210201
6 *1275:A2 *1275:B 1.62567e-05
7 *1310:A1 *1275:B 0
*RES
1 *1274:ZN *1275:B 11.79 
*END

*D_NET *239 0.00124294
*CONN
*I *1277:B I *D gf180mcu_fd_sc_mcu7t5v0__aoi21_1
*I *1276:ZN O *D gf180mcu_fd_sc_mcu7t5v0__nor2_1
*CAP
1 *1277:B 0.000473671
2 *1276:ZN 0.000473671
3 *1277:B *1292:I0 0
4 *1277:B *366:12 0
5 *1275:A2 *1277:B 2.89427e-06
6 *1476:D *1277:B 0.000288778
7 *237:34 *1277:B 3.92905e-06
*RES
1 *1276:ZN *1277:B 12.6 
*END

*D_NET *240 0.000431753
*CONN
*I *1279:B I *D gf180mcu_fd_sc_mcu7t5v0__oai21_1
*I *1278:ZN O *D gf180mcu_fd_sc_mcu7t5v0__nand2_1
*CAP
1 *1279:B 0.000109765
2 *1278:ZN 0.000109765
3 *1279:B *1321:A1 0
4 *1279:B *354:48 0.000212224
*RES
1 *1278:ZN *1279:B 10.08 
*END

*D_NET *241 0.000452508
*CONN
*I *1281:B I *D gf180mcu_fd_sc_mcu7t5v0__aoi21_1
*I *1280:ZN O *D gf180mcu_fd_sc_mcu7t5v0__nor2_1
*CAP
1 *1281:B 0.000122491
2 *1280:ZN 0.000122491
3 *1281:B *1280:A1 0.000104289
4 *1281:B *253:42 0.000103238
*RES
1 *1280:ZN *1281:B 10.17 
*END

*D_NET *242 0.000185836
*CONN
*I *1283:B I *D gf180mcu_fd_sc_mcu7t5v0__oai21_1
*I *1282:ZN O *D gf180mcu_fd_sc_mcu7t5v0__nand2_1
*CAP
1 *1283:B 9.29179e-05
2 *1282:ZN 9.29179e-05
*RES
1 *1282:ZN *1283:B 9.54 
*END

*D_NET *243 0.0074614
*CONN
*I *1290:S I *D gf180mcu_fd_sc_mcu7t5v0__mux2_2
*I *1291:S I *D gf180mcu_fd_sc_mcu7t5v0__mux2_2
*I *1292:S I *D gf180mcu_fd_sc_mcu7t5v0__mux2_2
*I *1289:ZN O *D gf180mcu_fd_sc_mcu7t5v0__nand3_1
*CAP
1 *1290:S 0.000267755
2 *1291:S 0.000642688
3 *1292:S 0.000517837
4 *1289:ZN 0.000132388
5 *243:8 0.00102516
6 *1290:S *1290:I1 0
7 *1290:S *1291:I1 0.000671844
8 *1290:S *1306:A1 0.000288467
9 *1290:S *1467:CLK 0.000106536
10 *1290:S *1527:I 7.69202e-05
11 *1290:S *319:62 3.54696e-05
12 *1291:S *1289:A1 0.000382884
13 *1291:S *1291:I1 4.21513e-05
14 *1291:S *310:66 2.14175e-05
15 *1291:S *319:62 0
16 *1291:S *349:25 0.000282048
17 *1291:S *349:33 9.72742e-05
18 *1291:S *357:10 0.00023711
19 *1292:S *1274:A1 4.79098e-05
20 *1292:S *1292:I0 0.000213938
21 *1292:S *1292:I1 3.01487e-05
22 *1292:S *1477:CLK 0.000335339
23 *1292:S *310:66 0.000254252
24 *1292:S *349:25 4.59966e-05
25 *243:8 *1274:A1 0
26 *243:8 *349:12 2.94847e-05
27 *1277:A1 *1291:S 2.63343e-05
28 *1277:A1 *1292:S 0.00104652
29 *1277:A1 *243:8 0.00028081
30 *1466:D *1291:S 0.000115987
31 *1467:D *1290:S 1.56862e-05
32 *140:14 *243:8 0.000191046
*RES
1 *1289:ZN *243:8 10.35 
2 *243:8 *1292:S 15.12 
3 *243:8 *1291:S 13.77 
4 *1291:S *1290:S 21.33 
*END

*D_NET *244 0.0115948
*CONN
*I *1522:I I *D gf180mcu_fd_sc_mcu7t5v0__dlyb_1
*I *1521:I I *D gf180mcu_fd_sc_mcu7t5v0__dlyb_1
*I *1293:ZN O *D gf180mcu_fd_sc_mcu7t5v0__nand3_1
*CAP
1 *1522:I 0.00160195
2 *1521:I 0
3 *1293:ZN 0.000981949
4 *244:12 0.0025839
5 *1522:I *1355:A2 0
6 *1522:I *1425:I 0.000127736
7 *1522:I *1426:I 7.82936e-05
8 *1522:I *1457:CLK 0.000121356
9 *1522:I *1527:I 0.00389251
10 *1522:I *296:6 0
11 *1522:I *306:119 0
12 *1522:I *314:6 3.22348e-05
13 *1522:I *326:22 0
14 *244:12 *1290:I1 0.000109323
15 *244:12 *1457:CLK 0.000106396
16 *244:12 *1527:I 0.000695311
17 *244:12 *349:25 0.000165349
18 *244:12 *349:33 5.41373e-05
19 *244:12 *350:8 0
20 *244:12 *350:14 0.000156535
21 *1264:A3 *1522:I 0.000184811
22 *1299:A1 *1522:I 0.000436478
23 *1355:A3 *1522:I 0.000106536
24 *1441:D *1522:I 0.000105585
25 *1442:D *1522:I 1.56862e-05
26 *1462:D *1522:I 2.08301e-05
27 *1471:RN *1522:I 1.79237e-05
*RES
1 *1293:ZN *244:12 21.78 
2 *244:12 *1521:I 4.5 
3 *244:12 *1522:I 22.05 
*END

*D_NET *245 0.00157731
*CONN
*I *1295:B I *D gf180mcu_fd_sc_mcu7t5v0__oai21_1
*I *1294:ZN O *D gf180mcu_fd_sc_mcu7t5v0__nand2_1
*CAP
1 *1295:B 0.000504405
2 *1294:ZN 0.000504405
3 *1295:B *1295:A2 7.191e-07
4 *1295:B *299:14 0.000507502
5 *1295:B *299:16 0
6 *1464:D *1295:B 6.02757e-05
*RES
1 *1294:ZN *1295:B 13.32 
*END

*D_NET *246 0.000582191
*CONN
*I *1297:B I *D gf180mcu_fd_sc_mcu7t5v0__aoi21_1
*I *1296:ZN O *D gf180mcu_fd_sc_mcu7t5v0__nor2_1
*CAP
1 *1297:B 9.0669e-05
2 *1296:ZN 9.0669e-05
3 *1297:B *1409:I 0
4 *1297:B *307:32 0.000400853
*RES
1 *1296:ZN *1297:B 19.17 
*END

*D_NET *247 0.00116842
*CONN
*I *1299:B I *D gf180mcu_fd_sc_mcu7t5v0__oai21_1
*I *1298:ZN O *D gf180mcu_fd_sc_mcu7t5v0__nand2_1
*CAP
1 *1299:B 0.000163899
2 *1298:ZN 0.000163899
3 *1299:B *1298:A1 8.56272e-05
4 *1299:B *1299:A2 0.000754995
5 *1299:B *296:55 0
*RES
1 *1298:ZN *1299:B 20.43 
*END

*D_NET *248 0.000911658
*CONN
*I *1301:B I *D gf180mcu_fd_sc_mcu7t5v0__aoi21_1
*I *1300:ZN O *D gf180mcu_fd_sc_mcu7t5v0__nor2_1
*CAP
1 *1301:B 0.000278427
2 *1300:ZN 0.000278427
3 *1301:B *1321:A1 0.00017244
4 *1301:B *1461:CLK 4.31393e-06
5 *1301:B *1463:CLK 0.000178049
*RES
1 *1300:ZN *1301:B 10.89 
*END

*D_NET *249 0.00128622
*CONN
*I *1303:B I *D gf180mcu_fd_sc_mcu7t5v0__aoi21_1
*I *1302:ZN O *D gf180mcu_fd_sc_mcu7t5v0__nor2_1
*CAP
1 *1303:B 0.000422285
2 *1302:ZN 0.000422285
3 *1303:B *1302:A2 0.000257988
4 *1303:B *1303:A2 5.79792e-06
5 *1303:B *1395:I 0
6 *1303:B *306:21 0
7 *1303:B *306:25 5.8316e-05
8 *1211:B2 *1303:B 0.000119548
*RES
1 *1302:ZN *1303:B 21.24 
*END

*D_NET *250 0.000597197
*CONN
*I *1305:B I *D gf180mcu_fd_sc_mcu7t5v0__aoi21_1
*I *1304:ZN O *D gf180mcu_fd_sc_mcu7t5v0__nor2_1
*CAP
1 *1305:B 0.000153493
2 *1304:ZN 0.000153493
3 *1305:B *1306:A1 1.0415e-05
4 *1305:B *1307:B 0.000198724
5 *1305:B *313:48 8.10723e-05
*RES
1 *1304:ZN *1305:B 10.35 
*END

*D_NET *251 0.00200804
*CONN
*I *1307:B I *D gf180mcu_fd_sc_mcu7t5v0__aoi21_1
*I *1306:ZN O *D gf180mcu_fd_sc_mcu7t5v0__nor2_1
*CAP
1 *1307:B 0.000471428
2 *1306:ZN 0.000471428
3 *1307:B *1306:A1 0.000578796
4 *1307:B *1306:A2 1.05432e-05
5 *1307:B *295:87 1.68054e-05
6 *1307:B *306:41 7.49728e-06
7 *1307:B *313:48 5.05634e-06
8 *1305:A1 *1307:B 0.000106324
9 *1305:B *1307:B 0.000198724
10 *1459:D *1307:B 7.88283e-05
11 *1467:RN *1307:B 6.26074e-05
*RES
1 *1306:ZN *1307:B 13.68 
*END

*D_NET *252 0.00283997
*CONN
*I *1309:B I *D gf180mcu_fd_sc_mcu7t5v0__aoi21_1
*I *1308:ZN O *D gf180mcu_fd_sc_mcu7t5v0__nor2_1
*CAP
1 *1309:B 0.000361769
2 *1308:ZN 0.000361769
3 *1309:B *1308:A2 0.001706
4 *1309:B *292:119 1.78873e-05
5 *1309:B *295:31 0.000146212
6 *1457:D *1309:B 0.000246336
*RES
1 *1308:ZN *1309:B 23.49 
*END

*D_NET *253 0.0222502
*CONN
*I *1321:A2 I *D gf180mcu_fd_sc_mcu7t5v0__nand2_1
*I *1322:A2 I *D gf180mcu_fd_sc_mcu7t5v0__oai21_1
*I *1319:A2 I *D gf180mcu_fd_sc_mcu7t5v0__oai21_1
*I *1520:I I *D gf180mcu_fd_sc_mcu7t5v0__dlyb_1
*I *1310:Z O *D gf180mcu_fd_sc_mcu7t5v0__and3_1
*CAP
1 *1321:A2 0.000255504
2 *1322:A2 1.87487e-05
3 *1319:A2 0.000579365
4 *1520:I 0.0019438
5 *1310:Z 0.000706853
6 *253:65 0.00131525
7 *253:42 0.0028573
8 *1319:A2 *1319:B 0.000445488
9 *1319:A2 *305:58 0
10 *1319:A2 *331:8 3.22122e-05
11 *1321:A2 *1321:A1 1.61174e-05
12 *1321:A2 *1322:B 0.000213293
13 *1321:A2 *1512:I 0.000109531
14 *1321:A2 *292:72 1.70887e-05
15 *1322:A2 *1450:CLK 8.49208e-05
16 *1520:I *1166:I 3.31517e-06
17 *1520:I *1285:I1 0.000100105
18 *1520:I *1470:CLK 8.59734e-05
19 *1520:I *1471:CLK 8.87455e-05
20 *1520:I *292:119 0.000177761
21 *1520:I *295:27 2.52705e-05
22 *1520:I *330:12 0.000777537
23 *1520:I *350:25 7.07167e-05
24 *1520:I *350:38 7.50306e-05
25 *253:42 *1278:A2 4.78725e-05
26 *253:42 *1280:A1 1.12219e-05
27 *253:42 *1285:S 2.81008e-05
28 *253:42 *1313:A1 0.000247379
29 *253:42 *1471:CLK 0.000428433
30 *253:42 *1475:CLK 2.23145e-05
31 *253:42 *308:52 0.000620052
32 *253:42 *308:82 0
33 *253:42 *308:96 0.000283705
34 *253:42 *328:27 8.56031e-05
35 *253:42 *330:41 0.000106177
36 *253:42 *349:83 0.000461157
37 *253:42 *352:39 0.000446921
38 *253:42 *354:38 0
39 *253:42 *354:48 0.000645069
40 *253:65 *1311:A2 0.000968766
41 *253:65 *1312:B 2.79072e-05
42 *253:65 *1313:A1 0.00037349
43 *253:65 *1313:A2 0.000236727
44 *253:65 *1314:B 0.000628097
45 *253:65 *1450:CLK 6.7004e-06
46 *253:65 *1475:CLK 0.000232014
47 *253:65 *1518:I 0
48 *253:65 *292:72 8.51891e-05
49 *253:65 *299:60 0.00157207
50 *253:65 *328:34 0.00017266
51 *253:65 *354:48 1.69023e-06
52 *1279:A1 *253:42 0.000365445
53 *1281:B *253:42 0.000103238
54 *1312:A1 *253:65 0
55 *1316:A1 *1319:A2 1.27919e-05
56 *1319:A1 *1319:A2 3.94291e-05
57 *1322:A1 *1321:A2 0.000161845
58 *1322:A1 *253:65 0.000161838
59 *1450:D *1321:A2 0.000300624
60 *1450:D *1322:A2 8.49208e-05
61 *1452:D *1319:A2 3.6552e-05
62 *1471:D *1520:I 0.000790628
63 *1471:D *253:42 0
64 *1472:D *253:42 0.000356014
65 *1474:D *253:42 0.00031577
66 *1475:D *253:42 0.000272792
67 *140:8 *1520:I 0.000177834
68 *141:29 *253:65 0
69 *152:10 *1319:A2 1.52191e-05
70 *231:14 *253:42 0.00131606
*RES
1 *1310:Z *1520:I 26.46 
2 *1520:I *253:42 26.01 
3 *253:42 *1319:A2 13.32 
4 *253:42 *253:65 21.78 
5 *253:65 *1322:A2 9.27 
6 *253:65 *1321:A2 11.7 
*END

*D_NET *254 0.00143193
*CONN
*I *1312:B I *D gf180mcu_fd_sc_mcu7t5v0__aoi21_1
*I *1311:ZN O *D gf180mcu_fd_sc_mcu7t5v0__nor2_1
*CAP
1 *1312:B 0.000434902
2 *1311:ZN 0.000434902
3 *1312:B *1311:A2 1.23607e-05
4 *1312:B *1321:A1 6.08147e-05
5 *1312:B *1518:I 5.65519e-05
6 *1312:B *299:51 0.000365454
7 *1456:D *1312:B 3.90331e-05
8 *253:65 *1312:B 2.79072e-05
*RES
1 *1311:ZN *1312:B 13.05 
*END

*D_NET *255 0.00264715
*CONN
*I *1314:B I *D gf180mcu_fd_sc_mcu7t5v0__oai21_1
*I *1313:ZN O *D gf180mcu_fd_sc_mcu7t5v0__nand2_1
*CAP
1 *1314:B 0.000184156
2 *1313:ZN 0.000184156
3 *1314:B *1300:A1 0.000427501
4 *1314:B *1313:A2 0.000435201
5 *1314:B *1475:CLK 0.000496776
6 *1314:B *1510:I 7.4629e-05
7 *1314:B *299:60 0.000150744
8 *151:12 *1314:B 6.58906e-05
9 *253:65 *1314:B 0.000628097
*RES
1 *1313:ZN *1314:B 21.78 
*END

*D_NET *256 0.00117552
*CONN
*I *1316:B I *D gf180mcu_fd_sc_mcu7t5v0__oai21_1
*I *1315:ZN O *D gf180mcu_fd_sc_mcu7t5v0__nand2_1
*CAP
1 *1316:B 0.00024472
2 *1315:ZN 0.00024472
3 *1316:B *305:58 7.26011e-07
4 *1316:B *333:8 0.000471492
5 *1316:B *352:60 3.63058e-05
6 *1316:A1 *1316:B 0.000177559
*RES
1 *1315:ZN *1316:B 11.88 
*END

*D_NET *257 0.00724991
*CONN
*I *1319:B I *D gf180mcu_fd_sc_mcu7t5v0__oai21_1
*I *1318:ZN O *D gf180mcu_fd_sc_mcu7t5v0__nand2_1
*CAP
1 *1319:B 0.000796382
2 *1318:ZN 0.000796382
3 *1319:B *1178:I 0.000151417
4 *1319:B *1195:A2 3.73774e-06
5 *1319:B *1287:S 0
6 *1319:B *1315:A1 6.72164e-05
7 *1319:B *1323:S 0
8 *1319:B *1403:I 4.76605e-05
9 *1319:B *1427:I 6.72818e-05
10 *1319:B *1472:CLK 0.00146487
11 *1319:B *305:58 0.000330995
12 *1319:B *330:41 0.0024498
13 *1319:B *333:8 7.24059e-05
14 *1319:A2 *1319:B 0.000445488
15 *1449:SETN *1319:B 0.00037349
16 *1473:RN *1319:B 7.34567e-05
17 *152:10 *1319:B 0.000109332
*RES
1 *1318:ZN *1319:B 30.96 
*END

*D_NET *258 0.00148505
*CONN
*I *1322:B I *D gf180mcu_fd_sc_mcu7t5v0__oai21_1
*I *1321:ZN O *D gf180mcu_fd_sc_mcu7t5v0__nand2_1
*CAP
1 *1322:B 0.000433378
2 *1321:ZN 0.000433378
3 *1322:B *1194:A2 1.18076e-06
4 *1322:B *1512:I 2.18528e-05
5 *1322:B *1513:I 0
6 *1322:B *318:56 0.00038197
7 *1321:A2 *1322:B 0.000213293
*RES
1 *1321:ZN *1322:B 21.6 
*END

*D_NET *259 0.00407941
*CONN
*I *1337:A3 I *D gf180mcu_fd_sc_mcu7t5v0__nor4_1
*I *1539:I I *D gf180mcu_fd_sc_mcu7t5v0__buf_1
*I *1324:ZN O *D gf180mcu_fd_sc_mcu7t5v0__nor3_1
*CAP
1 *1337:A3 0
2 *1539:I 0.000969995
3 *1324:ZN 0.000451256
4 *259:10 0.00142125
5 *1539:I *1335:A2 0
6 *1539:I *1377:I0 3.30038e-05
7 *1539:I *1434:I 2.26729e-05
8 *1539:I *1544:I 0
9 *1539:I *303:18 5.12066e-05
10 *1539:I *316:27 4.95209e-05
11 *1539:I *325:31 0
12 *1539:I *345:10 0.000247919
13 *259:10 *1336:A1 0.000382875
14 *259:10 *1377:I0 3.08806e-06
15 *259:10 *1388:I 7.82936e-05
16 *259:10 *316:62 2.1847e-05
17 *259:10 *325:31 0
18 *259:10 *372:10 0.000183662
19 *1336:A2 *259:10 0
20 *1377:S *259:10 0
21 *1481:RN *1539:I 0.000162818
22 *1487:RN *259:10 0
*RES
1 *1324:ZN *259:10 12.96 
2 *259:10 *1539:I 15.66 
3 *259:10 *1337:A3 9 
*END

*D_NET *260 0.000402958
*CONN
*I *1332:A2 I *D gf180mcu_fd_sc_mcu7t5v0__xor2_1
*I *1325:ZN O *D gf180mcu_fd_sc_mcu7t5v0__nand2_1
*CAP
1 *1332:A2 0.000151949
2 *1325:ZN 0.000151949
3 *1332:A2 *1193:I 7.59619e-05
4 *1332:A2 *1333:A2 2.30981e-05
5 *1332:A2 *318:31 0
*RES
1 *1325:ZN *1332:A2 10.17 
*END

*D_NET *261 0.00113064
*CONN
*I *1330:A2 I *D gf180mcu_fd_sc_mcu7t5v0__xor2_1
*I *1326:ZN O *D gf180mcu_fd_sc_mcu7t5v0__nand3_1
*CAP
1 *1330:A2 0.000247568
2 *1326:ZN 0.000247568
3 *1330:A2 *1326:A1 0.000166843
4 *1330:A2 *1326:A2 9.84908e-05
5 *1330:A2 *1330:A1 0.000370175
*RES
1 *1326:ZN *1330:A2 11.61 
*END

*D_NET *262 0.000393727
*CONN
*I *1328:A2 I *D gf180mcu_fd_sc_mcu7t5v0__xor2_1
*I *1327:ZN O *D gf180mcu_fd_sc_mcu7t5v0__nand4_1
*CAP
1 *1328:A2 0.000126852
2 *1327:ZN 0.000126852
3 *1328:A2 *374:27 0.000140022
*RES
1 *1327:ZN *1328:A2 9.99 
*END

*D_NET *263 0.000905484
*CONN
*I *1329:A3 I *D gf180mcu_fd_sc_mcu7t5v0__nor3_1
*I *1328:Z O *D gf180mcu_fd_sc_mcu7t5v0__xor2_1
*CAP
1 *1329:A3 8.6803e-05
2 *1328:Z 8.6803e-05
3 *1329:A3 *1198:A2 0.000171937
4 *1329:A3 *1332:A1 0.000320262
5 *1329:A3 *315:69 0
6 *1329:A3 *374:27 0.00023968
*RES
1 *1328:Z *1329:A3 19.53 
*END

*D_NET *264 0.000665879
*CONN
*I *1331:A3 I *D gf180mcu_fd_sc_mcu7t5v0__nor3_1
*I *1330:Z O *D gf180mcu_fd_sc_mcu7t5v0__xor2_1
*CAP
1 *1331:A3 0.00017065
2 *1330:Z 0.00017065
3 *1331:A3 *1330:A1 0
4 *1331:A3 *325:55 0.000294431
5 *1331:A3 *325:61 3.01487e-05
*RES
1 *1330:Z *1331:A3 10.44 
*END

*D_NET *265 0.00135452
*CONN
*I *1333:A3 I *D gf180mcu_fd_sc_mcu7t5v0__nor3_1
*I *1332:Z O *D gf180mcu_fd_sc_mcu7t5v0__xor2_1
*CAP
1 *1333:A3 0.000212659
2 *1332:Z 0.000212659
3 *1333:A3 *1333:A1 0.000152121
4 *1333:A3 *1333:A2 0.00073438
5 *1333:A3 *318:31 4.27009e-05
*RES
1 *1332:Z *1333:A3 11.79 
*END

*D_NET *266 0.000243079
*CONN
*I *1335:A3 I *D gf180mcu_fd_sc_mcu7t5v0__nor3_1
*I *1334:ZN O *D gf180mcu_fd_sc_mcu7t5v0__xnor2_1
*CAP
1 *1335:A3 6.46077e-05
2 *1334:ZN 6.46077e-05
3 *1335:A3 *302:16 5.69319e-05
4 *1488:D *1335:A3 5.69319e-05
*RES
1 *1334:ZN *1335:A3 9.63 
*END

*D_NET *267 0.000894428
*CONN
*I *1337:A4 I *D gf180mcu_fd_sc_mcu7t5v0__nor4_1
*I *1336:ZN O *D gf180mcu_fd_sc_mcu7t5v0__nor2_1
*CAP
1 *1337:A4 0.000394085
2 *1336:ZN 0.000394085
3 *1337:A4 *1193:I 0
4 *1337:A4 *1336:A1 0
5 *1337:A4 *1377:I1 2.71331e-05
6 *1337:A4 *1388:I 0
7 *1337:A4 *302:23 7.191e-07
8 *1487:RN *1337:A4 0
9 *27:10 *1337:A4 7.84068e-05
*RES
1 *1336:ZN *1337:A4 11.88 
*END

*D_NET *268 0.0029833
*CONN
*I *1341:A2 I *D gf180mcu_fd_sc_mcu7t5v0__oai22_1
*I *1342:A2 I *D gf180mcu_fd_sc_mcu7t5v0__oai22_1
*I *1338:ZN O *D gf180mcu_fd_sc_mcu7t5v0__nand2_1
*CAP
1 *1341:A2 0
2 *1342:A2 0.000289923
3 *1338:ZN 0.000445645
4 *268:14 0.000735568
5 *1342:A2 *1186:I 5.06104e-06
6 *1342:A2 *1341:B1 0.000467932
7 *1342:A2 *310:36 0.00071501
8 *1342:A2 *327:10 0
9 *268:14 *1338:A1 2.17721e-05
10 *268:14 *319:30 2.2743e-05
11 *1341:B2 *1342:A2 3.72197e-05
12 *1342:A1 *1342:A2 1.55466e-05
13 *1479:RN *268:14 0.000117014
14 *1493:RN *268:14 0.000109866
*RES
1 *1338:ZN *268:14 8.19 
2 *268:14 *1342:A2 16.11 
3 *268:14 *1341:A2 4.5 
*END

*D_NET *269 0.00964794
*CONN
*I *1340:A2 I *D gf180mcu_fd_sc_mcu7t5v0__or2_1
*I *1346:A2 I *D gf180mcu_fd_sc_mcu7t5v0__nand2_1
*I *1349:A2 I *D gf180mcu_fd_sc_mcu7t5v0__nand2_1
*I *1353:A2 I *D gf180mcu_fd_sc_mcu7t5v0__aoi22_1
*I *1339:Z O *D gf180mcu_fd_sc_mcu7t5v0__and2_1
*CAP
1 *1340:A2 0.000307048
2 *1346:A2 0
3 *1349:A2 0
4 *1353:A2 0.000395763
5 *1339:Z 0.000519792
6 *269:34 0.000526971
7 *269:32 0.00136328
8 *269:16 0.00205892
9 *1340:A2 *294:58 0
10 *1340:A2 *360:29 1.78052e-05
11 *1353:A2 *1240:A1 9.84908e-05
12 *1353:A2 *1348:A2 0.000157129
13 *1353:A2 *1349:A1 0.000535397
14 *1353:A2 *1353:B1 8.61061e-05
15 *1353:A2 *1492:CLK 0.000347366
16 *1353:A2 *270:22 0
17 *1353:A2 *294:12 3.97987e-05
18 *1353:A2 *366:45 1.07281e-05
19 *269:16 *1244:A1 6.36965e-05
20 *269:16 *1392:I 0
21 *269:16 *359:8 0.000473402
22 *269:16 *360:23 1.33014e-05
23 *269:16 *360:29 4.56896e-06
24 *269:32 *1247:A1 0.000353915
25 *269:32 *1348:A1 0
26 *269:32 *1349:A1 7.80776e-06
27 *269:32 *1352:A1 0
28 *269:32 *1392:I 1.17725e-05
29 *269:32 *1394:I 3.02306e-05
30 *269:32 *311:14 5.9065e-05
31 *269:32 *319:30 0.000165448
32 *269:32 *359:8 0.000589913
33 *269:34 *1348:A1 4.6613e-06
34 *269:34 *1349:A1 0
35 *269:34 *294:12 0
36 *269:34 *319:30 0
37 *269:34 *366:35 0.000283705
38 *1243:A3 *1340:A2 3.2559e-05
39 *1247:A2 *269:32 3.09452e-05
40 *1339:A1 *269:16 0
41 *1347:A1 *1353:A2 9.04462e-05
42 *1494:D *1353:A2 9.84908e-05
43 *1502:SETN *269:16 6.85956e-05
44 *1504:SETN *269:32 0.000368291
45 *207:10 *1353:A2 0
46 *207:10 *269:34 0
47 *231:14 *269:32 0.000412061
48 *235:18 *1353:A2 2.04685e-05
*RES
1 *1339:Z *269:16 9 
2 *269:16 *269:32 19.26 
3 *269:32 *269:34 1.17 
4 *269:34 *1353:A2 18 
5 *269:34 *1349:A2 4.5 
6 *269:32 *1346:A2 4.5 
7 *269:16 *1340:A2 15.21 
*END

*D_NET *270 0.0103006
*CONN
*I *1343:B1 I *D gf180mcu_fd_sc_mcu7t5v0__oai32_1
*I *1342:B1 I *D gf180mcu_fd_sc_mcu7t5v0__oai22_1
*I *1341:B1 I *D gf180mcu_fd_sc_mcu7t5v0__oai22_1
*I *1340:Z O *D gf180mcu_fd_sc_mcu7t5v0__or2_1
*CAP
1 *1343:B1 0.000139627
2 *1342:B1 0
3 *1341:B1 0.000193455
4 *1340:Z 0.00229998
5 *270:22 0.00235381
6 *1341:B1 *1186:I 5.93219e-05
7 *1341:B1 *310:36 0.000114761
8 *1341:B1 *327:10 0
9 *1343:B1 *1268:A1 3.98088e-05
10 *270:22 *1186:I 2.00048e-05
11 *270:22 *1187:I 0
12 *270:22 *1240:A1 0
13 *270:22 *1348:A2 6.95069e-05
14 *270:22 *1353:B1 6.317e-05
15 *270:22 *1354:A2 3.90548e-05
16 *270:22 *1384:I 0
17 *270:22 *1449:CLK 9.39061e-05
18 *270:22 *1514:I 0.000121356
19 *270:22 *293:18 0
20 *270:22 *294:31 0.00132242
21 *270:22 *294:44 7.65245e-05
22 *270:22 *310:36 0.0001078
23 *270:22 *311:31 0.000362319
24 *270:22 *365:14 0.000364473
25 *270:22 *365:20 6.06287e-05
26 *270:22 *366:12 2.16372e-05
27 *1342:A1 *270:22 2.47376e-05
28 *1342:A2 *1341:B1 0.000467932
29 *1342:B2 *1341:B1 0.00036937
30 *1342:B2 *270:22 0.000171937
31 *1343:A2 *1343:B1 5.97457e-06
32 *1345:A2 *270:22 0
33 *1347:A1 *270:22 7.191e-07
34 *1353:A2 *270:22 0
35 *1492:D *270:22 0.000274925
36 *1495:D *1343:B1 0.000407243
37 *1495:D *270:22 0.000362773
38 *207:25 *270:22 0
39 *217:16 *270:22 0.000126457
40 *235:6 *1343:B1 0
41 *237:8 *270:22 0.000164978
*RES
1 *1340:Z *270:22 37.44 
2 *270:22 *1341:B1 11.25 
3 *270:22 *1342:B1 9 
4 *1340:Z *1343:B1 10.62 
*END

*D_NET *271 0.00351634
*CONN
*I *1347:A2 I *D gf180mcu_fd_sc_mcu7t5v0__oai21_1
*I *1353:B1 I *D gf180mcu_fd_sc_mcu7t5v0__aoi22_1
*I *1351:A1 I *D gf180mcu_fd_sc_mcu7t5v0__oai21_1
*I *1344:ZN O *D gf180mcu_fd_sc_mcu7t5v0__nor2_1
*CAP
1 *1347:A2 0
2 *1353:B1 0.000136723
3 *1351:A1 0.000189719
4 *1344:ZN 0
5 *271:19 0.000536539
6 *271:6 0.000589535
7 *1351:A1 *1271:A1 0
8 *1351:A1 *1352:A1 9.33999e-05
9 *1351:A1 *363:35 0
10 *271:19 *1241:A2 7.3556e-06
11 *271:19 *1352:A1 1.17752e-05
12 *271:19 *362:14 1.22343e-05
13 *271:19 *363:35 0
14 *1347:A1 *1353:B1 1.0415e-05
15 *1353:A2 *1353:B1 8.61061e-05
16 *207:10 *271:19 0.0011998
17 *207:25 *271:19 0.000121481
18 *211:10 *1351:A1 7.772e-05
19 *211:10 *271:19 0.000247391
20 *211:16 *1351:A1 8.29339e-05
21 *235:18 *271:19 5.00391e-05
22 *270:22 *1353:B1 6.317e-05
*RES
1 *1344:ZN *271:6 9 
2 *271:6 *1351:A1 10.53 
3 *271:6 *271:19 8.73 
4 *271:19 *1353:B1 5.76 
5 *271:19 *1347:A2 4.5 
*END

*D_NET *272 0.00133471
*CONN
*I *1348:A1 I *D gf180mcu_fd_sc_mcu7t5v0__nand2_1
*I *1346:ZN O *D gf180mcu_fd_sc_mcu7t5v0__nand2_1
*CAP
1 *1348:A1 0.000631968
2 *1346:ZN 0.000631968
3 *1348:A1 *1349:A1 5.25643e-05
4 *1348:A1 *311:31 0
5 *1348:A1 *367:38 1.35476e-05
6 *231:14 *1348:A1 0
7 *269:32 *1348:A1 0
8 *269:34 *1348:A1 4.6613e-06
*RES
1 *1346:ZN *1348:A1 21.42 
*END

*D_NET *273 0.00200826
*CONN
*I *1348:A2 I *D gf180mcu_fd_sc_mcu7t5v0__nand2_1
*I *1347:ZN O *D gf180mcu_fd_sc_mcu7t5v0__oai21_1
*CAP
1 *1348:A2 0.000358863
2 *1347:ZN 0.000358863
3 *1348:A2 *1246:A2 0
4 *1348:A2 *294:31 5.9617e-05
5 *1347:A1 *1348:A2 3.01487e-05
6 *1353:A2 *1348:A2 0.000157129
7 *1494:D *1348:A2 0.000974129
8 *270:22 *1348:A2 6.95069e-05
*RES
1 *1347:ZN *1348:A2 13.14 
*END

*D_NET *274 0.00202605
*CONN
*I *1352:A1 I *D gf180mcu_fd_sc_mcu7t5v0__nand2_1
*I *1349:ZN O *D gf180mcu_fd_sc_mcu7t5v0__nand2_1
*CAP
1 *1352:A1 0.000695791
2 *1349:ZN 0.000695791
3 *1352:A1 *1349:A1 3.2553e-06
4 *1352:A1 *1352:A2 2.73e-05
5 *1352:A1 *327:67 0.000192205
6 *1272:A2 *1352:A1 0.000163788
7 *1350:A2 *1352:A1 0
8 *1351:A1 *1352:A1 9.33999e-05
9 *231:14 *1352:A1 0
10 *235:18 *1352:A1 0.000142743
11 *269:32 *1352:A1 0
12 *271:19 *1352:A1 1.17752e-05
*RES
1 *1349:ZN *1352:A1 23.58 
*END

*D_NET *275 0.000938972
*CONN
*I *1351:A2 I *D gf180mcu_fd_sc_mcu7t5v0__oai21_1
*I *1350:ZN O *D gf180mcu_fd_sc_mcu7t5v0__nor2_1
*CAP
1 *1351:A2 0.000222661
2 *1350:ZN 0.000222661
3 *1272:A2 *1351:A2 0.000376293
4 *211:16 *1351:A2 0.000117358
*RES
1 *1350:ZN *1351:A2 11.52 
*END

*D_NET *276 0.000455415
*CONN
*I *1352:A2 I *D gf180mcu_fd_sc_mcu7t5v0__nand2_1
*I *1351:ZN O *D gf180mcu_fd_sc_mcu7t5v0__oai21_1
*CAP
1 *1352:A2 0.000214057
2 *1351:ZN 0.000214057
3 *1352:A1 *1352:A2 2.73e-05
4 *212:23 *1352:A2 0
*RES
1 *1351:ZN *1352:A2 19.17 
*END

*D_NET *277 0.00212461
*CONN
*I *1354:A2 I *D gf180mcu_fd_sc_mcu7t5v0__nand2_1
*I *1353:ZN O *D gf180mcu_fd_sc_mcu7t5v0__aoi22_1
*CAP
1 *1354:A2 0.000322854
2 *1353:ZN 0.000322854
3 *1354:A2 *1240:A1 9.18827e-05
4 *1354:A2 *1240:A2 0.000578516
5 *1354:A2 *366:35 2.26729e-05
6 *1354:A2 *367:23 0.000117403
7 *1342:A1 *1354:A2 1.29505e-05
8 *1492:D *1354:A2 0.000432763
9 *210:6 *1354:A2 0.000183662
10 *270:22 *1354:A2 3.90548e-05
*RES
1 *1353:ZN *1354:A2 13.32 
*END

*D_NET *278 0.000534232
*CONN
*I *1360:A2 I *D gf180mcu_fd_sc_mcu7t5v0__nand2_1
*I *1356:ZN O *D gf180mcu_fd_sc_mcu7t5v0__nand2_1
*CAP
1 *1360:A2 0.000156011
2 *1356:ZN 0.000156011
3 *1360:A2 *379:12 6.76406e-05
4 *1220:A2 *1360:A2 0.000154571
*RES
1 *1356:ZN *1360:A2 19.53 
*END

*D_NET *279 0.00113899
*CONN
*I *1358:A3 I *D gf180mcu_fd_sc_mcu7t5v0__nor3_1
*I *1357:ZN O *D gf180mcu_fd_sc_mcu7t5v0__xnor2_1
*CAP
1 *1358:A3 0.000247568
2 *1357:ZN 0.000247568
3 *1358:A3 *1357:A1 4.15457e-05
4 *1358:A3 *306:119 4.9245e-05
5 *1358:A3 *314:29 3.54696e-05
6 *1355:A3 *1358:A3 0.000372037
7 *1442:RN *1358:A3 0.000145556
*RES
1 *1357:ZN *1358:A3 11.97 
*END

*D_NET *280 0.00333924
*CONN
*I *1361:A1 I *D gf180mcu_fd_sc_mcu7t5v0__nand2_1
*I *1364:A2 I *D gf180mcu_fd_sc_mcu7t5v0__and2_1
*I *1363:A2 I *D gf180mcu_fd_sc_mcu7t5v0__nor2_1
*I *1359:ZN O *D gf180mcu_fd_sc_mcu7t5v0__nand3_1
*CAP
1 *1361:A1 0
2 *1364:A2 0
3 *1363:A2 0.000151879
4 *1359:ZN 0.000357468
5 *280:10 0.000487137
6 *280:6 0.000692726
7 *280:6 *1359:A2 0.000106536
8 *280:6 *381:12 0.000807286
9 *280:6 *381:18 0.000177559
10 *1220:A2 *280:6 7.17427e-05
11 *1220:A2 *280:10 5.45276e-05
12 *1364:A1 *1363:A2 0.000169927
13 *1364:A1 *280:10 7.20334e-05
14 *199:78 *280:10 0.000125562
15 *199:86 *280:6 2.3037e-05
16 *199:86 *280:10 4.1822e-05
*RES
1 *1359:ZN *280:6 8.37 
2 *280:6 *280:10 3.06 
3 *280:10 *1363:A2 14.85 
4 *280:10 *1364:A2 4.5 
5 *280:6 *1361:A1 4.5 
*END

*D_NET *281 0.00311737
*CONN
*I *1361:A2 I *D gf180mcu_fd_sc_mcu7t5v0__nand2_1
*I *1360:ZN O *D gf180mcu_fd_sc_mcu7t5v0__nand2_1
*CAP
1 *1361:A2 0.000358072
2 *1360:ZN 0.000358072
3 *1361:A2 *381:12 0
4 *1361:A2 *381:18 4.10396e-06
5 *1220:A1 *1361:A2 0.00171305
6 *1220:A2 *1361:A2 0.000684069
*RES
1 *1360:ZN *1361:A2 23.76 
*END

*D_NET *282 0.000114966
*CONN
*I *1362:A3 I *D gf180mcu_fd_sc_mcu7t5v0__nor3_1
*I *1361:ZN O *D gf180mcu_fd_sc_mcu7t5v0__nand2_1
*CAP
1 *1362:A3 5.74829e-05
2 *1361:ZN 5.74829e-05
*RES
1 *1361:ZN *1362:A3 9.45 
*END

*D_NET *283 0.0124681
*CONN
*I *1366:A2 I *D gf180mcu_fd_sc_mcu7t5v0__and2_1
*I *1367:A2 I *D gf180mcu_fd_sc_mcu7t5v0__nor2_1
*I *1365:A3 I *D gf180mcu_fd_sc_mcu7t5v0__nor4_1
*I *1363:ZN O *D gf180mcu_fd_sc_mcu7t5v0__nor2_1
*CAP
1 *1366:A2 0
2 *1367:A2 6.69131e-05
3 *1365:A3 0.000151263
4 *1363:ZN 0.000249138
5 *283:35 0.00095928
6 *283:12 0.00129277
7 *1365:A3 *326:12 3.23768e-05
8 *1367:A2 *317:90 0.000601513
9 *1367:A2 *383:14 0.00010296
10 *283:12 *1398:I 3.65607e-05
11 *283:12 *326:12 1.91584e-05
12 *283:35 *1218:A2 0.000233586
13 *283:35 *317:96 1.39839e-05
14 *283:35 *326:12 9.85004e-05
15 *283:35 *326:78 0.00273616
16 *283:35 *326:80 0.00104781
17 *283:35 *383:20 0
18 *283:35 *384:14 0
19 *1220:A1 *283:12 0.00124375
20 *1220:A2 *283:12 0.000524433
21 *1220:A2 *283:35 2.65444e-06
22 *1225:A1 *283:35 0.000100105
23 *1225:A2 *283:35 0.000200271
24 *1225:B1 *283:35 0.00084548
25 *1297:A1 *283:35 0.000124895
26 *1505:I *283:12 0.000254207
27 *1534:I *283:35 0.000111618
28 *144:25 *283:35 0.00134425
29 *188:18 *283:35 0
30 *199:76 *1365:A3 5.8316e-05
31 *199:76 *283:35 0
32 *199:78 *1365:A3 1.61174e-05
*RES
1 *1363:ZN *283:12 18.36 
2 *283:12 *1365:A3 5.76 
3 *283:12 *283:35 32.49 
4 *283:35 *1367:A2 15.03 
5 *283:35 *1366:A2 4.5 
*END

*D_NET *284 0.000845136
*CONN
*I *1365:A4 I *D gf180mcu_fd_sc_mcu7t5v0__nor4_1
*I *1364:Z O *D gf180mcu_fd_sc_mcu7t5v0__and2_1
*CAP
1 *1365:A4 0.000312651
2 *1364:Z 0.000312651
3 *1220:A2 *1365:A4 0
4 *199:78 *1365:A4 0.000219834
*RES
1 *1364:Z *1365:A4 11.52 
*END

*D_NET *285 0.00852749
*CONN
*I *1372:A3 I *D gf180mcu_fd_sc_mcu7t5v0__nand3_1
*I *1369:A2 I *D gf180mcu_fd_sc_mcu7t5v0__nand2_1
*I *1370:A2 I *D gf180mcu_fd_sc_mcu7t5v0__xnor2_1
*I *1368:A3 I *D gf180mcu_fd_sc_mcu7t5v0__nor4_1
*I *1366:Z O *D gf180mcu_fd_sc_mcu7t5v0__and2_1
*CAP
1 *1372:A3 0.000102756
2 *1369:A2 0
3 *1370:A2 0.000752866
4 *1368:A3 0.000497402
5 *1366:Z 0.000205121
6 *285:27 0.00108721
7 *285:23 0.00056846
8 *285:10 0.000833882
9 *1368:A3 *1368:A1 0.000340227
10 *1368:A3 *1402:I 6.12653e-05
11 *1368:A3 *383:14 0
12 *1370:A2 *1371:A3 0
13 *1370:A2 *1373:A1 0
14 *1370:A2 *1374:A1 7.191e-07
15 *1370:A2 *1374:A3 0
16 *1370:A2 *1376:A3 0
17 *1370:A2 *1447:CLK 9.10772e-05
18 *1370:A2 *384:49 4.22217e-05
19 *1372:A3 *1402:I 1.73058e-05
20 *1372:A3 *383:8 0
21 *285:10 *326:80 0.000771774
22 *285:10 *326:95 6.2979e-05
23 *285:10 *383:14 0
24 *285:23 *1402:I 1.82595e-05
25 *285:23 *383:14 0
26 *285:27 *1369:A1 3.97987e-05
27 *285:27 *1376:A3 0
28 *285:27 *317:96 0.0019181
29 *285:27 *326:95 0.000244566
30 *1445:D *1368:A3 9.07783e-05
31 *1445:RN *1372:A3 3.42213e-05
32 *1446:RN *285:27 4.74921e-05
33 *1447:D *1370:A2 0.000148576
34 *199:45 *1370:A2 8.3538e-05
35 *199:47 *285:27 0
36 *199:53 *1368:A3 0.00037349
37 *199:53 *285:10 9.34006e-05
*RES
1 *1366:Z *285:10 11.52 
2 *285:10 *1368:A3 13.86 
3 *285:10 *285:23 0.81 
4 *285:23 *285:27 9.63 
5 *285:27 *1370:A2 19.08 
6 *285:27 *1369:A2 4.5 
7 *285:23 *1372:A3 9.81 
*END

*D_NET *286 0.000306173
*CONN
*I *1368:A4 I *D gf180mcu_fd_sc_mcu7t5v0__nor4_1
*I *1367:ZN O *D gf180mcu_fd_sc_mcu7t5v0__nor2_1
*CAP
1 *1368:A4 8.84825e-05
2 *1367:ZN 8.84825e-05
3 *1368:A4 *383:14 0.000106536
4 *199:53 *1368:A4 2.26729e-05
*RES
1 *1367:ZN *1368:A4 9.9 
*END

*D_NET *287 0.00139332
*CONN
*I *1373:A2 I *D gf180mcu_fd_sc_mcu7t5v0__xor2_1
*I *1369:ZN O *D gf180mcu_fd_sc_mcu7t5v0__nand2_1
*CAP
1 *1373:A2 9.71183e-05
2 *1369:ZN 9.71183e-05
3 *1373:A2 *1369:A1 9.30128e-05
4 *1373:A2 *1370:A1 0.000758797
5 *1373:A2 *317:96 0.000347276
*RES
1 *1369:ZN *1373:A2 11.25 
*END

*D_NET *288 0.000562858
*CONN
*I *1371:A3 I *D gf180mcu_fd_sc_mcu7t5v0__nor3_1
*I *1370:ZN O *D gf180mcu_fd_sc_mcu7t5v0__xnor2_1
*CAP
1 *1371:A3 0.000245081
2 *1370:ZN 0.000245081
3 *1371:A3 *1439:I 1.14516e-05
4 *1371:A3 *1447:CLK 7.55765e-06
5 *1370:A2 *1371:A3 0
6 *1446:D *1371:A3 5.36871e-05
*RES
1 *1370:ZN *1371:A3 10.89 
*END

*D_NET *289 0.00219304
*CONN
*I *1375:A2 I *D gf180mcu_fd_sc_mcu7t5v0__xor2_1
*I *1372:ZN O *D gf180mcu_fd_sc_mcu7t5v0__nand3_1
*CAP
1 *1375:A2 0.000227733
2 *1372:ZN 0.000227733
3 *1375:A2 *1375:A1 0.000143853
4 *1375:A2 *1399:I 0
5 *1375:A2 *1402:I 0.000179087
6 *1375:A2 *385:27 0.00116884
7 *1375:A2 *386:10 1.43511e-05
8 *1448:RN *1375:A2 0.000231442
*RES
1 *1372:ZN *1375:A2 13.14 
*END

*D_NET *290 0.000956066
*CONN
*I *1374:A3 I *D gf180mcu_fd_sc_mcu7t5v0__nor3_1
*I *1373:Z O *D gf180mcu_fd_sc_mcu7t5v0__xor2_1
*CAP
1 *1374:A3 0.00026653
2 *1373:Z 0.00026653
3 *1370:A2 *1374:A3 0
4 *1446:RN *1374:A3 0.000336058
5 *1447:D *1374:A3 0
6 *199:45 *1374:A3 8.69474e-05
*RES
1 *1373:Z *1374:A3 11.7 
*END

*D_NET *291 0.00118475
*CONN
*I *1376:A3 I *D gf180mcu_fd_sc_mcu7t5v0__nor3_1
*I *1375:Z O *D gf180mcu_fd_sc_mcu7t5v0__xor2_1
*CAP
1 *1376:A3 0.000393166
2 *1375:Z 0.000393166
3 *1376:A3 *326:95 2.49316e-05
4 *1370:A2 *1376:A3 0
5 *199:47 *1376:A3 0.00037349
6 *285:27 *1376:A3 0
*RES
1 *1375:Z *1376:A3 21.06 
*END

*D_NET *292 0.0267245
*CONN
*I *1509:I I *D gf180mcu_fd_sc_mcu7t5v0__clkbuf_16
*I *1508:I I *D gf180mcu_fd_sc_mcu7t5v0__clkbuf_16
*I *1511:I I *D gf180mcu_fd_sc_mcu7t5v0__clkbuf_16
*I *1512:I I *D gf180mcu_fd_sc_mcu7t5v0__clkbuf_16
*I *1513:I I *D gf180mcu_fd_sc_mcu7t5v0__clkbuf_16
*I *1506:I I *D gf180mcu_fd_sc_mcu7t5v0__clkbuf_16
*I *1510:I I *D gf180mcu_fd_sc_mcu7t5v0__clkbuf_16
*I *1507:I I *D gf180mcu_fd_sc_mcu7t5v0__clkbuf_16
*I *1505:Z O *D gf180mcu_fd_sc_mcu7t5v0__clkbuf_16
*CAP
1 *1509:I 0.00117314
2 *1508:I 9.80932e-05
3 *1511:I 0
4 *1512:I 0.000379013
5 *1513:I 0.000893847
6 *1506:I 0.00133198
7 *1510:I 0.00168055
8 *1507:I 0.00200507
9 *1505:Z 0.00227249
10 *292:119 0.00191189
11 *292:72 0.00188384
12 *292:66 0.0013328
13 *1506:I *1423:I 0.000461857
14 *1506:I *1451:CLK 0.000350368
15 *1506:I *310:96 2.98619e-05
16 *1506:I *348:18 0.000400415
17 *1506:I *349:12 0
18 *1506:I *349:64 0
19 *1507:I *1318:A1 5.8482e-06
20 *1507:I *1318:A2 2.98619e-05
21 *1507:I *1320:I0 2.51583e-05
22 *1507:I *1320:I1 0
23 *1507:I *1323:I0 0.000110237
24 *1507:I *1472:CLK 0.000177893
25 *1507:I *296:61 0.000210271
26 *1507:I *305:22 0
27 *1507:I *328:27 0.000619594
28 *1507:I *330:41 0.000738864
29 *1507:I *353:10 0.000103922
30 *1508:I *1286:S 7.1531e-06
31 *1508:I *1467:CLK 2.97737e-05
32 *1508:I *1527:I 6.06112e-05
33 *1509:I *1263:A2 1.77397e-05
34 *1509:I *1263:A4 0.000118913
35 *1509:I *1285:I0 0
36 *1509:I *1286:S 4.88829e-05
37 *1509:I *1426:I 0.000207693
38 *1509:I *1527:I 0.000690124
39 *1509:I *351:16 0
40 *1510:I *1177:I 0.000115575
41 *1510:I *1300:A1 0.00015668
42 *1510:I *305:70 0
43 *1510:I *328:27 0.000921649
44 *1510:I *330:41 0.000199296
45 *1512:I *1321:A1 0.000107953
46 *1512:I *1450:CLK 0
47 *1512:I *1518:I 0.000100396
48 *1513:I *1161:I 6.78732e-05
49 *1513:I *1199:B1 4.88761e-05
50 *1513:I *1450:CLK 0.000365492
51 *1513:I *318:56 0
52 *1513:I *329:12 0
53 *1513:I *370:16 2.48345e-05
54 *292:66 *1198:A1 0.000802955
55 *292:66 *1407:I 1.4958e-05
56 *292:66 *315:65 0
57 *292:72 *1194:A2 0.000415712
58 *292:72 *1201:B1 0.000157811
59 *292:72 *318:56 0.00035686
60 *292:72 *374:44 0.000123199
61 *292:119 *1308:A1 0.000258645
62 *292:119 *1308:A2 0.000287151
63 *292:119 *1466:CLK 0
64 *292:119 *295:21 0.000133966
65 *292:119 *295:27 7.9857e-05
66 *292:119 *295:31 5.25374e-06
67 *292:119 *349:12 7.7769e-05
68 *1203:C *1513:I 0
69 *1206:A2 *1513:I 0
70 *1234:A1 *1513:I 0
71 *1234:A2 *1513:I 8.85261e-05
72 *1235:A3 *1513:I 2.22008e-05
73 *1265:A1 *1509:I 0
74 *1309:B *292:119 1.78873e-05
75 *1310:A1 *292:119 9.60211e-06
76 *1314:B *1510:I 7.4629e-05
77 *1321:A2 *1512:I 0.000109531
78 *1321:A2 *292:72 1.70887e-05
79 *1322:A1 *292:72 0.000110758
80 *1322:B *1512:I 2.18528e-05
81 *1322:B *1513:I 0
82 *1450:D *1512:I 5.24361e-06
83 *1450:D *1513:I 0.000296825
84 *1453:RN *292:66 0.000154469
85 *1472:RN *1509:I 0.000183662
86 *1501:RN *1506:I 9.71723e-05
87 *1520:I *292:119 0.000177761
88 *135:10 *1513:I 1.70133e-05
89 *140:8 *292:119 5.25746e-05
90 *140:14 *292:119 4.77004e-05
91 *151:12 *1510:I 3.15089e-05
92 *151:22 *1510:I 1.99836e-05
93 *153:27 *292:66 0.000521471
94 *179:38 *1513:I 0
95 *231:14 *1507:I 0.000331277
96 *253:65 *292:72 8.51891e-05
*RES
1 *1505:Z *1507:I 32.04 
2 *1505:Z *1510:I 27 
3 *1507:I *1506:I 16.65 
4 *1510:I *292:66 12.51 
5 *292:66 *292:72 15.39 
6 *292:72 *1513:I 20.7 
7 *292:72 *1512:I 7.74 
8 *292:66 *1511:I 4.5 
9 *1506:I *292:119 20.16 
10 *292:119 *1508:I 5.31 
11 *292:119 *1509:I 14.49 
*END

*D_NET *293 0.0120311
*CONN
*I *1476:CLK I *D gf180mcu_fd_sc_mcu7t5v0__dffrnq_1
*I *1501:CLK I *D gf180mcu_fd_sc_mcu7t5v0__dffrnq_1
*I *1477:CLK I *D gf180mcu_fd_sc_mcu7t5v0__dffrnq_1
*I *1465:CLK I *D gf180mcu_fd_sc_mcu7t5v0__dffrnq_1
*I *1496:CLK I *D gf180mcu_fd_sc_mcu7t5v0__dffrnq_1
*I *1493:CLK I *D gf180mcu_fd_sc_mcu7t5v0__dffrnq_1
*I *1479:CLK I *D gf180mcu_fd_sc_mcu7t5v0__dffrnq_1
*I *1497:CLK I *D gf180mcu_fd_sc_mcu7t5v0__dffrnq_1
*I *1514:I I *D gf180mcu_fd_sc_mcu7t5v0__clkbuf_2
*I *1506:Z O *D gf180mcu_fd_sc_mcu7t5v0__clkbuf_16
*CAP
1 *1476:CLK 0.000172266
2 *1501:CLK 0
3 *1477:CLK 0.000356203
4 *1465:CLK 0.000230751
5 *1496:CLK 0
6 *1493:CLK 0.00028474
7 *1479:CLK 0
8 *1497:CLK 0.000299116
9 *1514:I 6.76912e-05
10 *1506:Z 0.000524616
11 *293:39 0.000681069
12 *293:30 0.00133669
13 *293:26 0.000755719
14 *293:24 0.000711787
15 *293:22 0.000916922
16 *293:18 0.000478815
17 *1465:CLK *1186:I 0
18 *1465:CLK *1189:I 0.000119192
19 *1465:CLK *319:62 1.20019e-05
20 *1476:CLK *1292:I0 5.30888e-06
21 *1476:CLK *348:24 4.5615e-05
22 *1477:CLK *1292:I1 1.0415e-05
23 *1477:CLK *310:47 9.4913e-06
24 *1477:CLK *310:53 0.000166798
25 *1477:CLK *310:66 0.000510671
26 *1477:CLK *319:62 6.15984e-05
27 *1493:CLK *327:16 0
28 *293:22 *310:53 4.09777e-05
29 *293:22 *310:88 3.19217e-06
30 *293:24 *310:36 6.88857e-05
31 *293:24 *310:47 3.08806e-06
32 *293:24 *319:62 0.000234954
33 *293:26 *319:62 1.43535e-05
34 *293:30 *1383:I 8.76817e-06
35 *293:30 *310:10 3.11077e-05
36 *293:30 *319:30 0.000701021
37 *293:30 *319:62 4.31832e-06
38 *1270:A1 *1493:CLK 0.000200169
39 *1275:A2 *1477:CLK 0
40 *1292:S *1477:CLK 0.000335339
41 *1341:A1 *293:24 3.57062e-05
42 *1341:A1 *293:26 1.65355e-05
43 *1341:A1 *293:30 1.51878e-05
44 *1341:B2 *1465:CLK 0.00035741
45 *1465:D *1465:CLK 4.30142e-05
46 *1476:D *1476:CLK 2.65444e-06
47 *1477:D *1477:CLK 0
48 *1479:D *1493:CLK 9.98816e-05
49 *1479:D *293:39 1.07374e-05
50 *1493:D *1493:CLK 7.55765e-06
51 *1493:RN *1465:CLK 0.000125378
52 *1496:RN *1477:CLK 0.000111971
53 *1496:RN *293:22 8.38699e-05
54 *1496:RN *293:24 7.77106e-05
55 *1497:D *1497:CLK 8.1639e-05
56 *1497:D *293:30 0.000298261
57 *1497:D *293:39 1.94333e-05
58 *1501:D *1477:CLK 0
59 *1501:D *293:18 0.000369127
60 *1501:D *293:22 1.55466e-05
61 *1536:I *1497:CLK 0.000428433
62 *1536:I *293:30 3.54228e-06
63 *1536:I *293:39 9.85004e-05
64 *237:8 *1514:I 0.000192205
65 *237:8 *293:18 1.17725e-05
66 *237:34 *1476:CLK 0
67 *270:22 *1514:I 0.000121356
68 *270:22 *293:18 0
*RES
1 *1506:Z *1514:I 10.17 
2 *1506:Z *293:18 6.93 
3 *293:18 *293:22 5.85 
4 *293:22 *293:24 3.69 
5 *293:24 *293:26 0.63 
6 *293:26 *293:30 10.17 
7 *293:30 *1497:CLK 7.11 
8 *293:30 *293:39 2.61 
9 *293:39 *1479:CLK 4.5 
10 *293:39 *1493:CLK 7.11 
11 *293:26 *1496:CLK 9 
12 *293:24 *1465:CLK 11.61 
13 *293:22 *1477:CLK 12.96 
14 *293:18 *1501:CLK 4.5 
15 *1506:Z *1476:CLK 10.17 
*END

*D_NET *294 0.0169952
*CONN
*I *1469:CLK I *D gf180mcu_fd_sc_mcu7t5v0__dffrnq_1
*I *1468:CLK I *D gf180mcu_fd_sc_mcu7t5v0__dffrnq_1
*I *1495:CLK I *D gf180mcu_fd_sc_mcu7t5v0__dffrnq_1
*I *1502:CLK I *D gf180mcu_fd_sc_mcu7t5v0__dffsnq_1
*I *1504:CLK I *D gf180mcu_fd_sc_mcu7t5v0__dffsnq_1
*I *1449:CLK I *D gf180mcu_fd_sc_mcu7t5v0__dffsnq_1
*I *1494:CLK I *D gf180mcu_fd_sc_mcu7t5v0__dffrnq_1
*I *1492:CLK I *D gf180mcu_fd_sc_mcu7t5v0__dffrnq_1
*I *1507:Z O *D gf180mcu_fd_sc_mcu7t5v0__clkbuf_16
*CAP
1 *1469:CLK 0.000161817
2 *1468:CLK 0
3 *1495:CLK 1.50007e-05
4 *1502:CLK 0.000327467
5 *1504:CLK 0.000256032
6 *1449:CLK 0.000105308
7 *1494:CLK 0
8 *1492:CLK 0.00023772
9 *1507:Z 0.000737328
10 *294:58 0.00117789
11 *294:52 0.000939006
12 *294:44 0.000498877
13 *294:31 0.00054268
14 *294:12 0.000545122
15 *1449:CLK *1288:I0 0.000754995
16 *1449:CLK *311:31 0.000263461
17 *1449:CLK *311:50 0.000498544
18 *1469:CLK *1384:I 0.000231975
19 *1492:CLK *1240:A1 0.000567799
20 *1492:CLK *1347:B 0.00046585
21 *1492:CLK *363:31 0.000425752
22 *1492:CLK *366:35 2.25399e-05
23 *1495:CLK *365:14 2.31089e-05
24 *1502:CLK *1243:A1 0.000155203
25 *1502:CLK *1502:D 3.55118e-05
26 *1504:CLK *1243:A1 2.30981e-05
27 *294:12 *1349:A1 0.00027566
28 *294:12 *366:35 9.98677e-06
29 *294:12 *366:45 0.000149329
30 *294:31 *1246:A2 5.79792e-06
31 *294:31 *1246:A3 0.000294421
32 *294:31 *365:20 1.69023e-06
33 *294:31 *366:45 0
34 *294:44 *1288:I1 0
35 *294:52 *1246:B 7.80776e-06
36 *294:52 *365:14 0.000103139
37 *294:58 *1243:A1 0.00043778
38 *294:58 *311:10 4.78857e-06
39 *294:58 *359:27 0.00128761
40 *1243:A2 *1502:CLK 8.52804e-05
41 *1243:A3 *1495:CLK 6.83517e-05
42 *1243:A3 *294:52 0.000436469
43 *1243:A3 *294:58 0.000419388
44 *1249:B *1504:CLK 0.000616481
45 *1340:A2 *294:58 0
46 *1348:A2 *294:31 5.9617e-05
47 *1353:A2 *1492:CLK 0.000347366
48 *1353:A2 *294:12 3.97987e-05
49 *1468:D *294:44 6.317e-05
50 *1469:D *1469:CLK 2.06277e-05
51 *1494:D *294:12 4.6613e-06
52 *1494:RN *1469:CLK 0.000586561
53 *1523:I *1449:CLK 0.000154129
54 *207:25 *1469:CLK 1.27836e-05
55 *217:16 *1449:CLK 0.000747296
56 *217:16 *294:52 3.61049e-05
57 *231:14 *294:12 0.000214199
58 *269:34 *294:12 0
59 *270:22 *1449:CLK 9.39061e-05
60 *270:22 *294:31 0.00132242
61 *270:22 *294:44 7.65245e-05
*RES
1 *1507:Z *294:12 16.2 
2 *294:12 *1492:CLK 8.37 
3 *294:12 *1494:CLK 4.5 
4 *1507:Z *294:31 8.19 
5 *294:31 *1449:CLK 18.09 
6 *294:31 *294:44 1.35 
7 *294:44 *294:52 11.88 
8 *294:52 *294:58 15.21 
9 *294:58 *1504:CLK 6.93 
10 *294:58 *1502:CLK 7.29 
11 *294:52 *1495:CLK 4.77 
12 *294:44 *1468:CLK 4.5 
13 *1507:Z *1469:CLK 11.43 
*END

*D_NET *295 0.018459
*CONN
*I *1460:CLK I *D gf180mcu_fd_sc_mcu7t5v0__dffrnq_1
*I *1458:CLK I *D gf180mcu_fd_sc_mcu7t5v0__dffrnq_1
*I *1459:CLK I *D gf180mcu_fd_sc_mcu7t5v0__dffrnq_1
*I *1467:CLK I *D gf180mcu_fd_sc_mcu7t5v0__dffrnq_1
*I *1515:I I *D gf180mcu_fd_sc_mcu7t5v0__clkbuf_2
*I *1470:CLK I *D gf180mcu_fd_sc_mcu7t5v0__dffrnq_1
*I *1466:CLK I *D gf180mcu_fd_sc_mcu7t5v0__dffrnq_1
*I *1451:CLK I *D gf180mcu_fd_sc_mcu7t5v0__dffsnq_1
*I *1457:CLK I *D gf180mcu_fd_sc_mcu7t5v0__dffrnq_1
*I *1508:Z O *D gf180mcu_fd_sc_mcu7t5v0__clkbuf_16
*CAP
1 *1460:CLK 0
2 *1458:CLK 0
3 *1459:CLK 0.000174622
4 *1467:CLK 0.000612819
5 *1515:I 0
6 *1470:CLK 0.000276071
7 *1466:CLK 0.000714084
8 *1451:CLK 0.000371355
9 *1457:CLK 0.000305288
10 *1508:Z 0.000169176
11 *295:87 0.000515247
12 *295:83 0.000413618
13 *295:33 0.00118276
14 *295:31 0.000534706
15 *295:27 0.000398454
16 *295:21 0.00112979
17 *295:8 0.000681301
18 *1451:CLK *1308:A1 0.00159106
19 *1451:CLK *348:18 0.000853515
20 *1457:CLK *306:21 9.15641e-06
21 *1459:CLK *1306:A2 0.000558426
22 *1466:CLK *1289:A1 5.78854e-06
23 *1466:CLK *1293:A2 0.000647473
24 *1466:CLK *1310:A3 0.000898846
25 *1466:CLK *1431:I 8.65572e-05
26 *1467:CLK *1286:S 0.00111097
27 *1467:CLK *1527:I 0
28 *1467:CLK *349:33 0.000285306
29 *1467:CLK *350:25 2.30228e-05
30 *1470:CLK *1166:I 0.000110639
31 *1470:CLK *1293:A2 1.03692e-05
32 *295:8 *1308:A2 8.02247e-05
33 *295:21 *1308:A2 0.000110764
34 *295:27 *350:25 0.000468574
35 *295:31 *1308:A1 0.000351582
36 *295:33 *1308:A1 0.000499907
37 *295:83 *306:29 0
38 *295:87 *1306:A2 0.000110849
39 *295:87 *306:29 0
40 *295:87 *306:35 0
41 *295:87 *306:41 0.00022342
42 *295:87 *313:48 0
43 *1290:S *1467:CLK 0.000106536
44 *1293:A1 *1466:CLK 0.000182436
45 *1307:A1 *1459:CLK 0.000362773
46 *1307:A1 *295:87 0.000183717
47 *1307:B *295:87 1.68054e-05
48 *1309:B *295:31 0.000146212
49 *1310:A1 *1466:CLK 2.57818e-05
50 *1457:D *1457:CLK 7.01651e-05
51 *1457:RN *295:83 0.000127736
52 *1459:D *1459:CLK 7.15588e-05
53 *1460:D *295:83 0.000192205
54 *1460:D *295:87 1.61174e-05
55 *1466:D *1466:CLK 0.000192605
56 *1466:RN *1467:CLK 2.89427e-06
57 *1467:D *1467:CLK 6.32447e-05
58 *1470:D *1470:CLK 7.55765e-06
59 *1470:RN *295:8 2.77926e-05
60 *1476:RN *1466:CLK 0.0001173
61 *1477:RN *1466:CLK 5.69319e-05
62 *1506:I *1451:CLK 0.000350368
63 *1508:I *1467:CLK 2.97737e-05
64 *1520:I *1470:CLK 8.59734e-05
65 *1520:I *295:27 2.52705e-05
66 *1522:I *1457:CLK 0.000121356
67 *139:10 *1466:CLK 3.46409e-05
68 *244:12 *1457:CLK 0.000106396
69 *292:119 *1466:CLK 0
70 *292:119 *295:21 0.000133966
71 *292:119 *295:27 7.9857e-05
72 *292:119 *295:31 5.25374e-06
*RES
1 *1508:Z *295:8 10.17 
2 *295:8 *1457:CLK 11.43 
3 *295:8 *295:21 2.52 
4 *295:21 *295:27 6.48 
5 *295:27 *295:31 6.39 
6 *295:31 *295:33 1.35 
7 *295:33 *1451:CLK 15.3 
8 *295:33 *1466:CLK 17.01 
9 *295:31 *1470:CLK 11.97 
10 *295:27 *1515:I 4.5 
11 *295:21 *1467:CLK 14.49 
12 *1508:Z *295:83 5.67 
13 *295:83 *295:87 2.88 
14 *295:87 *1459:CLK 7.11 
15 *295:87 *1458:CLK 4.5 
16 *295:83 *1460:CLK 4.5 
*END

*D_NET *296 0.0193081
*CONN
*I *1444:CLK I *D gf180mcu_fd_sc_mcu7t5v0__dffrnq_1
*I *1462:CLK I *D gf180mcu_fd_sc_mcu7t5v0__dffsnq_1
*I *1474:CLK I *D gf180mcu_fd_sc_mcu7t5v0__dffrnq_1
*I *1516:I I *D gf180mcu_fd_sc_mcu7t5v0__clkbuf_2
*I *1472:CLK I *D gf180mcu_fd_sc_mcu7t5v0__dffrnq_1
*I *1443:CLK I *D gf180mcu_fd_sc_mcu7t5v0__dffrnq_1
*I *1442:CLK I *D gf180mcu_fd_sc_mcu7t5v0__dffrnq_1
*I *1471:CLK I *D gf180mcu_fd_sc_mcu7t5v0__dffrnq_1
*I *1441:CLK I *D gf180mcu_fd_sc_mcu7t5v0__dffrnq_1
*I *1509:Z O *D gf180mcu_fd_sc_mcu7t5v0__clkbuf_16
*CAP
1 *1444:CLK 0.00010313
2 *1462:CLK 0
3 *1474:CLK 0
4 *1516:I 0.00054561
5 *1472:CLK 0.000442884
6 *1443:CLK 0
7 *1442:CLK 0
8 *1471:CLK 0.000875571
9 *1441:CLK 0.000173454
10 *1509:Z 0.000422659
11 *296:63 0.000988494
12 *296:61 0.000263769
13 *296:55 0.0005792
14 *296:51 0.000830626
15 *296:44 0.000563956
16 *296:19 0.00102323
17 *296:6 0.000591881
18 *1441:CLK *306:119 8.64138e-05
19 *1444:CLK *326:14 0
20 *1444:CLK *341:10 2.98728e-05
21 *1471:CLK *1263:A3 6.07964e-05
22 *1471:CLK *1263:A4 0
23 *1471:CLK *1320:S 0
24 *1471:CLK *330:12 2.0621e-05
25 *1471:CLK *330:41 0.000183662
26 *1471:CLK *351:22 6.18939e-05
27 *1471:CLK *352:8 0
28 *1472:CLK *1264:A2 0
29 *1472:CLK *1318:A1 9.20679e-05
30 *1472:CLK *1318:A2 2.08301e-05
31 *1472:CLK *1323:S 0
32 *1472:CLK *305:22 3.94564e-05
33 *1472:CLK *330:41 0.000976801
34 *1516:I *1264:A2 0
35 *1516:I *1281:A2 1.39906e-05
36 *1516:I *308:65 3.03846e-05
37 *1516:I *308:82 0.000129275
38 *1516:I *349:83 0
39 *1516:I *352:39 0.000102988
40 *296:6 *1426:I 2.89427e-06
41 *296:6 *306:119 5.78854e-06
42 *296:19 *1355:A2 0
43 *296:44 *314:29 3.08083e-05
44 *296:51 *314:29 7.71021e-06
45 *296:51 *314:38 0.000556668
46 *296:51 *314:51 2.08301e-05
47 *296:51 *326:14 0
48 *296:55 *1298:A1 0
49 *296:55 *1299:A2 0
50 *296:55 *1428:I 0.00171066
51 *296:61 *1281:A2 0.000247379
52 *296:61 *1428:I 0.000244819
53 *296:61 *308:65 0.000572995
54 *296:61 *328:27 0.000499457
55 *296:61 *354:10 0
56 *1265:A2 *1516:I 0.000294421
57 *1299:A1 *296:55 0.000453197
58 *1299:A1 *296:61 0.000632512
59 *1299:B *296:55 0
60 *1319:B *1472:CLK 0.00146487
61 *1355:A3 *1471:CLK 0
62 *1355:A3 *296:6 0
63 *1355:A3 *296:19 0
64 *1441:D *1441:CLK 0.000124614
65 *1441:D *296:6 7.39648e-05
66 *1441:D *296:19 0
67 *1442:D *296:6 0.000325546
68 *1442:D *296:19 0.000302284
69 *1442:RN *296:44 0.000119182
70 *1443:D *296:44 7.191e-07
71 *1443:D *296:51 2.56915e-05
72 *1462:SETN *1444:CLK 0.000477353
73 *1462:SETN *296:51 3.01487e-05
74 *1471:D *1471:CLK 3.55118e-05
75 *1472:RN *1471:CLK 0.000143583
76 *1507:I *1472:CLK 0.000177893
77 *1507:I *296:61 0.000210271
78 *1520:I *1471:CLK 8.87455e-05
79 *1522:I *296:6 0
80 *142:25 *296:61 5.31432e-05
81 *142:36 *296:61 0.00062533
82 *231:14 *1471:CLK 6.71645e-05
83 *253:42 *1471:CLK 0.000428433
*RES
1 *1509:Z *296:6 6.93 
2 *296:6 *1441:CLK 6.12 
3 *296:6 *296:19 5.85 
4 *296:19 *1471:CLK 16.2 
5 *296:19 *1442:CLK 9 
6 *1509:Z *296:44 5.67 
7 *296:44 *1443:CLK 4.5 
8 *296:44 *296:51 3.87 
9 *296:51 *296:55 9.27 
10 *296:55 *296:61 10.08 
11 *296:61 *296:63 4.5 
12 *296:63 *1472:CLK 15.3 
13 *296:63 *1516:I 13.5 
14 *296:61 *1474:CLK 4.5 
15 *296:55 *1462:CLK 9 
16 *296:51 *1444:CLK 5.85 
*END

*D_NET *297 0.0124325
*CONN
*I *1453:CLK I *D gf180mcu_fd_sc_mcu7t5v0__dffrnq_1
*I *1452:CLK I *D gf180mcu_fd_sc_mcu7t5v0__dffrnq_1
*I *1473:CLK I *D gf180mcu_fd_sc_mcu7t5v0__dffrnq_1
*I *1454:CLK I *D gf180mcu_fd_sc_mcu7t5v0__dffrnq_1
*I *1491:CLK I *D gf180mcu_fd_sc_mcu7t5v0__dffrnq_1
*I *1500:CLK I *D gf180mcu_fd_sc_mcu7t5v0__dffsnq_1
*I *1503:CLK I *D gf180mcu_fd_sc_mcu7t5v0__dffsnq_1
*I *1478:CLK I *D gf180mcu_fd_sc_mcu7t5v0__dffsnq_1
*I *1510:Z O *D gf180mcu_fd_sc_mcu7t5v0__clkbuf_16
*CAP
1 *1453:CLK 0
2 *1452:CLK 0
3 *1473:CLK 0.000509414
4 *1454:CLK 0
5 *1491:CLK 0.000368524
6 *1500:CLK 0.000395765
7 *1503:CLK 0.00015907
8 *1478:CLK 7.85751e-05
9 *1510:Z 0.000379507
10 *297:67 0.00113074
11 *297:61 0.0010041
12 *297:57 0.000762285
13 *297:18 0.000875312
14 *297:10 0.00149185
15 *297:4 0.000826938
16 *1473:CLK *1385:I 0.000192205
17 *1491:CLK *1333:A2 5.97457e-06
18 *1500:CLK *1432:I 0
19 *1500:CLK *1528:I 0.000905777
20 *1500:CLK *360:8 2.32821e-05
21 *1500:CLK *360:23 2.65444e-06
22 *297:10 *1545:I 6.12809e-05
23 *297:18 *1393:I 0
24 *297:61 *1183:I 0.000119192
25 *297:67 *1268:A1 0
26 *297:67 *1288:I1 0
27 *1268:A2 *297:61 0
28 *1339:A2 *1500:CLK 0
29 *1454:D *1473:CLK 1.0415e-05
30 *1473:D *1473:CLK 0
31 *1478:SETN *1500:CLK 5.06604e-05
32 *1491:D *1491:CLK 5.97457e-06
33 *1500:SETN *297:61 3.02306e-05
34 *10:12 *297:10 0.000814501
35 *10:12 *297:18 0.00121565
36 *218:33 *1478:CLK 0.000297517
37 *218:33 *1503:CLK 0.000715101
*RES
1 *1510:Z *297:4 4.5 
2 *297:4 *297:10 8.28 
3 *297:10 *297:18 9.81 
4 *297:18 *1478:CLK 5.31 
5 *297:18 *1503:CLK 6.39 
6 *297:10 *1500:CLK 12.78 
7 *297:4 *1491:CLK 6.93 
8 *1510:Z *297:57 6.93 
9 *297:57 *297:61 2.88 
10 *297:61 *297:67 8.82 
11 *297:67 *1454:CLK 9 
12 *297:67 *1473:CLK 12.78 
13 *297:61 *1452:CLK 4.5 
14 *297:57 *1453:CLK 4.5 
*END

*D_NET *298 0.0157722
*CONN
*I *1490:CLK I *D gf180mcu_fd_sc_mcu7t5v0__dffrnq_1
*I *1498:CLK I *D gf180mcu_fd_sc_mcu7t5v0__dffrnq_1
*I *1487:CLK I *D gf180mcu_fd_sc_mcu7t5v0__dffrnq_1
*I *1488:CLK I *D gf180mcu_fd_sc_mcu7t5v0__dffrnq_1
*I *1489:CLK I *D gf180mcu_fd_sc_mcu7t5v0__dffrnq_1
*I *1517:I I *D gf180mcu_fd_sc_mcu7t5v0__clkbuf_2
*I *1481:CLK I *D gf180mcu_fd_sc_mcu7t5v0__dffrnq_1
*I *1482:CLK I *D gf180mcu_fd_sc_mcu7t5v0__dffrnq_1
*I *1483:CLK I *D gf180mcu_fd_sc_mcu7t5v0__dffrnq_1
*I *1511:Z O *D gf180mcu_fd_sc_mcu7t5v0__clkbuf_16
*CAP
1 *1490:CLK 0.000242727
2 *1498:CLK 0.000442428
3 *1487:CLK 0
4 *1488:CLK 0
5 *1489:CLK 0.000508937
6 *1517:I 4.63099e-05
7 *1481:CLK 0.000212672
8 *1482:CLK 0
9 *1483:CLK 0.000107017
10 *1511:Z 0.00051575
11 *298:64 0.00111346
12 *298:55 0.000874694
13 *298:46 0.0007126
14 *298:23 0.000549618
15 *298:14 0.000919128
16 *298:10 0.000855738
17 *298:8 0.000607286
18 *1489:CLK *318:31 0.000109653
19 *1489:CLK *347:10 4.8063e-05
20 *1490:CLK *1326:A3 0.000174039
21 *1490:CLK *1330:A1 2.83425e-05
22 *1490:CLK *325:61 0.000176998
23 *1498:CLK *1434:I 0
24 *1498:CLK *303:18 6.2979e-05
25 *1498:CLK *344:12 2.13487e-05
26 *1517:I *1251:A1 0.000567799
27 *1517:I *1251:A2 9.04462e-05
28 *1517:I *1251:A3 0.000124895
29 *1517:I *1529:I 0.000177559
30 *298:8 *1529:I 1.54694e-05
31 *298:8 *318:56 5.28867e-05
32 *298:10 *1251:A2 9.39061e-05
33 *298:10 *1529:I 2.40071e-05
34 *298:14 *1251:A2 0.000455748
35 *298:14 *345:29 0
36 *298:55 *1251:A3 0
37 *298:55 *1436:I 2.47703e-05
38 *298:55 *318:31 1.87707e-05
39 *298:64 *1335:A2 0
40 *298:64 *303:18 0.00230465
41 *298:64 *346:14 0.000109434
42 *1258:A2 *298:14 0
43 *1482:RN *298:55 4.5615e-05
44 *1482:RN *298:64 2.47238e-05
45 *1483:RN *1489:CLK 5.2102e-05
46 *1487:D *1498:CLK 5.97457e-06
47 *1487:D *298:64 0.000121103
48 *1488:D *298:64 0.000117402
49 *1490:D *1490:CLK 4.45729e-05
50 *1540:I *1489:CLK 0
51 *218:33 *1481:CLK 0.000995562
52 *218:33 *1483:CLK 0.000436469
53 *218:33 *298:23 0.00153858
*RES
1 *1511:Z *298:8 10.71 
2 *298:8 *298:10 1.71 
3 *298:10 *298:14 7.83 
4 *298:14 *1483:CLK 5.67 
5 *298:14 *298:23 4.05 
6 *298:23 *1482:CLK 4.5 
7 *298:23 *1481:CLK 7.11 
8 *298:10 *1517:I 10.53 
9 *298:8 *298:46 4.5 
10 *298:46 *1489:CLK 8.19 
11 *298:46 *298:55 1.53 
12 *298:55 *1488:CLK 4.5 
13 *298:55 *298:64 7.92 
14 *298:64 *1487:CLK 4.5 
15 *298:64 *1498:CLK 7.38 
16 *1511:Z *1490:CLK 11.43 
*END

*D_NET *299 0.018035
*CONN
*I *1450:CLK I *D gf180mcu_fd_sc_mcu7t5v0__dffrnq_1
*I *1445:CLK I *D gf180mcu_fd_sc_mcu7t5v0__dffrnq_1
*I *1518:I I *D gf180mcu_fd_sc_mcu7t5v0__clkbuf_2
*I *1455:CLK I *D gf180mcu_fd_sc_mcu7t5v0__dffrnq_1
*I *1475:CLK I *D gf180mcu_fd_sc_mcu7t5v0__dffrnq_1
*I *1456:CLK I *D gf180mcu_fd_sc_mcu7t5v0__dffrnq_1
*I *1464:CLK I *D gf180mcu_fd_sc_mcu7t5v0__dffsnq_1
*I *1463:CLK I *D gf180mcu_fd_sc_mcu7t5v0__dffrnq_1
*I *1461:CLK I *D gf180mcu_fd_sc_mcu7t5v0__dffrnq_1
*I *1512:Z O *D gf180mcu_fd_sc_mcu7t5v0__clkbuf_16
*CAP
1 *1450:CLK 0.000355429
2 *1445:CLK 0.000483512
3 *1518:I 0.000594021
4 *1455:CLK 9.19386e-05
5 *1475:CLK 0.000156212
6 *1456:CLK 3.44897e-05
7 *1464:CLK 0
8 *1463:CLK 0.000413577
9 *1461:CLK 3.61902e-05
10 *1512:Z 0.000506522
11 *299:60 0.000514464
12 *299:51 0.000691981
13 *299:43 0.000915722
14 *299:16 0.00082639
15 *299:14 0.000803803
16 *299:6 0.000736142
17 *1445:CLK *1368:A1 6.84043e-05
18 *1445:CLK *1530:I 5.3651e-05
19 *1445:CLK *317:66 9.34006e-05
20 *1445:CLK *317:90 4.57989e-05
21 *1445:CLK *318:87 4.45441e-05
22 *1445:CLK *318:94 2.31089e-05
23 *1445:CLK *329:12 3.98088e-05
24 *1450:CLK *1194:A2 2.08301e-05
25 *1450:CLK *1200:A1 1.58709e-05
26 *1450:CLK *370:16 4.6613e-06
27 *1455:CLK *1195:A1 0.000217317
28 *1455:CLK *1313:A2 0.000669742
29 *1455:CLK *305:66 0.000171937
30 *1455:CLK *334:8 0.000151455
31 *1463:CLK *1300:A2 1.51153e-05
32 *1463:CLK *1321:A1 0
33 *1463:CLK *307:45 0
34 *1475:CLK *328:27 0.00144611
35 *1518:I *1321:A1 3.73774e-06
36 *299:6 *335:10 9.04462e-05
37 *299:14 *1295:A2 0
38 *299:14 *335:10 0.000223398
39 *299:16 *1295:A2 2.30981e-05
40 *299:16 *1321:A1 0
41 *299:43 *335:10 0.00145814
42 *299:51 *1312:A2 0
43 *299:51 *1321:A1 4.15093e-05
44 *299:51 *335:10 2.82502e-05
45 *299:51 *335:12 1.44449e-05
46 *299:60 *328:27 0.00082741
47 *299:60 *328:34 7.55765e-06
48 *1199:A2 *1450:CLK 7.77227e-05
49 *1295:A1 *299:14 0
50 *1295:B *299:14 0.000507502
51 *1295:B *299:16 0
52 *1301:B *1461:CLK 4.31393e-06
53 *1301:B *1463:CLK 0.000178049
54 *1312:B *1518:I 5.65519e-05
55 *1312:B *299:51 0.000365454
56 *1314:B *1475:CLK 0.000496776
57 *1314:B *299:60 0.000150744
58 *1322:A1 *1450:CLK 0.00023753
59 *1322:A2 *1450:CLK 8.49208e-05
60 *1368:A2 *1445:CLK 1.68677e-06
61 *1450:D *1450:CLK 2.14269e-05
62 *1456:RN *299:6 5.78854e-06
63 *1456:RN *299:14 3.29394e-05
64 *1461:D *1463:CLK 0.000148576
65 *1461:D *299:16 1.61174e-05
66 *1464:D *299:14 4.6613e-06
67 *1464:D *299:16 4.76605e-05
68 *1475:D *1475:CLK 7.55765e-06
69 *1512:I *1450:CLK 0
70 *1512:I *1518:I 0.000100396
71 *1513:I *1450:CLK 0.000365492
72 *154:8 *1450:CLK 0.000329933
73 *253:42 *1475:CLK 2.23145e-05
74 *253:65 *1450:CLK 6.7004e-06
75 *253:65 *1475:CLK 0.000232014
76 *253:65 *1518:I 0
77 *253:65 *299:60 0.00157207
*RES
1 *1512:Z *299:6 4.77 
2 *299:6 *299:14 12.78 
3 *299:14 *299:16 2.61 
4 *299:16 *1461:CLK 4.77 
5 *299:16 *1463:CLK 7.74 
6 *299:14 *1464:CLK 4.5 
7 *299:6 *299:43 12.69 
8 *299:43 *299:51 11.88 
9 *299:51 *1456:CLK 4.77 
10 *299:51 *299:60 5.13 
11 *299:60 *1475:CLK 8.37 
12 *299:60 *1455:CLK 15.75 
13 *299:43 *1518:I 6.48 
14 *1512:Z *1445:CLK 12.69 
15 *1518:I *1450:CLK 13.32 
*END

*D_NET *300 0.0107061
*CONN
*I *1447:CLK I *D gf180mcu_fd_sc_mcu7t5v0__dffrnq_1
*I *1448:CLK I *D gf180mcu_fd_sc_mcu7t5v0__dffrnq_1
*I *1446:CLK I *D gf180mcu_fd_sc_mcu7t5v0__dffrnq_1
*I *1484:CLK I *D gf180mcu_fd_sc_mcu7t5v0__dffrnq_1
*I *1485:CLK I *D gf180mcu_fd_sc_mcu7t5v0__dffrnq_1
*I *1499:CLK I *D gf180mcu_fd_sc_mcu7t5v0__dffrnq_1
*I *1486:CLK I *D gf180mcu_fd_sc_mcu7t5v0__dffrnq_1
*I *1480:CLK I *D gf180mcu_fd_sc_mcu7t5v0__dffrnq_1
*I *1519:I I *D gf180mcu_fd_sc_mcu7t5v0__clkbuf_2
*I *1513:Z O *D gf180mcu_fd_sc_mcu7t5v0__clkbuf_16
*CAP
1 *1447:CLK 0.000541523
2 *1448:CLK 0.000202335
3 *1446:CLK 9.77022e-05
4 *1484:CLK 5.97221e-05
5 *1485:CLK 0.000148861
6 *1499:CLK 0.000331173
7 *1486:CLK 0
8 *1480:CLK 0.000173023
9 *1519:I 0.000251007
10 *1513:Z 0.000310805
11 *300:93 0.000743859
12 *300:33 0.000311082
13 *300:31 0.00123762
14 *300:27 0.00108365
15 *300:25 0.00043166
16 *300:8 0.000669638
17 *1446:CLK *1439:I 0.000444513
18 *1447:CLK *1374:A1 0
19 *1447:CLK *326:95 0
20 *1448:CLK *325:23 9.34006e-05
21 *1448:CLK *326:95 0
22 *1485:CLK *1228:A1 2.31089e-05
23 *1485:CLK *370:16 7.70028e-05
24 *1499:CLK *377:16 0.000121576
25 *1519:I *1161:I 2.8591e-05
26 *1519:I *325:27 0.000453188
27 *300:8 *325:25 0.000309993
28 *300:8 *325:27 0.000419316
29 *300:25 *370:16 0.000222872
30 *300:27 *370:16 0.000120172
31 *300:31 *1160:I 4.96361e-05
32 *300:31 *1161:I 0
33 *300:31 *1228:A3 0
34 *300:31 *1389:I 0
35 *300:31 *369:12 1.97308e-05
36 *300:31 *370:12 3.6437e-05
37 *300:31 *371:10 5.29547e-05
38 *300:31 *377:16 0
39 *1230:A1 *1480:CLK 1.06178e-05
40 *1230:A1 *1499:CLK 0.000129067
41 *1231:A4 *1480:CLK 0.000151427
42 *1232:A2 *1485:CLK 0.000121587
43 *1232:A2 *300:27 2.30981e-05
44 *1233:A1 *300:25 0.000130877
45 *1233:A3 *300:25 0
46 *1234:A2 *1519:I 0.000183662
47 *1324:A3 *1480:CLK 4.83522e-05
48 *1370:A2 *1447:CLK 9.10772e-05
49 *1371:A3 *1447:CLK 7.55765e-06
50 *1446:D *1447:CLK 0
51 *1484:D *300:25 0
52 *1484:RN *1447:CLK 0
53 *1484:RN *1448:CLK 0
54 *1485:D *1484:CLK 4.83522e-05
55 *1485:D *300:25 6.26074e-05
56 *1485:D *300:27 5.15282e-05
57 *1486:D *1499:CLK 1.0415e-05
58 *134:8 *300:31 0.000109508
59 *134:8 *300:33 3.45237e-05
60 *134:10 *1480:CLK 5.39521e-05
61 *134:10 *300:33 2.16372e-05
62 *164:10 *300:31 3.01575e-05
63 *199:17 *300:31 0.00012775
64 *201:8 *300:31 0
65 *201:8 *300:33 0
66 *201:14 *1480:CLK 0.000192205
67 *201:14 *300:33 0
*RES
1 *1513:Z *300:8 10.89 
2 *300:8 *1519:I 11.61 
3 *300:8 *300:25 6.75 
4 *300:25 *300:27 1.53 
5 *300:27 *300:31 11.43 
6 *300:31 *300:33 0.99 
7 *300:33 *1480:CLK 11.16 
8 *300:33 *1486:CLK 9 
9 *300:31 *1499:CLK 11.61 
10 *300:27 *1485:CLK 5.85 
11 *300:25 *1484:CLK 5.22 
12 *1513:Z *1446:CLK 10.17 
13 *1513:Z *300:93 4.5 
14 *300:93 *1448:CLK 6.03 
15 *300:93 *1447:CLK 8.19 
*END

*D_NET *301 0.0225664
*CONN
*I *1498:D I *D gf180mcu_fd_sc_mcu7t5v0__dffrnq_1
*I *1377:I0 I *D gf180mcu_fd_sc_mcu7t5v0__mux2_2
*I *1535:Z O *D gf180mcu_fd_sc_mcu7t5v0__dlyb_1
*CAP
1 *1498:D 0.000638423
2 *1377:I0 0.00017427
3 *1535:Z 0.000290808
4 *301:12 0.00699879
5 *301:10 0.00647691
6 *301:10 *367:8 0
7 *301:10 *367:23 0
8 *301:12 *367:23 0.00379681
9 *301:12 *367:38 0.00248853
10 *1480:D *1377:I0 0
11 *1480:RN *1498:D 0
12 *1493:RN *301:10 0.000109323
13 *1496:D *301:12 0.000429116
14 *1539:I *1377:I0 3.30038e-05
15 *235:18 *301:12 0.00112735
16 *259:10 *1377:I0 3.08806e-06
*RES
1 *1535:Z *301:10 15.39 
2 *301:10 *301:12 47.61 
3 *301:12 *1377:I0 14.67 
4 *301:12 *1498:D 18 
*END

*D_NET *302 0.00914019
*CONN
*I *1331:A1 I *D gf180mcu_fd_sc_mcu7t5v0__nor3_1
*I *1329:A1 I *D gf180mcu_fd_sc_mcu7t5v0__nor3_1
*I *1333:A1 I *D gf180mcu_fd_sc_mcu7t5v0__nor3_1
*I *1377:I1 I *D gf180mcu_fd_sc_mcu7t5v0__mux2_2
*I *1337:A1 I *D gf180mcu_fd_sc_mcu7t5v0__nor4_1
*I *1335:A1 I *D gf180mcu_fd_sc_mcu7t5v0__nor3_1
*I *1538:Z O *D gf180mcu_fd_sc_mcu7t5v0__clkbuf_2
*CAP
1 *1331:A1 0
2 *1329:A1 0
3 *1333:A1 0.000641123
4 *1377:I1 0.000231163
5 *1337:A1 0
6 *1335:A1 0
7 *1538:Z 0.000757855
8 *302:43 0.00107151
9 *302:39 0.000430383
10 *302:23 0.000526039
11 *302:16 0.000595393
12 *302:10 0.00105837
13 *1333:A1 *1193:I 3.31332e-05
14 *1333:A1 *1198:A2 0
15 *1333:A1 *1332:A1 0.000272355
16 *1333:A1 *1333:A2 1.78063e-05
17 *1333:A1 *1437:I 0.000107641
18 *1333:A1 *315:71 6.19076e-05
19 *1333:A1 *318:31 7.57695e-05
20 *1333:A1 *325:61 1.0415e-05
21 *1333:A1 *374:8 0
22 *302:10 *372:36 0
23 *302:10 *375:10 0
24 *302:16 *1193:I 0
25 *302:16 *1335:A2 1.61174e-05
26 *302:16 *316:51 0.000674404
27 *302:23 *1193:I 0
28 *302:23 *1335:A2 0.000199769
29 *302:23 *1337:A2 0.000151427
30 *302:43 *1193:I 0.000463056
31 *302:43 *316:51 9.04462e-05
32 *302:43 *325:61 0.000329339
33 *1231:A1 *302:10 0
34 *1333:A3 *1333:A1 0.000152121
35 *1335:A3 *302:16 5.69319e-05
36 *1337:A4 *1377:I1 2.71331e-05
37 *1337:A4 *302:23 7.191e-07
38 *1487:D *1377:I1 3.12455e-05
39 *1488:D *302:16 7.96333e-06
40 *1488:RN *302:43 0.000578516
41 *1489:D *1333:A1 4.14498e-05
42 *1490:D *302:10 0.000272679
43 *1491:D *1333:A1 0.000156008
*RES
1 *1538:Z *302:10 14.4 
2 *302:10 *302:16 7.38 
3 *302:16 *1335:A1 4.5 
4 *302:16 *302:23 2.61 
5 *302:23 *1337:A1 4.5 
6 *302:23 *1377:I1 6.12 
7 *302:10 *302:39 4.5 
8 *302:39 *302:43 5.4 
9 *302:43 *1333:A1 18.99 
10 *302:43 *1329:A1 4.5 
11 *302:39 *1331:A1 4.5 
*END

*D_NET *303 0.0108366
*CONN
*I *1327:A4 I *D gf180mcu_fd_sc_mcu7t5v0__nand4_1
*I *1326:A3 I *D gf180mcu_fd_sc_mcu7t5v0__nand3_1
*I *1325:A2 I *D gf180mcu_fd_sc_mcu7t5v0__nand2_1
*I *1334:A2 I *D gf180mcu_fd_sc_mcu7t5v0__xnor2_1
*I *1539:Z O *D gf180mcu_fd_sc_mcu7t5v0__buf_1
*CAP
1 *1327:A4 0.00010988
2 *1326:A3 0.000144833
3 *1325:A2 0.000117905
4 *1334:A2 0
5 *1539:Z 0.00083555
6 *303:40 0.000386498
7 *303:27 0.000518895
8 *303:18 0.00110475
9 *1325:A2 *1193:I 0
10 *1325:A2 *1325:A1 0.00037349
11 *1325:A2 *1334:A1 6.2979e-05
12 *1325:A2 *318:31 3.00327e-05
13 *1326:A3 *1326:A2 3.40411e-05
14 *1326:A3 *1330:A1 7.55765e-06
15 *1326:A3 *373:6 5.59098e-05
16 *1326:A3 *373:8 9.91544e-05
17 *1327:A4 *325:61 2.64071e-05
18 *1327:A4 *373:8 6.02974e-05
19 *1327:A4 *373:12 0.000436469
20 *303:18 *1434:I 0
21 *303:18 *1529:I 0
22 *303:18 *316:10 0.000221252
23 *303:18 *316:27 4.65643e-05
24 *303:18 *316:51 0.000518114
25 *303:18 *346:14 0.000128889
26 *303:27 *1334:A1 0.000907063
27 *303:27 *318:31 7.003e-06
28 *303:40 *318:56 0.000588773
29 *303:40 *373:36 0.00130211
30 *1481:RN *303:18 1.06822e-05
31 *1482:RN *303:18 8.82634e-05
32 *1488:D *303:27 2.03791e-05
33 *1490:CLK *1326:A3 0.000174039
34 *1498:CLK *303:18 6.2979e-05
35 *1539:I *303:18 5.12066e-05
36 *298:64 *303:18 0.00230465
*RES
1 *1539:Z *303:18 23.13 
2 *303:18 *1334:A2 4.5 
3 *303:18 *303:27 2.88 
4 *303:27 *1325:A2 5.85 
5 *303:27 *303:40 12.51 
6 *303:40 *1326:A3 6.39 
7 *303:40 *1327:A4 5.85 
*END

*D_NET *304 0.0046605
*CONN
*I *1256:A2 I *D gf180mcu_fd_sc_mcu7t5v0__nor2_1
*I *1259:A1 I *D gf180mcu_fd_sc_mcu7t5v0__oai22_1
*I *1252:B I *D gf180mcu_fd_sc_mcu7t5v0__aoi21_1
*I *1540:Z O *D gf180mcu_fd_sc_mcu7t5v0__clkbuf_1
*CAP
1 *1256:A2 7.57705e-05
2 *1259:A1 0
3 *1252:B 0
4 *1540:Z 0.000187714
5 *304:23 0.000500383
6 *304:12 0.000612327
7 *1256:A2 *1251:A3 0
8 *304:12 *1253:A1 3.12451e-05
9 *304:23 *1251:A3 0
10 *1253:A2 *304:12 9.04462e-05
11 *1255:A1 *304:12 0.000518361
12 *1257:A2 *304:23 0.000442682
13 *1258:A1 *304:23 0.000119346
14 *1259:A2 *304:23 0.000709023
15 *1260:B *1256:A2 0.000368293
16 *1260:B *304:23 2.65444e-06
17 *1483:D *304:23 7.77173e-05
18 *225:8 *1256:A2 0.000889027
19 *225:8 *304:23 3.55118e-05
*RES
1 *1540:Z *304:12 15.12 
2 *304:12 *1252:B 4.5 
3 *304:12 *304:23 5.49 
4 *304:23 *1259:A1 4.5 
5 *304:23 *1256:A2 6.93 
*END

*D_NET *305 0.0177755
*CONN
*I *1318:A2 I *D gf180mcu_fd_sc_mcu7t5v0__nand2_1
*I *1316:A2 I *D gf180mcu_fd_sc_mcu7t5v0__oai21_1
*I *1317:S I *D gf180mcu_fd_sc_mcu7t5v0__mux2_2
*I *1313:A2 I *D gf180mcu_fd_sc_mcu7t5v0__nand2_1
*I *1312:A2 I *D gf180mcu_fd_sc_mcu7t5v0__aoi21_1
*I *1311:A2 I *D gf180mcu_fd_sc_mcu7t5v0__nor2_1
*I *1314:A2 I *D gf180mcu_fd_sc_mcu7t5v0__oai21_1
*I *1315:A2 I *D gf180mcu_fd_sc_mcu7t5v0__nand2_1
*I *1323:S I *D gf180mcu_fd_sc_mcu7t5v0__mux2_2
*I *1320:S I *D gf180mcu_fd_sc_mcu7t5v0__mux2_2
*I *1520:Z O *D gf180mcu_fd_sc_mcu7t5v0__dlyb_1
*CAP
1 *1318:A2 6.50584e-05
2 *1316:A2 0
3 *1317:S 0
4 *1313:A2 0.000301133
5 *1312:A2 0.000134127
6 *1311:A2 0.000174089
7 *1314:A2 0
8 *1315:A2 0
9 *1323:S 9.05126e-05
10 *1320:S 0.000622345
11 *1520:Z 0.000137959
12 *305:83 0.000881192
13 *305:70 0.000635193
14 *305:66 0.000623426
15 *305:62 0.00060193
16 *305:58 0.000801019
17 *305:43 0.00182385
18 *305:35 0.00144997
19 *305:22 0.000595131
20 *1313:A2 *1300:A1 0.000213332
21 *1313:A2 *334:8 6.08466e-05
22 *1318:A2 *1318:A1 0.000129389
23 *1318:A2 *1323:I0 0.000291039
24 *1318:A2 *349:83 3.3982e-05
25 *1323:S *1287:S 2.98728e-05
26 *1323:S *1323:I0 0.000247379
27 *1323:S *349:83 6.97399e-05
28 *305:22 *1287:S 0
29 *305:22 *349:64 0.000135097
30 *305:35 *1323:I0 0.000238712
31 *305:35 *349:83 4.85447e-05
32 *305:58 *333:8 0.000330995
33 *305:58 *352:60 6.2083e-06
34 *305:62 *1195:A4 1.61174e-05
35 *305:62 *1198:A1 1.0415e-05
36 *305:62 *331:8 0.000214878
37 *305:62 *352:60 0.000242943
38 *305:66 *1195:A1 1.52191e-05
39 *305:66 *1300:A1 0.000462306
40 *305:83 *1202:A2 6.89765e-06
41 *305:83 *328:27 0
42 *305:83 *330:45 0.000273747
43 *1196:A2 *305:70 0.000418993
44 *1196:A2 *305:83 0.000746443
45 *1312:B *1311:A2 1.23607e-05
46 *1314:B *1313:A2 0.000435201
47 *1316:A1 *305:58 1.86887e-06
48 *1316:A1 *305:62 0
49 *1316:B *305:58 7.26011e-07
50 *1319:A2 *305:58 0
51 *1319:B *1323:S 0
52 *1319:B *305:58 0.000330995
53 *1452:D *305:58 1.81129e-05
54 *1452:D *305:62 7.71821e-06
55 *1453:RN *305:62 0.000321144
56 *1454:D *305:58 9.92405e-05
57 *1454:RN *305:62 0
58 *1455:D *305:70 0.000284991
59 *1455:RN *1313:A2 0
60 *1455:CLK *1313:A2 0.000669742
61 *1455:CLK *305:66 0.000171937
62 *1456:D *1311:A2 0.000183652
63 *1471:CLK *1320:S 0
64 *1472:CLK *1318:A2 2.08301e-05
65 *1472:CLK *1323:S 0
66 *1472:CLK *305:22 3.94564e-05
67 *1507:I *1318:A2 2.98619e-05
68 *1507:I *305:22 0
69 *1510:I *305:70 0
70 *141:29 *1313:A2 0
71 *153:27 *305:62 0.000762116
72 *253:65 *1311:A2 0.000968766
73 *253:65 *1313:A2 0.000236727
74 *299:51 *1312:A2 0
*RES
1 *1520:Z *1320:S 10.08 
2 *1320:S *305:22 12.33 
3 *305:22 *1323:S 10.26 
4 *305:22 *305:35 0.63 
5 *305:35 *305:43 21.51 
6 *305:43 *1315:A2 4.5 
7 *305:43 *305:58 13.23 
8 *305:58 *305:62 5.22 
9 *305:62 *305:66 7.29 
10 *305:66 *305:70 5.67 
11 *305:70 *1314:A2 4.5 
12 *305:70 *305:83 9.27 
13 *305:83 *1311:A2 11.61 
14 *305:83 *1312:A2 9.81 
15 *305:66 *1313:A2 13.14 
16 *305:62 *1317:S 4.5 
17 *305:58 *1316:A2 4.5 
18 *305:35 *1318:A2 10.08 
*END

*D_NET *306 0.0240257
*CONN
*I *1294:A2 I *D gf180mcu_fd_sc_mcu7t5v0__nand2_1
*I *1295:A2 I *D gf180mcu_fd_sc_mcu7t5v0__oai21_1
*I *1303:A2 I *D gf180mcu_fd_sc_mcu7t5v0__aoi21_1
*I *1302:A2 I *D gf180mcu_fd_sc_mcu7t5v0__nor2_1
*I *1309:A2 I *D gf180mcu_fd_sc_mcu7t5v0__aoi21_1
*I *1304:A2 I *D gf180mcu_fd_sc_mcu7t5v0__nor2_1
*I *1307:A2 I *D gf180mcu_fd_sc_mcu7t5v0__aoi21_1
*I *1305:A2 I *D gf180mcu_fd_sc_mcu7t5v0__aoi21_1
*I *1306:A2 I *D gf180mcu_fd_sc_mcu7t5v0__nor2_1
*I *1308:A2 I *D gf180mcu_fd_sc_mcu7t5v0__nor2_1
*I *1521:Z O *D gf180mcu_fd_sc_mcu7t5v0__dlyb_1
*CAP
1 *1294:A2 0.000350678
2 *1295:A2 0.000350581
3 *1303:A2 0.000176734
4 *1302:A2 0.00286953
5 *1309:A2 0
6 *1304:A2 0
7 *1307:A2 0.00015075
8 *1305:A2 0
9 *1306:A2 0.000327648
10 *1308:A2 0.000199369
11 *1521:Z 0
12 *306:119 0.00338959
13 *306:41 0.000510996
14 *306:35 0.000600165
15 *306:29 0.000689292
16 *306:25 0.000501404
17 *306:23 0.000259381
18 *306:21 0.000503217
19 *306:4 0.000525851
20 *1294:A2 *317:66 0.00105855
21 *1295:A2 *1300:A2 0
22 *1302:A2 *313:68 8.7064e-05
23 *1306:A2 *1421:I 0.000294421
24 *306:21 *313:68 9.633e-06
25 *306:25 *313:68 1.97172e-05
26 *306:29 *313:48 0.00015892
27 *306:29 *313:68 0.000391985
28 *306:35 *313:48 6.73437e-05
29 *306:35 *313:103 0
30 *306:119 *1211:B1 0
31 *306:119 *1302:A1 0.000204492
32 *306:119 *1355:A2 0.000966084
33 *306:119 *1357:A1 1.00099e-05
34 *306:119 *1429:I 0.000767364
35 *306:119 *307:8 0.000133728
36 *306:119 *307:26 0.000526649
37 *306:119 *307:45 0
38 *306:119 *313:68 1.51153e-05
39 *306:119 *314:29 5.30888e-06
40 *306:119 *314:38 0
41 *306:119 *314:51 0
42 *306:119 *317:40 6.35387e-05
43 *306:119 *317:53 6.35387e-05
44 *306:119 *317:66 0.000109514
45 *306:119 *326:22 0.00064954
46 *1211:B2 *1303:A2 8.49143e-05
47 *1295:A1 *1295:A2 0.000174506
48 *1295:B *1295:A2 7.191e-07
49 *1303:B *1302:A2 0.000257988
50 *1303:B *1303:A2 5.79792e-06
51 *1303:B *306:21 0
52 *1303:B *306:25 5.8316e-05
53 *1305:A1 *1306:A2 4.83522e-05
54 *1305:A1 *1307:A2 5.22092e-05
55 *1305:A1 *306:35 2.67326e-05
56 *1305:A1 *306:41 5.07419e-05
57 *1307:B *1306:A2 1.05432e-05
58 *1307:B *306:41 7.49728e-06
59 *1309:A1 *1303:A2 0.000175204
60 *1309:A1 *306:21 9.4836e-05
61 *1309:B *1308:A2 0.001706
62 *1355:A3 *306:119 0.000905787
63 *1358:A3 *306:119 4.9245e-05
64 *1441:RN *306:119 8.09276e-06
65 *1441:CLK *306:119 8.64138e-05
66 *1442:D *306:119 0.000153289
67 *1442:RN *306:119 0
68 *1457:D *306:21 0.000634842
69 *1457:RN *1303:A2 0.000153256
70 *1457:RN *306:25 0
71 *1457:RN *306:29 7.77173e-05
72 *1457:CLK *306:21 9.15641e-06
73 *1459:D *1306:A2 0.000300131
74 *1459:CLK *1306:A2 0.000558426
75 *1460:D *306:29 0
76 *1463:D *306:119 0.00037349
77 *1467:RN *1306:A2 1.85811e-05
78 *1522:I *306:119 0
79 *150:8 *1303:A2 9.39061e-05
80 *292:119 *1308:A2 0.000287151
81 *295:8 *1308:A2 8.02247e-05
82 *295:21 *1308:A2 0.000110764
83 *295:83 *306:29 0
84 *295:87 *1306:A2 0.000110849
85 *295:87 *306:29 0
86 *295:87 *306:35 0
87 *295:87 *306:41 0.00022342
88 *296:6 *306:119 5.78854e-06
89 *299:14 *1295:A2 0
90 *299:16 *1295:A2 2.30981e-05
*RES
1 *1521:Z *306:4 4.5 
2 *306:4 *1308:A2 17.91 
3 *306:4 *306:21 7.38 
4 *306:21 *306:23 4.5 
5 *306:23 *306:25 0.63 
6 *306:25 *306:29 4.14 
7 *306:29 *306:35 6.12 
8 *306:35 *306:41 5.76 
9 *306:41 *1306:A2 9.18 
10 *306:41 *1305:A2 4.5 
11 *306:35 *1307:A2 9.99 
12 *306:29 *1304:A2 4.5 
13 *306:25 *1309:A2 4.5 
14 *306:23 *1302:A2 6.48 
15 *306:21 *1303:A2 10.8 
16 *1302:A2 *306:119 32.67 
17 *306:119 *1295:A2 11.88 
18 *306:119 *1294:A2 12.6 
*END

*D_NET *307 0.00629129
*CONN
*I *1297:A2 I *D gf180mcu_fd_sc_mcu7t5v0__aoi21_1
*I *1300:A2 I *D gf180mcu_fd_sc_mcu7t5v0__nor2_1
*I *1301:A2 I *D gf180mcu_fd_sc_mcu7t5v0__aoi21_1
*I *1296:A2 I *D gf180mcu_fd_sc_mcu7t5v0__nor2_1
*I *1298:A2 I *D gf180mcu_fd_sc_mcu7t5v0__nand2_1
*I *1299:A2 I *D gf180mcu_fd_sc_mcu7t5v0__oai21_1
*I *1522:Z O *D gf180mcu_fd_sc_mcu7t5v0__dlyb_1
*CAP
1 *1297:A2 0
2 *1300:A2 0.000359948
3 *1301:A2 0
4 *1296:A2 0
5 *1298:A2 0
6 *1299:A2 0.000293541
7 *1522:Z 3.44897e-05
8 *307:45 0.000903634
9 *307:32 0.000732743
10 *307:26 0.000620296
11 *307:8 0.000427714
12 *307:6 0.000599902
13 *1299:A2 *1429:I 0
14 *1300:A2 *334:8 0
15 *307:8 *314:51 6.31783e-05
16 *307:26 *1530:I 2.18454e-05
17 *307:26 *317:27 7.70871e-05
18 *307:32 *1409:I 0
19 *307:32 *317:27 0
20 *1295:A1 *1300:A2 0
21 *1295:A2 *1300:A2 0
22 *1297:A1 *307:32 0.000164219
23 *1297:B *307:32 0.000400853
24 *1299:A1 *1299:A2 0
25 *1299:B *1299:A2 0.000754995
26 *1301:A1 *1300:A2 4.217e-05
27 *1461:D *1300:A2 0.000119182
28 *1463:D *307:45 0
29 *1463:CLK *1300:A2 1.51153e-05
30 *1463:CLK *307:45 0
31 *296:55 *1299:A2 0
32 *306:119 *307:8 0.000133728
33 *306:119 *307:26 0.000526649
34 *306:119 *307:45 0
*RES
1 *1522:Z *307:6 4.77 
2 *307:6 *307:8 1.35 
3 *307:8 *1299:A2 16.47 
4 *307:8 *1298:A2 4.5 
5 *307:6 *307:26 3.87 
6 *307:26 *307:32 10.89 
7 *307:32 *1296:A2 4.5 
8 *307:32 *307:45 3.6 
9 *307:45 *1301:A2 4.5 
10 *307:45 *1300:A2 16.2 
11 *307:26 *1297:A2 4.5 
*END

*D_NET *308 0.0211155
*CONN
*I *1286:S I *D gf180mcu_fd_sc_mcu7t5v0__mux2_2
*I *1278:A2 I *D gf180mcu_fd_sc_mcu7t5v0__nand2_1
*I *1279:A2 I *D gf180mcu_fd_sc_mcu7t5v0__oai21_1
*I *1284:S I *D gf180mcu_fd_sc_mcu7t5v0__mux2_2
*I *1285:S I *D gf180mcu_fd_sc_mcu7t5v0__mux2_2
*I *1280:A2 I *D gf180mcu_fd_sc_mcu7t5v0__nor2_1
*I *1281:A2 I *D gf180mcu_fd_sc_mcu7t5v0__aoi21_1
*I *1282:A2 I *D gf180mcu_fd_sc_mcu7t5v0__nand2_1
*I *1283:A2 I *D gf180mcu_fd_sc_mcu7t5v0__oai21_1
*I *1287:S I *D gf180mcu_fd_sc_mcu7t5v0__mux2_2
*I *1523:Z O *D gf180mcu_fd_sc_mcu7t5v0__dlyb_1
*CAP
1 *1286:S 0.000250895
2 *1278:A2 0.000324768
3 *1279:A2 0
4 *1284:S 0
5 *1285:S 0.000652476
6 *1280:A2 0
7 *1281:A2 6.53982e-05
8 *1282:A2 0
9 *1283:A2 0.000130834
10 *1287:S 0.000883805
11 *1523:Z 0.00120776
12 *308:96 0.000399002
13 *308:82 0.0011534
14 *308:65 0.00088227
15 *308:52 0.000278085
16 *308:48 0.000327706
17 *308:28 0.000136127
18 *308:26 0.000500487
19 *1278:A2 *1280:A1 0
20 *1278:A2 *328:27 1.19491e-05
21 *1278:A2 *352:39 8.31143e-06
22 *1283:A2 *1282:A1 0.000109323
23 *1285:S *1284:I1 4.33691e-05
24 *1285:S *1285:I0 0.00046972
25 *1285:S *330:12 8.53098e-05
26 *1285:S *350:25 0.000242152
27 *1285:S *350:38 0.00110385
28 *1285:S *351:16 0.00116201
29 *1285:S *351:22 7.52352e-05
30 *1285:S *352:14 0.000302466
31 *1285:S *352:39 7.10237e-05
32 *1286:S *1285:I0 0.000106536
33 *1286:S *350:25 0.00170554
34 *1287:S *1403:I 6.02757e-05
35 *1287:S *348:12 0
36 *1287:S *348:14 0
37 *1287:S *349:64 1.56779e-05
38 *308:26 *1315:A1 1.39088e-05
39 *308:26 *1403:I 1.0415e-05
40 *308:26 *1427:I 0.000413804
41 *308:28 *1282:A1 0.000109323
42 *308:28 *352:39 0.000283821
43 *308:48 *1315:A1 6.85292e-05
44 *308:48 *352:39 0.00141577
45 *308:48 *353:10 0.000115921
46 *308:52 *328:27 3.75396e-05
47 *308:82 *1264:A2 9.85004e-05
48 *308:82 *1280:A1 4.6613e-06
49 *308:82 *1321:A1 0.000201397
50 *308:82 *352:14 0
51 *308:82 *352:39 0.000224506
52 *308:96 *328:27 2.56384e-05
53 *1264:A3 *308:82 0
54 *1265:A1 *1285:S 0.000109981
55 *1265:A1 *308:82 9.00027e-05
56 *1265:A2 *308:82 0.000183652
57 *1279:A1 *1278:A2 3.25224e-05
58 *1281:A1 *308:52 9.04462e-05
59 *1283:A1 *1283:A2 0.000609231
60 *1283:A1 *308:28 0.000356703
61 *1283:A1 *308:48 0.000134399
62 *1319:B *1287:S 0
63 *1323:S *1287:S 2.98728e-05
64 *1449:D *1287:S 4.74921e-05
65 *1449:SETN *1287:S 0
66 *1467:CLK *1286:S 0.00111097
67 *1508:I *1286:S 7.1531e-06
68 *1509:I *1286:S 4.88829e-05
69 *1516:I *1281:A2 1.39906e-05
70 *1516:I *308:65 3.03846e-05
71 *1516:I *308:82 0.000129275
72 *1523:I *1287:S 0
73 *142:25 *308:48 0.000178801
74 *142:25 *308:52 0.000286386
75 *231:14 *1285:S 1.7795e-05
76 *231:14 *308:82 1.79237e-05
77 *253:42 *1278:A2 4.78725e-05
78 *253:42 *1285:S 2.81008e-05
79 *253:42 *308:52 0.000620052
80 *253:42 *308:82 0
81 *253:42 *308:96 0.000283705
82 *296:61 *1281:A2 0.000247379
83 *296:61 *308:65 0.000572995
84 *305:22 *1287:S 0
*RES
1 *1523:Z *1287:S 15.12 
2 *1523:Z *308:26 11.97 
3 *308:26 *308:28 0.99 
4 *308:28 *1283:A2 10.89 
5 *308:28 *1282:A2 9 
6 *308:26 *308:48 8.19 
7 *308:48 *308:52 6.21 
8 *308:52 *1281:A2 9.63 
9 *308:52 *308:65 6.03 
10 *308:65 *1280:A2 4.5 
11 *308:65 *308:82 15.12 
12 *308:82 *1285:S 12.15 
13 *308:82 *1284:S 4.5 
14 *308:48 *308:96 0.81 
15 *308:96 *1279:A2 4.5 
16 *308:96 *1278:A2 15.3 
17 *1285:S *1286:S 14.13 
*END

*D_NET *309 0.000222525
*CONN
*I *1545:I I *D gf180mcu_fd_sc_mcu7t5v0__buf_3
*I *1478:Q O *D gf180mcu_fd_sc_mcu7t5v0__dffsnq_1
*CAP
1 *1545:I 8.06218e-05
2 *1478:Q 8.06218e-05
3 *1545:I *315:32 0
4 *297:10 *1545:I 6.12809e-05
*RES
1 *1478:Q *1545:I 18.63 
*END

*D_NET *310 0.0178291
*CONN
*I *1433:I I *D gf180mcu_fd_sc_mcu7t5v0__clkinv_1
*I *1382:I I *D gf180mcu_fd_sc_mcu7t5v0__clkinv_1
*I *1423:I I *D gf180mcu_fd_sc_mcu7t5v0__clkinv_1
*I *1391:I I *D gf180mcu_fd_sc_mcu7t5v0__clkinv_1
*I *1430:I I *D gf180mcu_fd_sc_mcu7t5v0__clkinv_1
*I *1431:I I *D gf180mcu_fd_sc_mcu7t5v0__clkinv_1
*I *1419:I I *D gf180mcu_fd_sc_mcu7t5v0__clkinv_1
*I *1386:I I *D gf180mcu_fd_sc_mcu7t5v0__clkinv_1
*I *1387:I I *D gf180mcu_fd_sc_mcu7t5v0__clkinv_1
*I *1383:I I *D gf180mcu_fd_sc_mcu7t5v0__clkinv_1
*I *1524:Z O *D gf180mcu_fd_sc_mcu7t5v0__dlyb_1
*CAP
1 *1433:I 0
2 *1382:I 0
3 *1423:I 0.000450272
4 *1391:I 0
5 *1430:I 0
6 *1431:I 0.00031457
7 *1419:I 0.000371897
8 *1386:I 0
9 *1387:I 0
10 *1383:I 0.000393679
11 *1524:Z 0
12 *310:96 0.000812922
13 *310:88 0.000831728
14 *310:66 0.000548742
15 *310:53 0.000826435
16 *310:47 0.000837047
17 *310:36 0.000674597
18 *310:32 0.000732321
19 *310:10 0.00060119
20 *310:4 0.000412837
21 *1383:I *1532:I 0.000212984
22 *1419:I *1292:I0 0.000193098
23 *1419:I *1292:I1 7.77173e-05
24 *1419:I *1541:I 1.34641e-05
25 *1423:I *349:12 5.04118e-05
26 *1423:I *349:64 5.30888e-06
27 *310:10 *1532:I 0.000191637
28 *310:10 *319:6 0
29 *310:32 *319:6 0
30 *310:32 *319:30 0.000350785
31 *310:36 *319:30 2.18192e-06
32 *310:36 *327:10 0
33 *310:53 *1292:I0 6.96434e-05
34 *310:53 *319:62 3.60189e-05
35 *310:66 *1289:A1 1.18477e-05
36 *310:66 *319:62 0.000241433
37 *310:88 *1292:I0 0.000117209
38 *310:88 *348:24 0.00011375
39 *310:96 *1308:A1 0.000346434
40 *310:96 *348:24 0.000757565
41 *310:96 *364:10 0
42 cap_ctrl[0] *1419:I 0
43 *1275:A1 *310:66 0.000427579
44 *1275:B *1431:I 0
45 *1276:A2 *310:88 0.000119182
46 *1277:A1 *310:66 0.00110914
47 *1291:S *310:66 2.14175e-05
48 *1292:S *310:66 0.000254252
49 *1310:A1 *1431:I 0.000156008
50 *1341:A1 *310:36 0.000840429
51 *1341:B1 *310:36 0.000114761
52 *1342:A2 *310:36 0.00071501
53 *1345:A2 *310:88 0
54 *1451:D *1423:I 0.000110619
55 *1465:RN *1419:I 0.000515537
56 *1466:CLK *1431:I 8.65572e-05
57 *1469:RN *1423:I 0.000444513
58 *1477:RN *1431:I 9.55009e-05
59 *1477:CLK *310:47 9.4913e-06
60 *1477:CLK *310:53 0.000166798
61 *1477:CLK *310:66 0.000510671
62 *1493:RN *310:32 0
63 *1496:RN *310:47 7.84385e-05
64 *1497:D *1383:I 3.92088e-05
65 *1497:D *310:32 5.07033e-06
66 *1497:D *310:36 9.39823e-05
67 *1497:RN *1383:I 5.69319e-05
68 *1501:D *310:47 0.000233481
69 *1501:D *310:88 0.000233757
70 *1506:I *1423:I 0.000461857
71 *1506:I *310:96 2.98619e-05
72 *139:10 *310:66 3.55431e-05
73 *237:19 *310:96 0
74 *237:34 *310:96 0
75 *270:22 *310:36 0.0001078
76 *293:22 *310:53 4.09777e-05
77 *293:22 *310:88 3.19217e-06
78 *293:24 *310:36 6.88857e-05
79 *293:24 *310:47 3.08806e-06
80 *293:30 *1383:I 8.76817e-06
81 *293:30 *310:10 3.11077e-05
*RES
1 *1524:Z *310:4 4.5 
2 *310:4 *310:10 6.48 
3 *310:10 *1383:I 12.06 
4 *310:10 *1387:I 9 
5 *310:4 *310:32 1.62 
6 *310:32 *310:36 10.35 
7 *310:36 *1386:I 9 
8 *310:36 *310:47 6.03 
9 *310:47 *310:53 6.3 
10 *310:53 *1419:I 12.51 
11 *310:53 *310:66 10.35 
12 *310:66 *1431:I 7.11 
13 *310:66 *1430:I 4.5 
14 *310:47 *310:88 4.41 
15 *310:88 *310:96 12.78 
16 *310:96 *1391:I 4.5 
17 *310:96 *1423:I 9.54 
18 *310:88 *1382:I 4.5 
19 *310:32 *1433:I 4.5 
*END

*D_NET *311 0.016341
*CONN
*I *1392:I I *D gf180mcu_fd_sc_mcu7t5v0__clkinv_1
*I *1422:I I *D gf180mcu_fd_sc_mcu7t5v0__clkinv_1
*I *1385:I I *D gf180mcu_fd_sc_mcu7t5v0__clkinv_1
*I *1427:I I *D gf180mcu_fd_sc_mcu7t5v0__clkinv_1
*I *1403:I I *D gf180mcu_fd_sc_mcu7t5v0__clkinv_1
*I *1384:I I *D gf180mcu_fd_sc_mcu7t5v0__clkinv_1
*I *1394:I I *D gf180mcu_fd_sc_mcu7t5v0__clkinv_1
*I *1525:Z O *D gf180mcu_fd_sc_mcu7t5v0__dlyb_1
*CAP
1 *1392:I 0.000413038
2 *1422:I 3.44897e-05
3 *1385:I 0.000218654
4 *1427:I 0.000145071
5 *1403:I 0.000116865
6 *1384:I 0.000839664
7 *1394:I 0.000149159
8 *1525:Z 0.000323971
9 *311:58 0.000895278
10 *311:52 0.00120833
11 *311:50 0.000657887
12 *311:31 0.00182986
13 *311:14 0.00100917
14 *311:10 0.000873886
15 *1394:I *319:30 0.000345423
16 *1427:I *1315:A1 1.61174e-05
17 *311:10 *358:10 3.5827e-05
18 *311:10 *359:27 0.000102397
19 *311:31 *1246:A3 4.79098e-05
20 *311:31 *367:38 1.13241e-05
21 *311:58 *1264:A2 0
22 *311:58 *365:8 7.41861e-05
23 *1248:A3 *1394:I 6.71551e-05
24 *1248:A3 *311:31 0.000205191
25 *1287:S *1403:I 6.02757e-05
26 *1319:B *1403:I 4.76605e-05
27 *1319:B *1427:I 6.72818e-05
28 *1339:A1 *1392:I 0.00173785
29 *1339:A1 *311:14 0.000496776
30 *1348:A1 *311:31 0
31 *1449:CLK *311:31 0.000263461
32 *1449:CLK *311:50 0.000498544
33 *1468:RN *311:52 8.69576e-05
34 *1469:D *1384:I 0
35 *1469:CLK *1384:I 0.000231975
36 *1473:RN *1427:I 0.000436469
37 *1473:CLK *1385:I 0.000192205
38 *1495:RN *1385:I 0.000703432
39 *1502:SETN *1392:I 7.01651e-05
40 *1504:SETN *311:14 0.000161479
41 *207:25 *1384:I 3.01487e-05
42 *216:8 *311:31 0.000271481
43 *217:12 *1394:I 0.000189567
44 *217:12 *311:14 0.000221777
45 *217:12 *311:31 4.843e-05
46 *217:16 *311:31 1.17934e-05
47 *269:16 *1392:I 0
48 *269:32 *1392:I 1.17725e-05
49 *269:32 *1394:I 3.02306e-05
50 *269:32 *311:14 5.9065e-05
51 *270:22 *1384:I 0
52 *270:22 *311:31 0.000362319
53 *294:58 *311:10 4.78857e-06
54 *308:26 *1403:I 1.0415e-05
55 *308:26 *1427:I 0.000413804
*RES
1 *1525:Z *311:10 15.39 
2 *311:10 *311:14 6.39 
3 *311:14 *1394:I 10.8 
4 *311:14 *311:31 6.03 
5 *311:31 *1384:I 14.85 
6 *311:31 *311:50 7.2 
7 *311:50 *311:52 2.25 
8 *311:52 *311:58 13.95 
9 *311:58 *1403:I 5.49 
10 *311:58 *1427:I 7.11 
11 *311:52 *1385:I 7.11 
12 *311:50 *1422:I 4.77 
13 *311:10 *1392:I 9.27 
*END

*D_NET *312 0.00096561
*CONN
*I *1532:I I *D gf180mcu_fd_sc_mcu7t5v0__dlyb_1
*I *1536:Z O *D gf180mcu_fd_sc_mcu7t5v0__dlyb_1
*CAP
1 *1532:I 0.000245621
2 *1536:Z 0.000245621
3 *1383:I *1532:I 0.000212984
4 *1497:D *1532:I 0
5 *1497:RN *1532:I 6.97472e-05
6 *310:10 *1532:I 0.000191637
*RES
1 *1536:Z *1532:I 20.52 
*END

*D_NET *313 0.016674
*CONN
*I *1413:I I *D gf180mcu_fd_sc_mcu7t5v0__clkinv_1
*I *1414:I I *D gf180mcu_fd_sc_mcu7t5v0__clkinv_1
*I *1412:I I *D gf180mcu_fd_sc_mcu7t5v0__clkinv_1
*I *1395:I I *D gf180mcu_fd_sc_mcu7t5v0__clkinv_1
*I *1425:I I *D gf180mcu_fd_sc_mcu7t5v0__clkinv_1
*I *1405:I I *D gf180mcu_fd_sc_mcu7t5v0__clkinv_1
*I *1411:I I *D gf180mcu_fd_sc_mcu7t5v0__clkinv_1
*I *1424:I I *D gf180mcu_fd_sc_mcu7t5v0__clkinv_1
*I *1421:I I *D gf180mcu_fd_sc_mcu7t5v0__clkinv_1
*I *1420:I I *D gf180mcu_fd_sc_mcu7t5v0__clkinv_1
*I *1526:Z O *D gf180mcu_fd_sc_mcu7t5v0__dlyb_1
*CAP
1 *1413:I 0.000372479
2 *1414:I 0
3 *1412:I 0.000233899
4 *1395:I 0.000232522
5 *1425:I 9.639e-05
6 *1405:I 0.000683442
7 *1411:I 0.000179214
8 *1424:I 0
9 *1421:I 0.000377311
10 *1420:I 0.000239877
11 *1526:Z 0
12 *313:118 0.000752635
13 *313:103 0.00105151
14 *313:70 0.000979039
15 *313:68 0.00118366
16 *313:48 0.00129388
17 *313:40 0.000852599
18 *313:12 0.00076067
19 *313:6 0.000195894
20 *1395:I *1302:A1 4.22217e-05
21 *1405:I *1263:A4 9.72182e-06
22 *1405:I *1320:I1 6.90764e-05
23 *1405:I *351:10 0.000276564
24 *1412:I *1174:I 0
25 *1413:I *1175:I 2.08301e-05
26 *1413:I *337:10 2.17099e-05
27 *1413:I *338:10 1.56779e-05
28 *1413:I *338:25 0.000752218
29 *1420:I *1291:I1 6.13096e-05
30 *1420:I *1306:A1 0
31 *1420:I *319:62 0.000817609
32 *1421:I *1290:I1 0.000839017
33 *313:12 *1306:A1 6.17613e-06
34 *313:40 *1290:I1 6.95539e-05
35 *313:40 *1306:A1 0.000204168
36 *313:48 *1290:I1 5.1058e-05
37 *313:48 *1306:A1 6.34901e-05
38 *313:48 *350:8 5.68741e-05
39 *313:68 *1302:A1 0.000119182
40 *313:70 *1302:A1 8.59696e-05
41 *313:70 *351:10 0.000224075
42 *313:103 *1290:I1 0.000100251
43 *313:103 *1306:A1 6.98034e-05
44 *313:103 *1543:I 2.57662e-05
45 *1212:B2 *313:118 2.5343e-05
46 *1302:A2 *313:68 8.7064e-05
47 *1303:B *1395:I 0
48 *1305:A1 *313:103 0.000298647
49 *1305:A1 *313:118 7.29784e-05
50 *1305:B *313:48 8.10723e-05
51 *1306:A2 *1421:I 0.000294421
52 *1307:A1 *313:103 0.000215359
53 *1307:B *313:48 5.05634e-06
54 *1441:D *1395:I 0
55 *1457:D *313:68 0
56 *1458:RN *1412:I 8.49143e-05
57 *1458:RN *1413:I 0
58 *1458:RN *313:103 1.86249e-05
59 *1458:RN *313:118 0
60 *1459:D *1421:I 1.18477e-05
61 *1466:RN *1420:I 0.00052864
62 *1467:RN *1421:I 0.000223398
63 *1471:RN *1425:I 9.55009e-05
64 *1522:I *1425:I 0.000127736
65 *148:12 *1412:I 0
66 *148:12 *313:118 7.72457e-05
67 *149:8 *313:103 8.68398e-06
68 *149:23 *1412:I 7.73282e-05
69 *149:23 *313:118 0.000190096
70 *295:87 *313:48 0
71 *306:21 *313:68 9.633e-06
72 *306:25 *313:68 1.97172e-05
73 *306:29 *313:48 0.00015892
74 *306:29 *313:68 0.000391985
75 *306:35 *313:48 6.73437e-05
76 *306:35 *313:103 0
77 *306:119 *313:68 1.51153e-05
*RES
1 *1526:Z *313:6 9 
2 *313:6 *313:12 1.35 
3 *313:12 *1420:I 12.69 
4 *313:12 *1421:I 13.41 
5 *313:6 *313:40 1.17 
6 *313:40 *313:48 7.83 
7 *313:48 *1424:I 4.5 
8 *313:48 *1411:I 14.67 
9 *313:48 *313:68 10.53 
10 *313:68 *313:70 2.43 
11 *313:70 *1405:I 14.31 
12 *313:70 *1425:I 10.08 
13 *313:68 *1395:I 10.71 
14 *313:40 *313:103 9.45 
15 *313:103 *1412:I 6.12 
16 *313:103 *313:118 7.56 
17 *313:118 *1414:I 9 
18 *313:118 *1413:I 12.06 
*END

*D_NET *314 0.0129445
*CONN
*I *1397:I I *D gf180mcu_fd_sc_mcu7t5v0__clkinv_1
*I *1416:I I *D gf180mcu_fd_sc_mcu7t5v0__clkinv_1
*I *1398:I I *D gf180mcu_fd_sc_mcu7t5v0__clkinv_1
*I *1428:I I *D gf180mcu_fd_sc_mcu7t5v0__clkinv_1
*I *1396:I I *D gf180mcu_fd_sc_mcu7t5v0__clkinv_1
*I *1426:I I *D gf180mcu_fd_sc_mcu7t5v0__clkinv_1
*I *1527:Z O *D gf180mcu_fd_sc_mcu7t5v0__dlyb_1
*CAP
1 *1397:I 0.0005913
2 *1416:I 0
3 *1398:I 0.000702254
4 *1428:I 0.000359671
5 *1396:I 0
6 *1426:I 0.000566984
7 *1527:Z 2.43483e-05
8 *314:51 0.000942508
9 *314:38 0.0010064
10 *314:29 0.000466996
11 *314:25 0.0010143
12 *314:6 0.000953811
13 *1397:I *381:12 0.00063587
14 *1398:I *1298:A1 0.00010602
15 *1398:I *326:12 0.000262133
16 *1426:I *1527:I 0.00021072
17 *1426:I *352:8 3.60262e-05
18 *1428:I *354:10 6.34031e-05
19 *314:6 *1355:A2 0
20 *314:51 *341:25 0
21 *1220:A1 *1397:I 3.22348e-05
22 *1355:A3 *1426:I 4.21768e-05
23 *1358:A3 *314:29 3.54696e-05
24 *1442:D *1426:I 2.20694e-05
25 *1442:D *314:6 7.191e-07
26 *1442:RN *314:29 3.01487e-05
27 *1443:RN *1397:I 0.000223398
28 *1462:SETN *314:51 0.000834763
29 *1505:I *1398:I 0
30 *1509:I *1426:I 0.000207693
31 *1522:I *1426:I 7.82936e-05
32 *1522:I *314:6 3.22348e-05
33 *165:6 *1397:I 0.000119182
34 *199:86 *1397:I 0.00050188
35 *199:86 *314:25 0.00016201
36 *283:12 *1398:I 3.65607e-05
37 *296:6 *1426:I 2.89427e-06
38 *296:44 *314:29 3.08083e-05
39 *296:51 *314:29 7.71021e-06
40 *296:51 *314:38 0.000556668
41 *296:51 *314:51 2.08301e-05
42 *296:55 *1428:I 0.00171066
43 *296:61 *1428:I 0.000244819
44 *306:119 *314:29 5.30888e-06
45 *306:119 *314:38 0
46 *306:119 *314:51 0
47 *307:8 *314:51 6.31783e-05
*RES
1 *1527:Z *314:6 4.77 
2 *314:6 *1426:I 18.45 
3 *314:6 *314:25 7.11 
4 *314:25 *314:29 5.13 
5 *314:29 *1396:I 4.5 
6 *314:29 *314:38 3.78 
7 *314:38 *1428:I 18.45 
8 *314:38 *314:51 2.61 
9 *314:51 *1398:I 18.99 
10 *314:51 *1416:I 4.5 
11 *314:25 *1397:I 15.48 
*END

*D_NET *315 0.0163231
*CONN
*I *1407:I I *D gf180mcu_fd_sc_mcu7t5v0__clkinv_1
*I *1381:I I *D gf180mcu_fd_sc_mcu7t5v0__clkinv_1
*I *1379:I I *D gf180mcu_fd_sc_mcu7t5v0__clkinv_1
*I *1193:I I *D gf180mcu_fd_sc_mcu7t5v0__clkinv_1
*I *1437:I I *D gf180mcu_fd_sc_mcu7t5v0__clkinv_1
*I *1406:I I *D gf180mcu_fd_sc_mcu7t5v0__clkinv_1
*I *1408:I I *D gf180mcu_fd_sc_mcu7t5v0__clkinv_1
*I *1390:I I *D gf180mcu_fd_sc_mcu7t5v0__clkinv_1
*I *1432:I I *D gf180mcu_fd_sc_mcu7t5v0__clkinv_1
*I *1393:I I *D gf180mcu_fd_sc_mcu7t5v0__clkinv_1
*I *1528:Z O *D gf180mcu_fd_sc_mcu7t5v0__dlyb_1
*CAP
1 *1407:I 0.000277851
2 *1381:I 0
3 *1379:I 0
4 *1193:I 0.0013589
5 *1437:I 0.000721275
6 *1406:I 0
7 *1408:I 0.000408331
8 *1390:I 0
9 *1432:I 3.24316e-05
10 *1393:I 0.000211506
11 *1528:Z 0
12 *315:71 0.00237183
13 *315:69 0.00048795
14 *315:65 0.000770425
15 *315:61 0.00111004
16 *315:45 0.000663355
17 *315:43 0.000933865
18 *315:32 0.00115715
19 *315:21 0.000852805
20 *315:6 0.000295503
21 *1193:I *1325:A1 2.03791e-05
22 *1193:I *1332:A1 1.17725e-05
23 *1193:I *1333:A2 2.64902e-05
24 *1193:I *1334:A1 5.65194e-05
25 *1193:I *1336:A1 0
26 *1193:I *1337:A2 4.76678e-05
27 *1193:I *1388:I 0
28 *1193:I *316:51 0.000140022
29 *1193:I *316:62 0.000162902
30 *1408:I *352:60 2.20693e-05
31 *1437:I *1253:A1 0
32 *1437:I *347:10 0
33 *315:43 *1183:I 4.27403e-05
34 *315:45 *352:60 3.55867e-05
35 *315:61 *1300:A1 2.43247e-05
36 *315:65 *1198:A1 0
37 *315:65 *376:6 0
38 *315:69 *1198:A2 0
39 *315:69 *1328:A1 0
40 *315:69 *374:27 0
41 *315:71 *1332:A1 0
42 *315:71 *374:27 0
43 *1255:A1 *1437:I 0
44 *1268:A2 *315:32 2.70125e-05
45 *1268:A2 *315:43 8.3187e-05
46 *1325:A2 *1193:I 0
47 *1329:A3 *315:69 0
48 *1332:A2 *1193:I 7.59619e-05
49 *1333:A1 *1193:I 3.31332e-05
50 *1333:A1 *1437:I 0.000107641
51 *1333:A1 *315:71 6.19076e-05
52 *1337:A4 *1193:I 0
53 *1339:A2 *1432:I 0.000507492
54 *1452:RN *1408:I 0.000109215
55 *1453:D *315:43 0.00104909
56 *1453:D *315:45 1.39839e-05
57 *1453:D *315:61 6.93035e-05
58 *1453:RN *1407:I 0.000250184
59 *1454:D *1408:I 0
60 *1478:SETN *1432:I 0.000436469
61 *1489:RN *315:71 0.000176901
62 *1491:D *1193:I 8.44253e-05
63 *1491:RN *315:65 0.000515537
64 *1500:CLK *1432:I 0
65 *1545:I *315:32 0
66 *292:66 *1407:I 1.4958e-05
67 *292:66 *315:65 0
68 *297:18 *1393:I 0
69 *302:16 *1193:I 0
70 *302:23 *1193:I 0
71 *302:43 *1193:I 0.000463056
*RES
1 *1528:Z *315:6 9 
2 *315:6 *1393:I 10.71 
3 *315:6 *315:21 0.45 
4 *315:21 *1432:I 10.35 
5 *315:21 *315:32 4.23 
6 *315:32 *1390:I 9 
7 *315:32 *315:43 9.45 
8 *315:43 *315:45 1.71 
9 *315:45 *1408:I 7.38 
10 *315:45 *1406:I 4.5 
11 *315:43 *315:61 1.89 
12 *315:61 *315:65 4.5 
13 *315:65 *315:69 6.03 
14 *315:69 *315:71 2.97 
15 *315:71 *1437:I 13.23 
16 *315:71 *1193:I 20.16 
17 *315:69 *1379:I 9 
18 *315:65 *1381:I 4.5 
19 *315:61 *1407:I 7.2 
*END

*D_NET *316 0.0185729
*CONN
*I *1440:I I *D gf180mcu_fd_sc_mcu7t5v0__clkinv_1
*I *1380:I I *D gf180mcu_fd_sc_mcu7t5v0__clkinv_1
*I *1388:I I *D gf180mcu_fd_sc_mcu7t5v0__clkinv_1
*I *1378:I I *D gf180mcu_fd_sc_mcu7t5v0__clkinv_1
*I *1434:I I *D gf180mcu_fd_sc_mcu7t5v0__clkinv_1
*I *1435:I I *D gf180mcu_fd_sc_mcu7t5v0__clkinv_1
*I *1436:I I *D gf180mcu_fd_sc_mcu7t5v0__clkinv_1
*I *1529:Z O *D gf180mcu_fd_sc_mcu7t5v0__dlyb_1
*CAP
1 *1440:I 0.000337492
2 *1380:I 0.000160653
3 *1388:I 0.000858462
4 *1378:I 0
5 *1434:I 0.000310347
6 *1435:I 0
7 *1436:I 0.000127921
8 *1529:Z 0
9 *316:73 0.00071499
10 *316:62 0.00125019
11 *316:51 0.000631476
12 *316:27 0.000923688
13 *316:10 0.00100079
14 *316:6 0.000716125
15 *1380:I *1202:A2 2.18208e-05
16 *1380:I *372:36 0.000193087
17 *1388:I *1336:A1 0.000425752
18 *1388:I *372:10 2.73748e-05
19 *1434:I *1544:I 5.78854e-06
20 *1434:I *344:25 5.5916e-05
21 *1436:I *1251:A3 0.00100536
22 *1440:I *1202:A1 0.00035975
23 *1440:I *325:27 0.000497347
24 *1440:I *372:36 0
25 *316:10 *346:14 5.45223e-05
26 *316:27 *1251:A3 6.24909e-05
27 *316:27 *344:25 0.000457527
28 *316:51 *325:55 1.07374e-05
29 *316:62 *1336:A1 1.47929e-05
30 *316:62 *325:29 0.000247389
31 *316:62 *325:31 0.000166798
32 *316:62 *325:55 0.000248121
33 *316:73 *1336:A1 8.32424e-05
34 *316:73 *325:27 0.000947965
35 *316:73 *325:29 0.00115841
36 *316:73 *372:23 5.47541e-05
37 *316:73 *372:36 0.000211673
38 *1193:I *1388:I 0
39 *1193:I *316:51 0.000140022
40 *1193:I *316:62 0.000162902
41 *1229:A1 *1388:I 0
42 *1337:A4 *1388:I 0
43 *1480:D *1388:I 2.03826e-05
44 *1481:RN *316:27 0.000631871
45 *1482:RN *1436:I 0.00106483
46 *1482:RN *316:27 0.000507502
47 *1483:RN *1436:I 0
48 *1487:RN *1388:I 0.000641505
49 *1488:RN *316:51 7.65425e-05
50 *1498:RN *1388:I 0.000231442
51 *1498:CLK *1434:I 0
52 *1539:I *1434:I 2.26729e-05
53 *1539:I *316:27 4.95209e-05
54 *27:10 *1388:I 5.30888e-06
55 *201:14 *1388:I 0
56 *259:10 *1388:I 7.82936e-05
57 *259:10 *316:62 2.1847e-05
58 *298:55 *1436:I 2.47703e-05
59 *302:16 *316:51 0.000674404
60 *302:43 *316:51 9.04462e-05
61 *303:18 *1434:I 0
62 *303:18 *316:10 0.000221252
63 *303:18 *316:27 4.65643e-05
64 *303:18 *316:51 0.000518114
*RES
1 *1529:Z *316:6 9 
2 *316:6 *316:10 6.03 
3 *316:10 *1436:I 8.01 
4 *316:10 *316:27 6.93 
5 *316:27 *1435:I 4.5 
6 *316:27 *1434:I 6.75 
7 *316:6 *316:51 9.27 
8 *316:51 *1378:I 4.5 
9 *316:51 *316:62 7.2 
10 *316:62 *1388:I 16.29 
11 *316:62 *316:73 5.31 
12 *316:73 *1380:I 10.35 
13 *316:73 *1440:I 12.6 
*END

*D_NET *317 0.0300493
*CONN
*I *1399:I I *D gf180mcu_fd_sc_mcu7t5v0__clkinv_1
*I *1401:I I *D gf180mcu_fd_sc_mcu7t5v0__clkinv_1
*I *1400:I I *D gf180mcu_fd_sc_mcu7t5v0__clkinv_1
*I *1389:I I *D gf180mcu_fd_sc_mcu7t5v0__clkinv_1
*I *1418:I I *D gf180mcu_fd_sc_mcu7t5v0__clkinv_1
*I *1410:I I *D gf180mcu_fd_sc_mcu7t5v0__clkinv_1
*I *1415:I I *D gf180mcu_fd_sc_mcu7t5v0__clkinv_1
*I *1409:I I *D gf180mcu_fd_sc_mcu7t5v0__clkinv_1
*I *1417:I I *D gf180mcu_fd_sc_mcu7t5v0__clkinv_1
*I *1429:I I *D gf180mcu_fd_sc_mcu7t5v0__clkinv_1
*I *1530:Z O *D gf180mcu_fd_sc_mcu7t5v0__dlyb_1
*CAP
1 *1399:I 0.000456715
2 *1401:I 0.000562014
3 *1400:I 7.60827e-05
4 *1389:I 0.00138119
5 *1418:I 3.18094e-05
6 *1410:I 0.0003604
7 *1415:I 0
8 *1409:I 0.00090927
9 *1417:I 4.31705e-05
10 *1429:I 0.000485694
11 *1530:Z 0
12 *317:98 0.00170099
13 *317:96 0.00143365
14 *317:90 0.00175929
15 *317:66 0.00152947
16 *317:53 0.000556606
17 *317:40 0.00109231
18 *317:27 0.00045849
19 *317:4 0.000811978
20 *1389:I *1190:I 0.000268435
21 *1389:I *1228:A3 2.35868e-05
22 *1389:I *370:8 0.00033406
23 *1389:I *370:12 8.79625e-05
24 *1399:I *383:8 3.72323e-05
25 *1399:I *385:45 0.000155203
26 *1399:I *386:10 0.000155203
27 *1401:I *1373:A1 0
28 *1401:I *385:8 0
29 *1401:I *385:27 2.14748e-05
30 *1409:I *1296:A1 0
31 *1409:I *334:8 0.000126976
32 *1410:I *1530:I 4.08296e-05
33 *1410:I *318:56 0
34 *1429:I *1167:I 0
35 *1429:I *1321:A1 0
36 *317:27 *1530:I 0.000488731
37 *317:40 *1530:I 0.000499457
38 *317:53 *1530:I 0.000460159
39 *317:66 *1530:I 0.00207253
40 *317:90 *1530:I 8.67164e-05
41 *317:90 *383:8 3.31517e-06
42 *317:90 *383:14 2.08967e-05
43 *317:96 *1366:A1 0.000294421
44 *317:96 *1369:A1 2.9185e-05
45 *317:96 *326:80 0.000110864
46 *317:96 *326:95 1.27836e-05
47 *317:96 *384:8 0.00172753
48 *317:96 *384:14 0.000117181
49 *317:96 *384:49 0.000537526
50 *317:96 *385:27 5.69593e-05
51 *317:98 *1370:A1 0.000188271
52 *317:98 *1373:A1 0
53 *1264:A3 *1429:I 9.20679e-05
54 *1294:A2 *317:66 0.00105855
55 *1297:A1 *1409:I 0
56 *1297:A1 *1417:I 0.000164228
57 *1297:A1 *317:27 3.34727e-05
58 *1297:B *1409:I 0
59 *1299:A2 *1429:I 0
60 *1301:A1 *1409:I 0
61 *1367:A2 *317:90 0.000601513
62 *1368:A2 *1418:I 3.44834e-06
63 *1368:A2 *317:90 3.01487e-05
64 *1373:A2 *317:96 0.000347276
65 *1375:A2 *1399:I 0
66 *1445:RN *1399:I 0
67 *1445:CLK *317:66 9.34006e-05
68 *1445:CLK *317:90 4.57989e-05
69 *1446:RN *317:96 3.18876e-05
70 *1446:RN *317:98 0.000726573
71 *1447:RN *1401:I 0.000507492
72 *1461:RN *317:66 0.000231442
73 *1464:SETN *317:66 1.92032e-05
74 *1499:RN *1389:I 8.49143e-05
75 *1505:I *1429:I 0.000158748
76 *1505:I *317:27 0
77 *141:8 *1429:I 0.000308353
78 *199:76 *317:66 2.782e-05
79 *199:76 *317:90 5.3289e-05
80 *201:8 *1389:I 0.0008099
81 *283:35 *317:96 1.39839e-05
82 *285:27 *317:96 0.0019181
83 *300:31 *1389:I 0
84 *306:119 *1429:I 0.000767364
85 *306:119 *317:40 6.35387e-05
86 *306:119 *317:53 6.35387e-05
87 *306:119 *317:66 0.000109514
88 *307:26 *317:27 7.70871e-05
89 *307:32 *1409:I 0
90 *307:32 *317:27 0
*RES
1 *1530:Z *317:4 4.5 
2 *317:4 *1429:I 18.45 
3 *317:4 *317:27 11.88 
4 *317:27 *1417:I 13.95 
5 *317:27 *317:40 1.35 
6 *317:40 *1409:I 19.53 
7 *317:40 *317:53 1.35 
8 *317:53 *1415:I 4.5 
9 *317:53 *317:66 8.28 
10 *317:66 *1410:I 16.11 
11 *317:66 *1418:I 4.77 
12 *317:66 *317:90 9.54 
13 *317:90 *317:96 20.07 
14 *317:96 *317:98 2.97 
15 *317:98 *1389:I 20.7 
16 *317:98 *1400:I 9.45 
17 *317:96 *1401:I 13.68 
18 *317:90 *1399:I 13.05 
*END

*D_NET *318 0.0313711
*CONN
*I *1438:I I *D gf180mcu_fd_sc_mcu7t5v0__clkinv_1
*I *1402:I I *D gf180mcu_fd_sc_mcu7t5v0__clkinv_1
*I *1439:I I *D gf180mcu_fd_sc_mcu7t5v0__clkinv_1
*I *1404:I I *D gf180mcu_fd_sc_mcu7t5v0__clkinv_1
*I *1530:I I *D gf180mcu_fd_sc_mcu7t5v0__dlyb_1
*I *1529:I I *D gf180mcu_fd_sc_mcu7t5v0__dlyb_1
*I *1528:I I *D gf180mcu_fd_sc_mcu7t5v0__dlyb_1
*I *1531:Z O *D gf180mcu_fd_sc_mcu7t5v0__dlyb_1
*CAP
1 *1438:I 0
2 *1402:I 0.00103787
3 *1439:I 0.000851838
4 *1404:I 0
5 *1530:I 0.0011946
6 *1529:I 0.000675586
7 *1528:I 0.00028963
8 *1531:Z 0
9 *318:94 0.00222046
10 *318:87 0.000438772
11 *318:56 0.00335964
12 *318:31 0.0040071
13 *318:4 0.00156413
14 *1402:I *1368:A1 9.11911e-05
15 *1402:I *1375:A1 3.58953e-05
16 *1402:I *325:23 0
17 *1402:I *326:95 0
18 *1402:I *386:10 3.56708e-05
19 *1439:I *1371:A1 0.00122854
20 *1528:I *360:8 0.000149282
21 *1529:I *1251:A1 3.22348e-05
22 *1529:I *1251:A2 3.0177e-06
23 *1529:I *1251:A3 0.000603321
24 *1529:I *346:14 2.97368e-05
25 *1530:I *1171:I 0
26 *1530:I *1224:A4 0
27 *1530:I *329:12 2.61192e-05
28 *1530:I *341:25 2.8591e-05
29 *318:31 *1333:A2 1.59267e-05
30 *318:31 *347:10 9.95694e-05
31 *318:31 *360:8 3.56486e-05
32 *318:56 *1194:A2 0.000340015
33 *318:56 *1330:A1 5.28652e-05
34 *318:56 *329:12 0.000919424
35 *318:56 *373:36 1.24166e-05
36 *318:56 *374:44 0.000203986
37 *318:56 *375:10 0.000183657
38 *318:94 *1368:A1 0
39 *318:94 *329:12 4.78445e-05
40 *1203:B2 *318:56 0.000109731
41 *1205:C2 *318:56 7.72406e-05
42 *1206:A2 *318:56 0.000624717
43 *1206:A4 *318:56 0.000148722
44 *1322:B *318:56 0.00038197
45 *1325:A2 *318:31 3.00327e-05
46 *1332:A2 *318:31 0
47 *1333:A1 *318:31 7.57695e-05
48 *1333:A3 *318:31 4.27009e-05
49 *1339:A2 *1528:I 0
50 *1339:A2 *318:31 0
51 *1368:A3 *1402:I 6.12653e-05
52 *1371:A3 *1439:I 1.14516e-05
53 *1372:A3 *1402:I 1.73058e-05
54 *1375:A2 *1402:I 0.000179087
55 *1410:I *1530:I 4.08296e-05
56 *1410:I *318:56 0
57 *1445:D *1530:I 7.50811e-05
58 *1445:CLK *1530:I 5.3651e-05
59 *1445:CLK *318:87 4.45441e-05
60 *1445:CLK *318:94 2.31089e-05
61 *1446:D *1439:I 6.95653e-05
62 *1446:CLK *1439:I 0.000444513
63 *1448:RN *1402:I 0.000231442
64 *1450:RN *318:94 0.000231442
65 *1461:RN *1530:I 0.000231442
66 *1463:RN *1530:I 9.55009e-05
67 *1464:SETN *1530:I 0.000768036
68 *1484:RN *1439:I 0.000141002
69 *1485:RN *1439:I 0.000498062
70 *1489:D *318:31 0.000345207
71 *1489:CLK *318:31 0.000109653
72 *1500:CLK *1528:I 0.000905777
73 *1513:I *318:56 0
74 *1517:I *1529:I 0.000177559
75 *199:76 *1530:I 0.00059859
76 *285:23 *1402:I 1.82595e-05
77 *292:72 *318:56 0.00035686
78 *298:8 *1529:I 1.54694e-05
79 *298:8 *318:56 5.28867e-05
80 *298:10 *1529:I 2.40071e-05
81 *298:55 *318:31 1.87707e-05
82 *303:18 *1529:I 0
83 *303:27 *318:31 7.003e-06
84 *303:40 *318:56 0.000588773
85 *307:26 *1530:I 2.18454e-05
86 *317:27 *1530:I 0.000488731
87 *317:40 *1530:I 0.000499457
88 *317:53 *1530:I 0.000460159
89 *317:66 *1530:I 0.00207253
90 *317:90 *1530:I 8.67164e-05
*RES
1 *1531:Z *318:4 4.5 
2 *318:4 *1528:I 7.83 
3 *318:4 *318:31 14.13 
4 *318:31 *1529:I 13.59 
5 *318:31 *318:56 24.93 
6 *318:56 *1530:I 38.52 
7 *318:56 *318:87 0.63 
8 *318:87 *1404:I 4.5 
9 *318:87 *318:94 2.61 
10 *318:94 *1439:I 13.32 
11 *318:94 *1402:I 21.78 
12 *318:94 *1438:I 4.5 
*END

*D_NET *319 0.0320821
*CONN
*I *1527:I I *D gf180mcu_fd_sc_mcu7t5v0__dlyb_1
*I *1526:I I *D gf180mcu_fd_sc_mcu7t5v0__dlyb_1
*I *1524:I I *D gf180mcu_fd_sc_mcu7t5v0__dlyb_1
*I *1531:I I *D gf180mcu_fd_sc_mcu7t5v0__dlyb_1
*I *1525:I I *D gf180mcu_fd_sc_mcu7t5v0__dlyb_1
*I *1532:Z O *D gf180mcu_fd_sc_mcu7t5v0__dlyb_1
*CAP
1 *1527:I 0.00130859
2 *1526:I 0
3 *1524:I 0
4 *1531:I 0.00088027
5 *1525:I 0
6 *1532:Z 0.00174208
7 *319:62 0.00291375
8 *319:30 0.00230463
9 *319:6 0.00156129
10 *1531:I *358:43 0.000790543
11 *319:30 *1338:A1 2.17721e-05
12 *319:30 *327:16 0
13 *319:30 *358:12 0.000665559
14 *319:30 *358:43 0.000119192
15 *319:30 *366:35 0
16 *319:62 *1291:I1 0.000313676
17 *319:62 *1292:I1 0.000251568
18 *319:62 *357:10 2.13441e-06
19 *319:62 *367:8 0
20 *319:62 *367:23 0
21 *1237:A2 *319:30 0.000499457
22 *1250:A1 *1531:I 5.24732e-06
23 *1264:A3 *1527:I 7.96333e-06
24 *1266:A2 *319:30 1.4382e-06
25 *1267:B *319:30 0
26 *1270:A2 *319:30 0.00196769
27 *1275:A1 *319:62 0.000470268
28 *1290:S *1527:I 7.69202e-05
29 *1290:S *319:62 3.54696e-05
30 *1291:S *319:62 0
31 *1338:A2 *319:30 0.000677064
32 *1339:A1 *1531:I 0.00238204
33 *1339:A1 *319:30 0.000327261
34 *1339:A2 *1531:I 0.000779809
35 *1341:A1 *319:30 1.79158e-05
36 *1394:I *319:30 0.000345423
37 *1420:I *319:62 0.000817609
38 *1426:I *1527:I 0.00021072
39 *1465:D *319:62 0.000571898
40 *1465:CLK *319:62 1.20019e-05
41 *1466:D *319:62 0.00018095
42 *1467:D *1527:I 0.00010569
43 *1467:D *319:62 0.000152309
44 *1467:CLK *1527:I 0
45 *1477:CLK *319:62 6.15984e-05
46 *1479:RN *319:30 0.000182253
47 *1493:RN *319:6 0.000496766
48 *1493:RN *319:30 0
49 *1493:RN *319:62 0.000106536
50 *1497:D *319:30 0.000216974
51 *1503:SETN *1531:I 0.000134664
52 *1508:I *1527:I 6.06112e-05
53 *1509:I *1527:I 0.000690124
54 *1522:I *1527:I 0.00389251
55 *139:10 *319:62 0.000216025
56 *206:6 *319:30 0.00015306
57 *207:10 *319:30 0.000482101
58 *211:10 *319:30 0
59 *217:12 *319:30 0.000229759
60 *218:12 *1531:I 1.27919e-05
61 *218:33 *1531:I 2.79319e-05
62 *220:10 *1531:I 0.000129584
63 *244:12 *1527:I 0.000695311
64 *268:14 *319:30 2.2743e-05
65 *269:32 *319:30 0.000165448
66 *269:34 *319:30 0
67 *293:24 *319:62 0.000234954
68 *293:26 *319:62 1.43535e-05
69 *293:30 *319:30 0.000701021
70 *293:30 *319:62 4.31832e-06
71 *310:10 *319:6 0
72 *310:32 *319:6 0
73 *310:32 *319:30 0.000350785
74 *310:36 *319:30 2.18192e-06
75 *310:53 *319:62 3.60189e-05
76 *310:66 *319:62 0.000241433
*RES
1 *1532:Z *319:6 5.85 
2 *319:6 *319:30 28.44 
3 *319:30 *1525:I 4.5 
4 *319:30 *1531:I 17.19 
5 *319:6 *1524:I 4.5 
6 *1532:Z *319:62 31.95 
7 *319:62 *1526:I 4.5 
8 *319:62 *1527:I 21.6 
*END

*D_NET *320 0.0010363
*CONN
*I *1504:D I *D gf180mcu_fd_sc_mcu7t5v0__dffsnq_1
*I *1537:Z O *D gf180mcu_fd_sc_mcu7t5v0__dlyb_1
*CAP
1 *1504:D 0.0002476
2 *1537:Z 0.0002476
3 *1504:D *1184:I 2.63429e-05
4 *1272:A2 *1504:D 7.82853e-05
5 *211:16 *1504:D 0.000436469
*RES
1 *1537:Z *1504:D 20.34 
*END

*D_NET *321 0.00221013
*CONN
*I *1292:I1 I *D gf180mcu_fd_sc_mcu7t5v0__mux2_2
*I *1541:I I *D gf180mcu_fd_sc_mcu7t5v0__dlyb_1
*I *1465:Q O *D gf180mcu_fd_sc_mcu7t5v0__dffrnq_1
*CAP
1 *1292:I1 0.000362058
2 *1541:I 0.000440079
3 *1465:Q 0
4 *321:4 0.000802137
5 *1292:I1 *1292:I0 1.84368e-05
6 cap_ctrl[0] *1541:I 0.000204104
7 *1275:A2 *1541:I 0
8 *1292:S *1292:I1 3.01487e-05
9 *1419:I *1292:I1 7.77173e-05
10 *1419:I *1541:I 1.34641e-05
11 *1477:D *1292:I1 0
12 *1477:CLK *1292:I1 1.0415e-05
13 *319:62 *1292:I1 0.000251568
*RES
1 *1465:Q *321:4 4.5 
2 *321:4 *1541:I 7.92 
3 *321:4 *1292:I1 16.74 
*END

*D_NET *322 0.00263747
*CONN
*I *1291:I1 I *D gf180mcu_fd_sc_mcu7t5v0__mux2_2
*I *1542:I I *D gf180mcu_fd_sc_mcu7t5v0__dlyb_1
*I *1466:Q O *D gf180mcu_fd_sc_mcu7t5v0__dffrnq_1
*CAP
1 *1291:I1 0.000472623
2 *1542:I 0.000273118
3 *1466:Q 0
4 *322:4 0.000745741
5 *1291:I1 *1290:I1 0
6 *1291:I1 *1306:A1 5.12225e-05
7 *1291:I1 *349:33 0
8 cap_ctrl[1] *1542:I 0
9 *1290:S *1291:I1 0.000671844
10 *1291:S *1291:I1 4.21513e-05
11 *1420:I *1291:I1 6.13096e-05
12 *1466:RN *1291:I1 0
13 *1466:RN *1542:I 0
14 *1467:D *1291:I1 5.77941e-06
15 *319:62 *1291:I1 0.000313676
*RES
1 *1466:Q *322:4 4.5 
2 *322:4 *1542:I 6.39 
3 *322:4 *1291:I1 18.54 
*END

*D_NET *323 0.00705958
*CONN
*I *1543:I I *D gf180mcu_fd_sc_mcu7t5v0__dlyb_1
*I *1290:I1 I *D gf180mcu_fd_sc_mcu7t5v0__mux2_2
*I *1467:Q O *D gf180mcu_fd_sc_mcu7t5v0__dffrnq_1
*CAP
1 *1543:I 0.000786677
2 *1290:I1 0.000744085
3 *1467:Q 0
4 *323:6 0.00153076
5 *1290:I1 *1306:A1 0
6 *1290:I1 *350:8 0.000160397
7 *1290:I1 *350:10 0.000154694
8 *1290:I1 *350:14 0.000152103
9 *1543:I *1174:I 3.42509e-05
10 *1543:I *1175:I 0.0006195
11 *1543:I *338:10 0.000151353
12 *1290:S *1290:I1 0
13 *1291:I1 *1290:I1 0
14 *1307:A1 *1543:I 0.000713491
15 *1421:I *1290:I1 0.000839017
16 *1458:RN *1543:I 1.17934e-05
17 *1459:D *1290:I1 0.000101624
18 *1459:D *1543:I 0.00048192
19 *1459:RN *1543:I 9.55009e-05
20 *1470:RN *1290:I1 0
21 *149:8 *1543:I 0.000126457
22 *244:12 *1290:I1 0.000109323
23 *313:40 *1290:I1 6.95539e-05
24 *313:48 *1290:I1 5.1058e-05
25 *313:103 *1290:I1 0.000100251
26 *313:103 *1543:I 2.57662e-05
*RES
1 *1467:Q *323:6 9 
2 *323:6 *1290:I1 25.11 
3 *323:6 *1543:I 18 
*END

*D_NET *324 0.00241831
*CONN
*I *1544:I I *D gf180mcu_fd_sc_mcu7t5v0__dlyb_1
*I *1377:Z O *D gf180mcu_fd_sc_mcu7t5v0__mux2_2
*CAP
1 *1544:I 0.00107369
2 *1377:Z 0.00107369
3 *1544:I *1261:A1 9.72182e-06
4 *1544:I *344:12 5.79699e-05
5 *1544:I *344:25 0.000175108
6 *1544:I *345:10 0
7 *1262:A1 *1544:I 0
8 *1262:A2 *1544:I 2.65444e-06
9 *1434:I *1544:I 5.78854e-06
10 *1480:D *1544:I 0
11 *1481:RN *1544:I 1.96864e-05
12 *1539:I *1544:I 0
*RES
1 *1377:Z *1544:I 24.57 
*END

*D_NET *325 0.0232215
*CONN
*I *1371:A1 I *D gf180mcu_fd_sc_mcu7t5v0__nor3_1
*I *1233:A2 I *D gf180mcu_fd_sc_mcu7t5v0__nor3_1
*I *1235:A2 I *D gf180mcu_fd_sc_mcu7t5v0__nor3_1
*I *1231:A2 I *D gf180mcu_fd_sc_mcu7t5v0__nor4_1
*I *1331:A2 I *D gf180mcu_fd_sc_mcu7t5v0__nor3_1
*I *1329:A2 I *D gf180mcu_fd_sc_mcu7t5v0__nor3_1
*I *1333:A2 I *D gf180mcu_fd_sc_mcu7t5v0__nor3_1
*I *1337:A2 I *D gf180mcu_fd_sc_mcu7t5v0__nor4_1
*I *1335:A2 I *D gf180mcu_fd_sc_mcu7t5v0__nor3_1
*I *1368:A1 I *D gf180mcu_fd_sc_mcu7t5v0__nor4_1
*I *1533:Z O *D gf180mcu_fd_sc_mcu7t5v0__dlyb_1
*CAP
1 *1371:A1 0.000126615
2 *1233:A2 7.30988e-05
3 *1235:A2 0.000205242
4 *1231:A2 0.000299491
5 *1331:A2 0
6 *1329:A2 0
7 *1333:A2 0.000662991
8 *1337:A2 9.37581e-05
9 *1335:A2 0.000267095
10 *1368:A1 0.000333837
11 *1533:Z 0
12 *325:97 0.000278341
13 *325:61 0.00119842
14 *325:55 0.000704698
15 *325:31 0.00061281
16 *325:29 0.00064992
17 *325:27 0.00119694
18 *325:25 0.00112559
19 *325:23 0.00123146
20 *325:4 0.000981848
21 *1231:A2 *372:10 0
22 *1235:A2 *370:16 0
23 *1333:A2 *1332:A1 0.000266572
24 *1368:A1 *329:12 0.000183662
25 *325:23 *326:95 1.86887e-06
26 *325:55 *1330:A1 0
27 *325:61 *1198:A2 0
28 *325:61 *1330:A1 0
29 *325:61 *373:12 0
30 *1193:I *1333:A2 2.64902e-05
31 *1193:I *1337:A2 4.76678e-05
32 *1231:A1 *1231:A2 0.00040142
33 *1231:A1 *325:27 9.6931e-05
34 *1233:A1 *1233:A2 0.000103168
35 *1233:A1 *1235:A2 4.76544e-05
36 *1235:A1 *1235:A2 0.000246513
37 *1235:A1 *325:27 5.61609e-05
38 *1235:A3 *1235:A2 1.17725e-05
39 *1324:A2 *1231:A2 0
40 *1324:A3 *1231:A2 1.03692e-05
41 *1327:A4 *325:61 2.64071e-05
42 *1331:A3 *325:55 0.000294431
43 *1331:A3 *325:61 3.01487e-05
44 *1332:A2 *1333:A2 2.30981e-05
45 *1333:A1 *1333:A2 1.78063e-05
46 *1333:A1 *325:61 1.0415e-05
47 *1333:A3 *1333:A2 0.00073438
48 *1368:A2 *1368:A1 1.0415e-05
49 *1368:A3 *1368:A1 0.000340227
50 *1402:I *1368:A1 9.11911e-05
51 *1402:I *325:23 0
52 *1439:I *1371:A1 0.00122854
53 *1440:I *325:27 0.000497347
54 *1445:D *1368:A1 0.000365454
55 *1445:CLK *1368:A1 6.84043e-05
56 *1446:D *1371:A1 0.000110838
57 *1448:D *325:23 0.000192205
58 *1448:CLK *325:23 9.34006e-05
59 *1484:D *1233:A2 0.000218787
60 *1484:D *1235:A2 0.000268796
61 *1484:RN *1371:A1 0.00084548
62 *1488:D *1335:A2 3.77882e-05
63 *1488:RN *325:55 0.000193258
64 *1488:RN *325:61 0.000517033
65 *1490:D *325:61 0.000177559
66 *1490:CLK *325:61 0.000176998
67 *1491:D *1333:A2 0
68 *1491:CLK *1333:A2 5.97457e-06
69 *1519:I *325:27 0.000453188
70 *1539:I *1335:A2 0
71 *1539:I *325:31 0
72 *179:18 *325:27 0.000142428
73 *179:38 *325:27 0.000271969
74 *199:53 *1368:A1 1.38253e-05
75 *199:53 *325:23 0
76 *259:10 *325:31 0
77 *298:64 *1335:A2 0
78 *300:8 *325:25 0.000309993
79 *300:8 *325:27 0.000419316
80 *302:16 *1335:A2 1.61174e-05
81 *302:23 *1335:A2 0.000199769
82 *302:23 *1337:A2 0.000151427
83 *302:43 *325:61 0.000329339
84 *316:51 *325:55 1.07374e-05
85 *316:62 *325:29 0.000247389
86 *316:62 *325:31 0.000166798
87 *316:62 *325:55 0.000248121
88 *316:73 *325:27 0.000947965
89 *316:73 *325:29 0.00115841
90 *318:31 *1333:A2 1.59267e-05
91 *318:94 *1368:A1 0
*RES
1 *1533:Z *325:4 4.5 
2 *325:4 *1368:A1 17.64 
3 *325:4 *325:23 9.54 
4 *325:23 *325:25 3.87 
5 *325:25 *325:27 8.91 
6 *325:27 *325:29 3.51 
7 *325:29 *325:31 1.89 
8 *325:31 *1335:A2 11.16 
9 *325:31 *1337:A2 9.99 
10 *325:29 *325:55 6.75 
11 *325:55 *325:61 5.49 
12 *325:61 *1333:A2 19.35 
13 *325:61 *1329:A2 4.5 
14 *325:55 *1331:A2 4.5 
15 *325:27 *1231:A2 11.61 
16 *325:25 *325:97 4.5 
17 *325:97 *1235:A2 6.57 
18 *325:97 *1233:A2 5.49 
19 *325:23 *1371:A1 12.51 
*END

*D_NET *326 0.0206146
*CONN
*I *1376:A1 I *D gf180mcu_fd_sc_mcu7t5v0__nor3_1
*I *1374:A1 I *D gf180mcu_fd_sc_mcu7t5v0__nor3_1
*I *1533:I I *D gf180mcu_fd_sc_mcu7t5v0__dlyb_1
*I *1365:A1 I *D gf180mcu_fd_sc_mcu7t5v0__nor4_1
*I *1362:A1 I *D gf180mcu_fd_sc_mcu7t5v0__nor3_1
*I *1358:A1 I *D gf180mcu_fd_sc_mcu7t5v0__nor3_1
*I *1355:A2 I *D gf180mcu_fd_sc_mcu7t5v0__nor3_1
*I *1534:Z O *D gf180mcu_fd_sc_mcu7t5v0__dlyb_1
*CAP
1 *1376:A1 0
2 *1374:A1 0.000231099
3 *1533:I 0
4 *1365:A1 0
5 *1362:A1 0
6 *1358:A1 0
7 *1355:A2 0.000117045
8 *1534:Z 0
9 *326:95 0.000750588
10 *326:80 0.000919462
11 *326:78 0.00153456
12 *326:22 0.000783608
13 *326:14 0.00111692
14 *326:12 0.000694153
15 *326:4 0.00137838
16 *1355:A2 *1355:A1 0.000526079
17 *326:14 *341:10 0.000113425
18 *326:14 *341:25 2.18528e-05
19 *326:80 *1366:A1 6.92926e-05
20 *326:80 *383:14 0
21 *326:80 *383:20 0
22 *1219:A2 *326:78 0.000220768
23 *1220:A2 *326:12 3.94638e-05
24 *1220:A2 *326:78 7.92329e-05
25 *1225:A1 *326:78 0.000171639
26 *1225:A2 *326:78 0.00124498
27 *1355:A3 *1355:A2 0.000664126
28 *1365:A3 *326:12 3.23768e-05
29 *1370:A2 *1374:A1 7.191e-07
30 *1376:A3 *326:95 2.49316e-05
31 *1398:I *326:12 0.000262133
32 *1402:I *326:95 0
33 *1442:D *1355:A2 0.000826709
34 *1444:D *326:14 7.82853e-05
35 *1444:CLK *326:14 0
36 *1447:CLK *1374:A1 0
37 *1447:CLK *326:95 0
38 *1448:CLK *326:95 0
39 *1505:I *326:12 3.65641e-05
40 *1522:I *1355:A2 0
41 *1522:I *326:22 0
42 *1534:I *326:78 0.000106536
43 *144:25 *326:78 6.79568e-06
44 *199:47 *1374:A1 0.000880982
45 *199:47 *326:95 3.12627e-05
46 *199:53 *326:95 0.000137492
47 *199:78 *326:12 2.40933e-06
48 *199:78 *326:14 0.000778267
49 *199:86 *326:14 1.0415e-05
50 *199:86 *326:22 0
51 *283:12 *326:12 1.91584e-05
52 *283:35 *326:12 9.85004e-05
53 *283:35 *326:78 0.00273616
54 *283:35 *326:80 0.00104781
55 *285:10 *326:80 0.000771774
56 *285:10 *326:95 6.2979e-05
57 *285:27 *326:95 0.000244566
58 *296:19 *1355:A2 0
59 *296:51 *326:14 0
60 *306:119 *1355:A2 0.000966084
61 *306:119 *326:22 0.00064954
62 *314:6 *1355:A2 0
63 *317:96 *326:80 0.000110864
64 *317:96 *326:95 1.27836e-05
65 *325:23 *326:95 1.86887e-06
*RES
1 *1534:Z *326:4 4.5 
2 *326:4 *326:12 11.52 
3 *326:12 *326:14 4.95 
4 *326:14 *326:22 14.4 
5 *326:22 *1355:A2 17.82 
6 *326:22 *1358:A1 4.5 
7 *326:14 *1362:A1 4.5 
8 *326:12 *1365:A1 4.5 
9 *326:4 *326:78 48.6 
10 *326:78 *326:80 5.13 
11 *326:80 *1533:I 4.5 
12 *326:80 *326:95 13.5 
13 *326:95 *1374:A1 7.11 
14 *326:95 *1376:A1 4.5 
*END

*D_NET *327 0.00854557
*CONN
*I *1237:A1 I *D gf180mcu_fd_sc_mcu7t5v0__nor3_1
*I *1238:A1 I *D gf180mcu_fd_sc_mcu7t5v0__or3_1
*I *1338:A1 I *D gf180mcu_fd_sc_mcu7t5v0__nand2_1
*I *1271:C I *D gf180mcu_fd_sc_mcu7t5v0__aoi211_1
*I *1267:A1 I *D gf180mcu_fd_sc_mcu7t5v0__aoi21_1
*I *1266:C I *D gf180mcu_fd_sc_mcu7t5v0__aoi211_1
*I *1479:Q O *D gf180mcu_fd_sc_mcu7t5v0__dffrnq_1
*CAP
1 *1237:A1 0.000148211
2 *1238:A1 9.08704e-05
3 *1338:A1 7.10314e-05
4 *1271:C 0.000887282
5 *1267:A1 0
6 *1266:C 0
7 *1479:Q 0.00039822
8 *327:67 0.000972017
9 *327:29 0.000463079
10 *327:16 0.000754998
11 *327:10 0.000915516
12 *1237:A1 *1238:A3 4.21768e-05
13 *1237:A1 *358:23 4.74102e-05
14 *1271:C *1271:A1 0.000106536
15 *327:67 *1238:A3 4.82122e-05
16 *1266:A1 *327:10 6.33323e-05
17 *1266:A1 *327:16 0.000135054
18 *1266:A2 *1271:C 2.20694e-05
19 *1266:A2 *327:29 5.30888e-06
20 *1267:A2 *1271:C 0.000329933
21 *1267:A2 *327:29 3.55118e-05
22 *1267:B *327:16 6.44696e-05
23 *1267:B *327:29 0.000744155
24 *1270:A1 *327:16 0
25 *1270:A1 *327:29 0.000236517
26 *1270:A2 *327:16 2.84247e-05
27 *1272:A2 *1238:A1 0.000143627
28 *1272:A2 *1271:C 0
29 *1272:A2 *327:67 0.000121486
30 *1341:B1 *327:10 0
31 *1342:A2 *327:10 0
32 *1350:A1 *327:67 7.20334e-05
33 *1350:A2 *1237:A1 0.000346425
34 *1350:A2 *327:67 0.000109323
35 *1352:A1 *327:67 0.000192205
36 *1479:D *327:16 8.09541e-06
37 *1493:D *1271:C 4.89242e-05
38 *1493:D *327:29 3.22122e-05
39 *1493:D *327:67 0.000323805
40 *1493:CLK *327:16 0
41 *211:16 *1238:A1 4.8063e-05
42 *231:14 *1237:A1 0.000445488
43 *268:14 *1338:A1 2.17721e-05
44 *310:36 *327:10 0
45 *319:30 *1338:A1 2.17721e-05
46 *319:30 *327:16 0
*RES
1 *1479:Q *327:10 11.16 
2 *327:10 *327:16 7.74 
3 *327:16 *1266:C 4.5 
4 *327:16 *327:29 3.6 
5 *327:29 *1267:A1 4.5 
6 *327:29 *1271:C 6.3 
7 *327:10 *1338:A1 9.45 
8 *1271:C *327:67 15.12 
9 *327:67 *1238:A1 9.81 
10 *327:67 *1237:A1 11.07 
*END

*D_NET *328 0.0133638
*CONN
*I *1203:A2 I *D gf180mcu_fd_sc_mcu7t5v0__aoi221_1
*I *1200:B1 I *D gf180mcu_fd_sc_mcu7t5v0__oai221_1
*I *1194:A3 I *D gf180mcu_fd_sc_mcu7t5v0__nor3_1
*I *1323:I0 I *D gf180mcu_fd_sc_mcu7t5v0__mux2_2
*I *1449:Q O *D gf180mcu_fd_sc_mcu7t5v0__dffsnq_1
*CAP
1 *1203:A2 0.000284553
2 *1200:B1 0
3 *1194:A3 0
4 *1323:I0 0.000312405
5 *1449:Q 0
6 *328:34 0.000745681
7 *328:27 0.00199757
8 *328:4 0.00184885
9 *1203:A2 *1199:B1 0.000125111
10 *1203:A2 *1200:A1 0
11 *1323:I0 *1318:A1 0.00014648
12 *1323:I0 *330:41 0.000436478
13 *328:27 *1194:A2 1.61174e-05
14 *328:27 *330:41 0.000169515
15 *328:27 *330:45 0.000209297
16 *328:27 *349:83 0.000194087
17 *328:34 *1194:A2 0.000658095
18 *1197:A2 *328:27 0
19 *1199:B2 *1203:A2 8.12856e-06
20 *1200:A2 *1203:A2 1.55102e-05
21 *1200:A2 *328:34 1.7611e-05
22 *1200:B2 *1203:A2 0.00017699
23 *1200:C *1203:A2 7.86261e-05
24 *1204:A1 *1203:A2 7.191e-07
25 *1206:A4 *328:34 2.96708e-05
26 *1278:A2 *328:27 1.19491e-05
27 *1279:A1 *328:27 0
28 *1281:A1 *328:27 1.56862e-05
29 *1318:A2 *1323:I0 0.000291039
30 *1322:A1 *328:34 0
31 *1323:S *1323:I0 0.000247379
32 *1474:D *328:27 9.07783e-05
33 *1475:D *328:27 0.00010432
34 *1475:CLK *328:27 0.00144611
35 *1507:I *1323:I0 0.000110237
36 *1507:I *328:27 0.000619594
37 *1510:I *328:27 0.000921649
38 *135:10 *1203:A2 9.84908e-05
39 *142:25 *328:27 4.0497e-05
40 *179:38 *1203:A2 0
41 *253:42 *328:27 8.56031e-05
42 *253:65 *328:34 0.00017266
43 *296:61 *328:27 0.000499457
44 *299:60 *328:27 0.00082741
45 *299:60 *328:34 7.55765e-06
46 *305:35 *1323:I0 0.000238712
47 *305:83 *328:27 0
48 *308:52 *328:27 3.75396e-05
49 *308:96 *328:27 2.56384e-05
*RES
1 *1449:Q *328:4 4.5 
2 *328:4 *1323:I0 17.46 
3 *328:4 *328:27 19.17 
4 *328:27 *1194:A3 4.5 
5 *328:27 *328:34 4.77 
6 *328:34 *1200:B1 4.5 
7 *328:34 *1203:A2 16.02 
*END

*D_NET *329 0.00598662
*CONN
*I *1180:I I *D gf180mcu_fd_sc_mcu7t5v0__clkinv_1
*I *1194:A2 I *D gf180mcu_fd_sc_mcu7t5v0__nor3_1
*I *1450:Q O *D gf180mcu_fd_sc_mcu7t5v0__dffrnq_1
*CAP
1 *1180:I 0
2 *1194:A2 0.000688206
3 *1450:Q 0.000734556
4 *329:12 0.00142276
5 *1194:A2 *1202:A2 0
6 *1197:A2 *1194:A2 5.97457e-06
7 *1199:A2 *1194:A2 6.2702e-05
8 *1201:A2 *1194:A2 1.7795e-05
9 *1204:A1 *1194:A2 0.000258232
10 *1206:A4 *1194:A2 3.55118e-05
11 *1322:B *1194:A2 1.18076e-06
12 *1368:A1 *329:12 0.000183662
13 *1445:CLK *329:12 3.98088e-05
14 *1450:CLK *1194:A2 2.08301e-05
15 *1513:I *329:12 0
16 *1530:I *329:12 2.61192e-05
17 *154:8 *1194:A2 9.20679e-05
18 *292:72 *1194:A2 0.000415712
19 *318:56 *1194:A2 0.000340015
20 *318:56 *329:12 0.000919424
21 *318:94 *329:12 4.78445e-05
22 *328:27 *1194:A2 1.61174e-05
23 *328:34 *1194:A2 0.000658095
*RES
1 *1450:Q *329:12 20.88 
2 *329:12 *1194:A2 21.06 
3 *329:12 *1180:I 4.5 
*END

*D_NET *330 0.0204992
*CONN
*I *1194:A1 I *D gf180mcu_fd_sc_mcu7t5v0__nor3_1
*I *1202:A2 I *D gf180mcu_fd_sc_mcu7t5v0__xor2_1
*I *1320:I0 I *D gf180mcu_fd_sc_mcu7t5v0__mux2_2
*I *1451:Q O *D gf180mcu_fd_sc_mcu7t5v0__dffsnq_1
*CAP
1 *1194:A1 0
2 *1202:A2 0.000944158
3 *1320:I0 0.000184221
4 *1451:Q 0.000314979
5 *330:45 0.00117892
6 *330:41 0.00186247
7 *330:12 0.00212691
8 *1202:A2 *1197:B 0.000132459
9 *1202:A2 *1201:B1 0.000837435
10 *1202:A2 *1202:A1 4.6613e-06
11 *1202:A2 *335:12 0
12 *1202:A2 *372:36 0
13 *1202:A2 *375:6 0.00035741
14 *1320:I0 *1320:I1 0.000247661
15 *330:12 *1285:I1 5.873e-06
16 *330:12 *1320:I1 0.0001344
17 *330:12 *350:38 0.000692706
18 *330:41 *1177:I 2.14748e-05
19 *330:41 *1195:A2 2.6414e-05
20 *330:41 *1264:A2 3.29767e-05
21 *330:41 *1318:A1 0
22 *330:41 *349:83 0.000899019
23 *330:41 *353:10 0.000283695
24 *1194:A2 *1202:A2 0
25 *1196:A1 *330:45 0.000428433
26 *1196:A2 *330:41 7.39648e-05
27 *1196:A2 *330:45 2.99406e-05
28 *1197:A1 *1202:A2 9.84908e-05
29 *1197:A2 *1202:A2 4.45837e-05
30 *1201:A2 *1202:A2 4.67543e-05
31 *1203:B2 *1202:A2 0.000488731
32 *1203:C *1202:A2 0
33 *1205:B2 *1202:A2 0.000160093
34 *1206:A1 *1202:A2 0.000496921
35 *1285:S *330:12 8.53098e-05
36 *1319:B *330:41 0.0024498
37 *1323:I0 *330:41 0.000436478
38 *1380:I *1202:A2 2.18208e-05
39 *1455:D *330:41 0.000158798
40 *1471:CLK *330:12 2.0621e-05
41 *1471:CLK *330:41 0.000183662
42 *1472:D *330:41 2.08301e-05
43 *1472:CLK *330:41 0.000976801
44 *1490:RN *1202:A2 0
45 *1507:I *1320:I0 2.51583e-05
46 *1507:I *330:41 0.000738864
47 *1510:I *330:41 0.000199296
48 *1520:I *330:12 0.000777537
49 *151:12 *330:41 0.000483377
50 *151:22 *330:41 0.000311693
51 *152:25 *1202:A2 5.0649e-05
52 *152:25 *330:41 0
53 *179:16 *1202:A2 0.000637079
54 *231:14 *1320:I0 0
55 *231:14 *330:12 0
56 *253:42 *330:41 0.000106177
57 *305:83 *1202:A2 6.89765e-06
58 *305:83 *330:45 0.000273747
59 *328:27 *330:41 0.000169515
60 *328:27 *330:45 0.000209297
*RES
1 *1451:Q *330:12 13.23 
2 *330:12 *1320:I0 10.89 
3 *330:12 *330:41 47.7 
4 *330:41 *330:45 7.65 
5 *330:45 *1202:A2 24.3 
6 *330:45 *1194:A1 4.5 
*END

*D_NET *331 0.00135034
*CONN
*I *1195:A4 I *D gf180mcu_fd_sc_mcu7t5v0__nor4_1
*I *1179:I I *D gf180mcu_fd_sc_mcu7t5v0__clkinv_1
*I *1452:Q O *D gf180mcu_fd_sc_mcu7t5v0__dffrnq_1
*CAP
1 *1195:A4 0.000180296
2 *1179:I 0
3 *1452:Q 0.00010754
4 *331:8 0.000287837
5 *1195:A4 *1195:A3 8.05869e-05
6 *1316:A1 *1195:A4 0
7 *1316:A1 *331:8 0
8 *1319:A2 *331:8 3.22122e-05
9 *1452:D *331:8 4.74921e-05
10 *152:25 *1195:A4 0
11 *153:27 *1195:A4 0.000383378
12 *305:62 *1195:A4 1.61174e-05
13 *305:62 *331:8 0.000214878
*RES
1 *1452:Q *331:8 5.94 
2 *331:8 *1179:I 4.5 
3 *331:8 *1195:A4 6.48 
*END

*D_NET *332 0.00411884
*CONN
*I *1198:A1 I *D gf180mcu_fd_sc_mcu7t5v0__xor2_1
*I *1195:A3 I *D gf180mcu_fd_sc_mcu7t5v0__nor4_1
*I *1317:I0 I *D gf180mcu_fd_sc_mcu7t5v0__mux2_2
*I *1453:Q O *D gf180mcu_fd_sc_mcu7t5v0__dffrnq_1
*CAP
1 *1198:A1 0.000586335
2 *1195:A3 7.84597e-05
3 *1317:I0 0.000689651
4 *1453:Q 0
5 *332:4 0.000181776
6 *1198:A1 *1328:A1 0.000511789
7 *1198:A1 *376:6 0.000294421
8 *1195:A4 *1195:A3 8.05869e-05
9 *1453:RN *1198:A1 6.46109e-05
10 *1491:RN *1198:A1 0
11 *152:25 *1317:I0 5.96096e-05
12 *153:27 *1195:A3 0
13 *153:27 *1198:A1 0.000471494
14 *153:27 *1317:I0 0.000286733
15 *292:66 *1198:A1 0.000802955
16 *305:62 *1198:A1 1.0415e-05
17 *315:65 *1198:A1 0
*RES
1 *1453:Q *332:4 4.5 
2 *332:4 *1317:I0 5.67 
3 *332:4 *1195:A3 5.31 
4 *1317:I0 *1198:A1 25.47 
*END

*D_NET *333 0.00271629
*CONN
*I *1178:I I *D gf180mcu_fd_sc_mcu7t5v0__clkinv_1
*I *1195:A2 I *D gf180mcu_fd_sc_mcu7t5v0__nor4_1
*I *1454:Q O *D gf180mcu_fd_sc_mcu7t5v0__dffrnq_1
*CAP
1 *1178:I 0.000107538
2 *1195:A2 0.000282217
3 *1454:Q 0.000207343
4 *333:8 0.000597098
5 *333:8 *1315:A1 6.67366e-05
6 *333:8 *352:60 0
7 *1316:A1 *1195:A2 0.000236727
8 *1316:A1 *333:8 1.07374e-05
9 *1316:B *333:8 0.000471492
10 *1319:B *1178:I 0.000151417
11 *1319:B *1195:A2 3.73774e-06
12 *1319:B *333:8 7.24059e-05
13 *152:25 *1195:A2 0.000151427
14 *305:58 *333:8 0.000330995
15 *330:41 *1195:A2 2.6414e-05
*RES
1 *1454:Q *333:8 8.1 
2 *333:8 *1195:A2 7.47 
3 *333:8 *1178:I 5.94 
*END

*D_NET *334 0.0026835
*CONN
*I *1177:I I *D gf180mcu_fd_sc_mcu7t5v0__clkinv_1
*I *1195:A1 I *D gf180mcu_fd_sc_mcu7t5v0__nor4_1
*I *1455:Q O *D gf180mcu_fd_sc_mcu7t5v0__dffrnq_1
*CAP
1 *1177:I 6.13566e-05
2 *1195:A1 0.000252767
3 *1455:Q 0.000497942
4 *334:8 0.000812065
5 *334:8 *1300:A1 0.000119679
6 *1196:A2 *1195:A1 8.69474e-05
7 *1300:A2 *334:8 0
8 *1313:A2 *334:8 6.08466e-05
9 *1409:I *334:8 0.000126976
10 *1455:CLK *1195:A1 0.000217317
11 *1455:CLK *334:8 0.000151455
12 *1510:I *1177:I 0.000115575
13 *151:12 *1177:I 8.69474e-05
14 *152:10 *1195:A1 0
15 *152:25 *1195:A1 5.69319e-05
16 *305:66 *1195:A1 1.52191e-05
17 *330:41 *1177:I 2.14748e-05
*RES
1 *1455:Q *334:8 13.41 
2 *334:8 *1195:A1 11.16 
3 *334:8 *1177:I 9.81 
*END

*D_NET *335 0.00529158
*CONN
*I *1311:A1 I *D gf180mcu_fd_sc_mcu7t5v0__nor2_1
*I *1201:A1 I *D gf180mcu_fd_sc_mcu7t5v0__aoi221_1
*I *1197:B I *D gf180mcu_fd_sc_mcu7t5v0__aoi21_1
*I *1456:Q O *D gf180mcu_fd_sc_mcu7t5v0__dffrnq_1
*CAP
1 *1311:A1 0
2 *1201:A1 0
3 *1197:B 0.00024007
4 *1456:Q 0.000640834
5 *335:12 0.000616538
6 *335:10 0.0010173
7 *1197:A1 *1197:B 9.84908e-05
8 *1201:A2 *1197:B 4.72617e-05
9 *1201:C *1197:B 0.00023712
10 *1202:A2 *1197:B 0.000132459
11 *1202:A2 *335:12 0
12 *152:25 *1197:B 0.000433797
13 *155:8 *1197:B 1.3026e-05
14 *299:6 *335:10 9.04462e-05
15 *299:14 *335:10 0.000223398
16 *299:43 *335:10 0.00145814
17 *299:51 *335:10 2.82502e-05
18 *299:51 *335:12 1.44449e-05
*RES
1 *1456:Q *335:10 14.76 
2 *335:10 *335:12 2.43 
3 *335:12 *1197:B 11.52 
4 *335:12 *1201:A1 9 
5 *335:10 *1311:A1 9 
*END

*D_NET *336 0.00182178
*CONN
*I *1223:A4 I *D gf180mcu_fd_sc_mcu7t5v0__nor4_1
*I *1176:I I *D gf180mcu_fd_sc_mcu7t5v0__clkinv_1
*I *1457:Q O *D gf180mcu_fd_sc_mcu7t5v0__dffrnq_1
*CAP
1 *1223:A4 0.000318144
2 *1176:I 0.000154349
3 *1457:Q 0.000237201
4 *336:8 0.000709693
5 *1303:A1 *1176:I 3.6437e-05
6 *1303:A1 *1223:A4 0.000191147
7 *1457:RN *1176:I 6.93035e-05
8 *1457:RN *336:8 1.82021e-05
9 *149:23 *336:8 8.73082e-05
*RES
1 *1457:Q *336:8 10.89 
2 *336:8 *1176:I 10.44 
3 *336:8 *1223:A4 11.97 
*END

*D_NET *337 0.00482733
*CONN
*I *1223:A3 I *D gf180mcu_fd_sc_mcu7t5v0__nor4_1
*I *1175:I I *D gf180mcu_fd_sc_mcu7t5v0__clkinv_1
*I *1458:Q O *D gf180mcu_fd_sc_mcu7t5v0__dffrnq_1
*CAP
1 *1223:A3 0.00025503
2 *1175:I 8.28179e-05
3 *1458:Q 0.000192218
4 *337:10 0.000530066
5 *1175:I *1174:I 0.000198043
6 *1175:I *338:25 0.000499457
7 *1223:A3 *1207:B2 2.26729e-05
8 *1223:A3 *338:25 0.00130062
9 *337:10 *338:10 0
10 *1212:B2 *1223:A3 0
11 *1413:I *1175:I 2.08301e-05
12 *1413:I *337:10 2.17099e-05
13 *1458:RN *1175:I 0.000571424
14 *1460:RN *1223:A3 0.000506341
15 *1543:I *1175:I 0.0006195
16 *148:12 *1175:I 6.60157e-06
*RES
1 *1458:Q *337:10 14.67 
2 *337:10 *1175:I 16.56 
3 *337:10 *1223:A3 8.28 
*END

*D_NET *338 0.00748701
*CONN
*I *1207:B2 I *D gf180mcu_fd_sc_mcu7t5v0__oai22_1
*I *1223:A2 I *D gf180mcu_fd_sc_mcu7t5v0__nor4_1
*I *1174:I I *D gf180mcu_fd_sc_mcu7t5v0__clkinv_1
*I *1459:Q O *D gf180mcu_fd_sc_mcu7t5v0__dffrnq_1
*CAP
1 *1207:B2 0.000566749
2 *1223:A2 0
3 *1174:I 7.40203e-05
4 *1459:Q 0.000304792
5 *338:25 0.000805781
6 *338:10 0.000617845
7 *1207:B2 *1173:I 8.2222e-06
8 *1207:B2 *1207:A1 0
9 *1207:B2 *1212:B1 7.77173e-05
10 *1207:B2 *339:12 0.000245145
11 *1207:B2 *339:25 0
12 *338:25 *339:8 0.000143853
13 *338:25 *339:12 0.000106536
14 *1175:I *1174:I 0.000198043
15 *1175:I *338:25 0.000499457
16 *1207:B1 *1207:B2 0
17 *1212:A1 *1207:B2 0.000622072
18 *1212:B2 *1207:B2 0.000277427
19 *1212:B2 *338:25 0
20 *1213:A1 *1207:B2 0
21 *1213:B *1207:B2 0.00015997
22 *1223:A3 *1207:B2 2.26729e-05
23 *1223:A3 *338:25 0.00130062
24 *1303:A1 *1207:B2 0.000365454
25 *1412:I *1174:I 0
26 *1413:I *338:10 1.56779e-05
27 *1413:I *338:25 0.000752218
28 *1458:RN *1174:I 0.000101624
29 *1543:I *1174:I 3.42509e-05
30 *1543:I *338:10 0.000151353
31 *148:12 *1174:I 3.55118e-05
32 *337:10 *338:10 0
*RES
1 *1459:Q *338:10 11.34 
2 *338:10 *1174:I 9.9 
3 *338:10 *338:25 9.45 
4 *338:25 *1223:A2 4.5 
5 *338:25 *1207:B2 10.8 
*END

*D_NET *339 0.00354469
*CONN
*I *1223:A1 I *D gf180mcu_fd_sc_mcu7t5v0__nor4_1
*I *1207:A1 I *D gf180mcu_fd_sc_mcu7t5v0__oai22_1
*I *1208:A1 I *D gf180mcu_fd_sc_mcu7t5v0__nand2_1
*I *1173:I I *D gf180mcu_fd_sc_mcu7t5v0__clkinv_1
*I *1460:Q O *D gf180mcu_fd_sc_mcu7t5v0__dffrnq_1
*CAP
1 *1223:A1 0
2 *1207:A1 0.000105802
3 *1208:A1 0
4 *1173:I 0.000198118
5 *1460:Q 0.000157069
6 *339:25 0.000375827
7 *339:12 0.000606018
8 *339:8 0.000294943
9 *1207:B2 *1173:I 8.2222e-06
10 *1207:B2 *1207:A1 0
11 *1207:B2 *339:12 0.000245145
12 *1207:B2 *339:25 0
13 *1208:A2 *1207:A1 0.000350818
14 *1208:A2 *339:25 3.55118e-05
15 *1209:A2 *1207:A1 9.93368e-05
16 *1212:A1 *1173:I 0.000106536
17 *1212:A1 *339:25 0
18 *1225:B1 *339:12 0.000261161
19 *1225:B1 *339:25 0.00025903
20 *1303:A1 *1173:I 0.000162562
21 *1303:A1 *339:12 2.82079e-05
22 *338:25 *339:8 0.000143853
23 *338:25 *339:12 0.000106536
*RES
1 *1460:Q *339:8 5.94 
2 *339:8 *339:12 2.16 
3 *339:12 *1173:I 5.94 
4 *339:12 *339:25 2.7 
5 *339:25 *1208:A1 4.5 
6 *339:25 *1207:A1 5.94 
7 *339:8 *1223:A1 4.5 
*END

*D_NET *340 0.00207851
*CONN
*I *1172:I I *D gf180mcu_fd_sc_mcu7t5v0__clkinv_1
*I *1224:A4 I *D gf180mcu_fd_sc_mcu7t5v0__nor4_1
*I *1461:Q O *D gf180mcu_fd_sc_mcu7t5v0__dffrnq_1
*CAP
1 *1172:I 6.15554e-05
2 *1224:A4 0.000308022
3 *1461:Q 0
4 *340:4 0.000369577
5 *1172:I *1171:I 7.96333e-06
6 *1224:A4 *1171:I 0.000921904
7 *1224:A4 *1224:A1 1.9037e-05
8 *1224:A4 *341:25 4.83522e-05
9 *1463:RN *1224:A4 3.58953e-05
10 *1530:I *1224:A4 0
11 *145:8 *1172:I 3.22348e-05
12 *146:10 *1172:I 3.55118e-05
13 *146:10 *1224:A4 5.8566e-05
14 *146:23 *1172:I 1.19491e-05
15 *146:23 *1224:A4 6.93035e-05
16 *199:76 *1224:A4 9.86349e-05
*RES
1 *1461:Q *340:4 4.5 
2 *340:4 *1224:A4 8.28 
3 *340:4 *1172:I 5.22 
*END

*D_NET *341 0.0049589
*CONN
*I *1171:I I *D gf180mcu_fd_sc_mcu7t5v0__clkinv_1
*I *1224:A3 I *D gf180mcu_fd_sc_mcu7t5v0__nor4_1
*I *1298:A1 I *D gf180mcu_fd_sc_mcu7t5v0__nand2_1
*I *1462:Q O *D gf180mcu_fd_sc_mcu7t5v0__dffsnq_1
*CAP
1 *1171:I 0.000193685
2 *1224:A3 0
3 *1298:A1 0.000208498
4 *1462:Q 0.000207057
5 *341:25 0.00075285
6 *341:10 0.00097472
7 *1171:I *1224:A1 0.000107592
8 *1171:I *1224:A2 0.000365454
9 *1172:I *1171:I 7.96333e-06
10 *1224:A4 *1171:I 0.000921904
11 *1224:A4 *341:25 4.83522e-05
12 *1299:B *1298:A1 8.56272e-05
13 *1398:I *1298:A1 0.00010602
14 *1444:D *341:10 0.000169515
15 *1444:D *341:25 0.000286386
16 *1444:CLK *341:10 2.98728e-05
17 *1462:SETN *341:10 7.71476e-06
18 *1462:SETN *341:25 9.04571e-06
19 *1530:I *1171:I 0
20 *1530:I *341:25 2.8591e-05
21 *199:76 *1171:I 0.000117534
22 *199:76 *341:25 0.000195241
23 *199:78 *341:25 0
24 *296:55 *1298:A1 0
25 *314:51 *341:25 0
26 *326:14 *341:10 0.000113425
27 *326:14 *341:25 2.18528e-05
*RES
1 *1462:Q *341:10 6.57 
2 *341:10 *1298:A1 15.39 
3 *341:10 *341:25 4.68 
4 *341:25 *1224:A3 4.5 
5 *341:25 *1171:I 8.01 
*END

*D_NET *342 0.00131322
*CONN
*I *1170:I I *D gf180mcu_fd_sc_mcu7t5v0__clkinv_1
*I *1224:A2 I *D gf180mcu_fd_sc_mcu7t5v0__nor4_1
*I *1463:Q O *D gf180mcu_fd_sc_mcu7t5v0__dffrnq_1
*CAP
1 *1170:I 6.20503e-05
2 *1224:A2 0.000138424
3 *1463:Q 0
4 *342:4 0.000200474
5 *1170:I *1224:A1 1.56862e-05
6 *1171:I *1224:A2 0.000365454
7 *1225:B2 *1170:I 2.98728e-05
8 *1297:A1 *1170:I 3.55118e-05
9 *1297:A1 *1224:A2 4.05591e-05
10 *144:25 *1170:I 3.22348e-05
11 *199:76 *1224:A2 0.000392953
*RES
1 *1463:Q *342:4 4.5 
2 *342:4 *1224:A2 15.3 
3 *342:4 *1170:I 5.22 
*END

*D_NET *343 0.00505579
*CONN
*I *1169:I I *D gf180mcu_fd_sc_mcu7t5v0__clkinv_1
*I *1224:A1 I *D gf180mcu_fd_sc_mcu7t5v0__nor4_1
*I *1294:A1 I *D gf180mcu_fd_sc_mcu7t5v0__nand2_1
*I *1464:Q O *D gf180mcu_fd_sc_mcu7t5v0__dffsnq_1
*CAP
1 *1169:I 7.78916e-05
2 *1224:A1 0.000537062
3 *1294:A1 0.000494186
4 *1464:Q 0
5 *343:19 0.000649443
6 *343:4 0.000528676
7 *1169:I *1217:B1 6.91924e-05
8 *1224:A1 *1217:B1 5.56207e-05
9 *1294:A1 *1215:A2 0.000174497
10 *1294:A1 *1217:B1 6.11179e-05
11 *1294:A1 *1218:B1 0.000375176
12 *1294:A1 *383:20 3.73774e-06
13 *1170:I *1224:A1 1.56862e-05
14 *1171:I *1224:A1 0.000107592
15 *1215:A1 *1224:A1 5.27264e-05
16 *1215:A1 *1294:A1 3.38355e-05
17 *1218:B2 *1294:A1 3.88059e-05
18 *1224:A4 *1224:A1 1.9037e-05
19 *1297:A1 *1224:A1 3.96404e-05
20 *144:25 *1224:A1 0.000159462
21 *145:8 *1224:A1 0.00084547
22 *146:10 *1224:A1 2.36914e-05
23 *188:18 *1294:A1 0.000204502
24 *199:76 *1224:A1 0.00048874
*RES
1 *1464:Q *343:4 4.5 
2 *343:4 *1294:A1 18 
3 *343:4 *343:19 0.27 
4 *343:19 *1224:A1 10.89 
5 *343:19 *1169:I 5.4 
*END

*D_NET *344 0.00769291
*CONN
*I *1163:I I *D gf180mcu_fd_sc_mcu7t5v0__clkinv_1
*I *1251:A3 I *D gf180mcu_fd_sc_mcu7t5v0__nand3_1
*I *1261:A1 I *D gf180mcu_fd_sc_mcu7t5v0__nor2_1
*I *1480:Q O *D gf180mcu_fd_sc_mcu7t5v0__dffrnq_1
*CAP
1 *1163:I 0
2 *1251:A3 0.000567637
3 *1261:A1 5.41914e-05
4 *1480:Q 0.000634469
5 *344:25 0.000901142
6 *344:12 0.00102217
7 *1251:A3 *1251:A1 2.98728e-05
8 *1251:A3 *1251:A2 9.04462e-05
9 *1256:A2 *1251:A3 0
10 *1260:B *1251:A3 0.00014946
11 *1260:B *344:25 0.000111383
12 *1434:I *344:25 5.5916e-05
13 *1436:I *1251:A3 0.00100536
14 *1480:D *1261:A1 0.00023711
15 *1480:D *344:12 0.00127989
16 *1483:RN *1251:A3 5.97457e-06
17 *1487:D *344:12 3.55118e-05
18 *1498:CLK *344:12 2.13487e-05
19 *1517:I *1251:A3 0.000124895
20 *1529:I *1251:A3 0.000603321
21 *1544:I *1261:A1 9.72182e-06
22 *1544:I *344:12 5.79699e-05
23 *1544:I *344:25 0.000175108
24 *225:26 *344:25 0
25 *298:55 *1251:A3 0
26 *304:23 *1251:A3 0
27 *316:27 *1251:A3 6.24909e-05
28 *316:27 *344:25 0.000457527
*RES
1 *1480:Q *344:12 13.59 
2 *344:12 *1261:A1 9.63 
3 *344:12 *344:25 8.37 
4 *344:25 *1251:A3 12.24 
5 *344:25 *1163:I 4.5 
*END

*D_NET *345 0.00713462
*CONN
*I *1260:A1 I *D gf180mcu_fd_sc_mcu7t5v0__aoi21_1
*I *1257:A1 I *D gf180mcu_fd_sc_mcu7t5v0__aoi21_1
*I *1251:A2 I *D gf180mcu_fd_sc_mcu7t5v0__nand3_1
*I *1259:B2 I *D gf180mcu_fd_sc_mcu7t5v0__oai22_1
*I *1481:Q O *D gf180mcu_fd_sc_mcu7t5v0__dffrnq_1
*CAP
1 *1260:A1 3.68143e-05
2 *1257:A1 0
3 *1251:A2 0.000226455
4 *1259:B2 3.44897e-05
5 *1481:Q 0.000625488
6 *345:29 0.000493561
7 *345:14 0.000544129
8 *345:10 0.000904836
9 *1251:A2 *1251:A1 7.54878e-05
10 *1251:A2 *346:14 1.0415e-05
11 *1251:A3 *1251:A2 9.04462e-05
12 *1257:A2 *345:29 0.000183662
13 *1258:A1 *345:29 3.55118e-05
14 *1258:A2 *345:29 0.000143583
15 *1259:A2 *1251:A2 0.000578516
16 *1481:D *1260:A1 7.93835e-05
17 *1481:D *345:14 0.000177559
18 *1481:RN *345:10 0.000436935
19 *1482:D *345:14 0.000143853
20 *1482:D *345:29 0.000240557
21 *1517:I *1251:A2 9.04462e-05
22 *1529:I *1251:A2 3.0177e-06
23 *1539:I *345:10 0.000247919
24 *1544:I *345:10 0
25 *218:33 *1260:A1 1.19491e-05
26 *218:33 *345:10 0
27 *218:33 *345:14 0.000178118
28 *225:8 *345:14 0.000400528
29 *225:8 *345:29 6.44696e-05
30 *225:26 *1260:A1 0.000294431
31 *225:26 *345:14 0.000232403
32 *298:10 *1251:A2 9.39061e-05
33 *298:14 *1251:A2 0.000455748
34 *298:14 *345:29 0
*RES
1 *1481:Q *345:10 18.09 
2 *345:10 *345:14 4.14 
3 *345:14 *1259:B2 4.77 
4 *345:14 *345:29 11.88 
5 *345:29 *1251:A2 16.65 
6 *345:29 *1257:A1 4.5 
7 *345:10 *1260:A1 5.31 
*END

*D_NET *346 0.00325462
*CONN
*I *1251:A1 I *D gf180mcu_fd_sc_mcu7t5v0__nand3_1
*I *1257:B I *D gf180mcu_fd_sc_mcu7t5v0__aoi21_1
*I *1482:Q O *D gf180mcu_fd_sc_mcu7t5v0__dffrnq_1
*CAP
1 *1251:A1 0.000181515
2 *1257:B 0
3 *1482:Q 0.000808959
4 *346:14 0.000990475
5 *1251:A2 *1251:A1 7.54878e-05
6 *1251:A2 *346:14 1.0415e-05
7 *1251:A3 *1251:A1 2.98728e-05
8 *1259:A2 *1251:A1 2.40933e-06
9 *1259:A2 *346:14 6.46422e-05
10 *1488:D *346:14 0.000168231
11 *1517:I *1251:A1 0.000567799
12 *1529:I *1251:A1 3.22348e-05
13 *1529:I *346:14 2.97368e-05
14 *221:8 *1251:A1 0
15 *298:64 *346:14 0.000109434
16 *303:18 *346:14 0.000128889
17 *316:10 *346:14 5.45223e-05
*RES
1 *1482:Q *346:14 18.81 
2 *346:14 *1257:B 4.5 
3 *346:14 *1251:A1 6.84 
*END

*D_NET *347 0.0019255
*CONN
*I *1162:I I *D gf180mcu_fd_sc_mcu7t5v0__clkinv_1
*I *1253:A1 I *D gf180mcu_fd_sc_mcu7t5v0__nor2_1
*I *1483:Q O *D gf180mcu_fd_sc_mcu7t5v0__dffrnq_1
*CAP
1 *1162:I 0
2 *1253:A1 0.000214572
3 *1483:Q 0.000396298
4 *347:10 0.00061087
5 *1253:A2 *1253:A1 6.46313e-05
6 *1255:A1 *1253:A1 0.00012512
7 *1437:I *1253:A1 0
8 *1437:I *347:10 0
9 *1483:RN *1253:A1 3.08083e-05
10 *1489:CLK *347:10 4.8063e-05
11 *1540:I *1253:A1 0.000294421
12 *221:8 *1253:A1 9.90362e-06
13 *304:12 *1253:A1 3.12451e-05
14 *318:31 *347:10 9.95694e-05
*RES
1 *1483:Q *347:10 11.34 
2 *347:10 *1253:A1 11.16 
3 *347:10 *1162:I 9 
*END

*D_NET *348 0.0180844
*CONN
*I *1264:A2 I *D gf180mcu_fd_sc_mcu7t5v0__nor4_1
*I *1288:I0 I *D gf180mcu_fd_sc_mcu7t5v0__mux2_2
*I *1323:I1 I *D gf180mcu_fd_sc_mcu7t5v0__mux2_2
*I *1287:I1 I *D gf180mcu_fd_sc_mcu7t5v0__mux2_2
*I *1308:A1 I *D gf180mcu_fd_sc_mcu7t5v0__nor2_1
*I *1276:A1 I *D gf180mcu_fd_sc_mcu7t5v0__nor2_1
*I *1292:I0 I *D gf180mcu_fd_sc_mcu7t5v0__mux2_2
*I *1468:Q O *D gf180mcu_fd_sc_mcu7t5v0__dffrnq_1
*CAP
1 *1264:A2 0.00111499
2 *1288:I0 8.9401e-05
3 *1323:I1 0.000165607
4 *1287:I1 0
5 *1308:A1 0.00038292
6 *1276:A1 0
7 *1292:I0 0.000374908
8 *1468:Q 0
9 *348:24 0.000824074
10 *348:18 0.00162845
11 *348:14 0.00105846
12 *348:12 0.000637481
13 *348:10 0.000464798
14 *348:4 0.00128061
15 *1264:A2 *1321:A1 2.42629e-05
16 *1264:A2 *349:83 0.000780685
17 *1292:I0 *366:12 0.000760023
18 *1323:I1 *1287:I0 9.26419e-06
19 *348:18 *362:10 2.5688e-05
20 *348:18 *364:10 0
21 *348:24 *364:10 0
22 *1264:A3 *1264:A2 0
23 *1276:A2 *1292:I0 3.55118e-05
24 *1276:A2 *348:24 0.000103065
25 *1277:B *1292:I0 0
26 *1287:S *348:12 0
27 *1287:S *348:14 0
28 *1292:I1 *1292:I0 1.84368e-05
29 *1292:S *1292:I0 0.000213938
30 *1419:I *1292:I0 0.000193098
31 *1449:D *348:10 8.47504e-06
32 *1449:D *348:12 0.000181982
33 *1449:CLK *1288:I0 0.000754995
34 *1451:CLK *1308:A1 0.00159106
35 *1451:CLK *348:18 0.000853515
36 *1468:RN *348:10 0
37 *1472:CLK *1264:A2 0
38 *1476:CLK *1292:I0 5.30888e-06
39 *1476:CLK *348:24 4.5615e-05
40 *1506:I *348:18 0.000400415
41 *1516:I *1264:A2 0
42 *1523:I *1264:A2 1.3026e-05
43 *1523:I *1288:I0 0.0011117
44 *1523:I *1323:I1 0
45 *1523:I *348:10 0.000286386
46 *292:119 *1308:A1 0.000258645
47 *295:31 *1308:A1 0.000351582
48 *295:33 *1308:A1 0.000499907
49 *308:82 *1264:A2 9.85004e-05
50 *310:53 *1292:I0 6.96434e-05
51 *310:88 *1292:I0 0.000117209
52 *310:88 *348:24 0.00011375
53 *310:96 *1308:A1 0.000346434
54 *310:96 *348:24 0.000757565
55 *311:58 *1264:A2 0
56 *330:41 *1264:A2 3.29767e-05
*RES
1 *1468:Q *348:4 4.5 
2 *348:4 *348:10 1.35 
3 *348:10 *348:12 1.53 
4 *348:12 *348:14 1.71 
5 *348:14 *348:18 11.61 
6 *348:18 *348:24 9 
7 *348:24 *1292:I0 9 
8 *348:24 *1276:A1 4.5 
9 *348:18 *1308:A1 15.39 
10 *348:14 *1287:I1 4.5 
11 *348:12 *1323:I1 14.85 
12 *348:10 *1288:I0 16.29 
13 *348:4 *1264:A2 21.6 
*END

*D_NET *349 0.023451
*CONN
*I *1321:A1 I *D gf180mcu_fd_sc_mcu7t5v0__nand2_1
*I *1264:A1 I *D gf180mcu_fd_sc_mcu7t5v0__nor4_1
*I *1287:I0 I *D gf180mcu_fd_sc_mcu7t5v0__mux2_2
*I *1286:I1 I *D gf180mcu_fd_sc_mcu7t5v0__mux2_2
*I *1291:I0 I *D gf180mcu_fd_sc_mcu7t5v0__mux2_2
*I *1306:A1 I *D gf180mcu_fd_sc_mcu7t5v0__nor2_1
*I *1274:A1 I *D gf180mcu_fd_sc_mcu7t5v0__nor2_1
*I *1469:Q O *D gf180mcu_fd_sc_mcu7t5v0__dffrnq_1
*CAP
1 *1321:A1 0.00254294
2 *1264:A1 0
3 *1287:I0 0.000158882
4 *1286:I1 4.31808e-05
5 *1291:I0 0
6 *1306:A1 0.000631508
7 *1274:A1 0.000197069
8 *1469:Q 0.000167682
9 *349:83 0.00316533
10 *349:64 0.0012483
11 *349:33 0.000844917
12 *349:25 0.000620354
13 *349:12 0.00163776
14 *349:8 0.00171164
15 *1286:I1 *350:25 1.04066e-05
16 *1306:A1 *1304:A1 6.07964e-05
17 *1306:A1 *350:10 7.44849e-05
18 *1306:A1 *350:14 0.000159141
19 *1321:A1 *1264:A4 0.000365454
20 *1321:A1 *1278:A1 1.78132e-05
21 *1321:A1 *1280:A1 8.67059e-06
22 *1321:A1 *1300:A1 0.000297533
23 *1321:A1 *354:23 0.000658131
24 *1321:A1 *354:38 0.000111522
25 *1321:A1 *354:48 0
26 *349:25 *368:8 0.000171431
27 *349:25 *368:19 0.000445314
28 *349:33 *350:14 9.63355e-05
29 *349:83 *1318:A1 0.00016978
30 *1264:A2 *1321:A1 2.42629e-05
31 *1264:A2 *349:83 0.000780685
32 *1264:A3 *1321:A1 6.22424e-05
33 *1279:B *1321:A1 0
34 *1287:S *349:64 1.56779e-05
35 *1290:I1 *1306:A1 0
36 *1290:S *1306:A1 0.000288467
37 *1291:I1 *1306:A1 5.12225e-05
38 *1291:I1 *349:33 0
39 *1291:S *349:25 0.000282048
40 *1291:S *349:33 9.72742e-05
41 *1292:S *1274:A1 4.79098e-05
42 *1292:S *349:25 4.59966e-05
43 *1301:B *1321:A1 0.00017244
44 *1305:B *1306:A1 1.0415e-05
45 *1307:B *1306:A1 0.000578796
46 *1310:A1 *349:12 2.89145e-06
47 *1312:A1 *1321:A1 2.59366e-05
48 *1312:B *1321:A1 6.08147e-05
49 *1318:A2 *349:83 3.3982e-05
50 *1321:A2 *1321:A1 1.61174e-05
51 *1323:I1 *1287:I0 9.26419e-06
52 *1323:S *349:83 6.97399e-05
53 *1420:I *1306:A1 0
54 *1423:I *349:12 5.04118e-05
55 *1423:I *349:64 5.30888e-06
56 *1429:I *1321:A1 0
57 *1451:D *349:12 0.000200416
58 *1451:D *349:64 3.1559e-05
59 *1456:RN *1321:A1 0
60 *1463:CLK *1321:A1 0
61 *1467:CLK *349:33 0.000285306
62 *1472:D *349:83 0.000602692
63 *1475:RN *1321:A1 0
64 *1501:RN *1274:A1 9.17162e-06
65 *1501:RN *349:12 8.17749e-05
66 *1506:I *349:12 0
67 *1506:I *349:64 0
68 *1512:I *1321:A1 0.000107953
69 *1516:I *349:83 0
70 *1518:I *1321:A1 3.73774e-06
71 *140:14 *349:12 0.000107715
72 *141:29 *1321:A1 0.000872096
73 *231:14 *1287:I0 3.72839e-05
74 *231:14 *349:83 8.09812e-05
75 *237:34 *1274:A1 3.08792e-05
76 *243:8 *1274:A1 0
77 *243:8 *349:12 2.94847e-05
78 *244:12 *349:25 0.000165349
79 *244:12 *349:33 5.41373e-05
80 *253:42 *349:83 0.000461157
81 *292:119 *349:12 7.7769e-05
82 *299:16 *1321:A1 0
83 *299:51 *1321:A1 4.15093e-05
84 *305:22 *349:64 0.000135097
85 *305:35 *349:83 4.85447e-05
86 *308:82 *1321:A1 0.000201397
87 *313:12 *1306:A1 6.17613e-06
88 *313:40 *1306:A1 0.000204168
89 *313:48 *1306:A1 6.34901e-05
90 *313:103 *1306:A1 6.98034e-05
91 *328:27 *349:83 0.000194087
92 *330:41 *349:83 0.000899019
*RES
1 *1469:Q *349:8 5.4 
2 *349:8 *349:12 12.87 
3 *349:12 *1274:A1 10.44 
4 *349:12 *349:25 4.41 
5 *349:25 *349:33 6.75 
6 *349:33 *1306:A1 20.7 
7 *349:33 *1291:I0 4.5 
8 *349:25 *1286:I1 9.27 
9 *349:8 *349:64 8.01 
10 *349:64 *1287:I0 10.17 
11 *349:64 *349:83 18.27 
12 *349:83 *1264:A1 9 
13 *349:83 *1321:A1 30.78 
*END

*D_NET *350 0.0108115
*CONN
*I *1304:A1 I *D gf180mcu_fd_sc_mcu7t5v0__nor2_1
*I *1290:I0 I *D gf180mcu_fd_sc_mcu7t5v0__mux2_2
*I *1263:A4 I *D gf180mcu_fd_sc_mcu7t5v0__nor4_1
*I *1320:I1 I *D gf180mcu_fd_sc_mcu7t5v0__mux2_2
*I *1285:I1 I *D gf180mcu_fd_sc_mcu7t5v0__mux2_2
*I *1286:I0 I *D gf180mcu_fd_sc_mcu7t5v0__mux2_2
*I *1470:Q O *D gf180mcu_fd_sc_mcu7t5v0__dffrnq_1
*CAP
1 *1304:A1 0.000122496
2 *1290:I0 0
3 *1263:A4 0.000394393
4 *1320:I1 0.000428742
5 *1285:I1 0.00013812
6 *1286:I0 0
7 *1470:Q 0.000152459
8 *350:38 0.000914587
9 *350:25 0.000792024
10 *350:14 0.00080082
11 *350:10 0.000326735
12 *350:8 0.000363322
13 *1263:A4 *1263:A3 2.10899e-05
14 *1263:A4 *351:10 9.7773e-05
15 *1263:A4 *351:16 8.8327e-05
16 *350:25 *1166:I 0
17 *350:25 *1285:I0 2.14748e-05
18 *1285:S *350:25 0.000242152
19 *1285:S *350:38 0.00110385
20 *1286:I1 *350:25 1.04066e-05
21 *1286:S *350:25 0.00170554
22 *1290:I1 *350:8 0.000160397
23 *1290:I1 *350:10 0.000154694
24 *1290:I1 *350:14 0.000152103
25 *1306:A1 *1304:A1 6.07964e-05
26 *1306:A1 *350:10 7.44849e-05
27 *1306:A1 *350:14 0.000159141
28 *1320:I0 *1320:I1 0.000247661
29 *1405:I *1263:A4 9.72182e-06
30 *1405:I *1320:I1 6.90764e-05
31 *1467:CLK *350:25 2.30228e-05
32 *1470:D *350:25 0
33 *1471:CLK *1263:A4 0
34 *1507:I *1320:I1 0
35 *1509:I *1263:A4 0.000118913
36 *1520:I *1285:I1 0.000100105
37 *1520:I *350:25 7.07167e-05
38 *1520:I *350:38 7.50306e-05
39 *244:12 *350:8 0
40 *244:12 *350:14 0.000156535
41 *295:27 *350:25 0.000468574
42 *313:48 *350:8 5.68741e-05
43 *330:12 *1285:I1 5.873e-06
44 *330:12 *1320:I1 0.0001344
45 *330:12 *350:38 0.000692706
46 *349:33 *350:14 9.63355e-05
*RES
1 *1470:Q *350:8 10.17 
2 *350:8 *350:10 1.17 
3 *350:10 *350:14 7.29 
4 *350:14 *1286:I0 4.5 
5 *350:14 *350:25 6.57 
6 *350:25 *1285:I1 5.4 
7 *350:25 *350:38 7.47 
8 *350:38 *1320:I1 13.41 
9 *350:38 *1263:A4 12.69 
10 *350:10 *1290:I0 9 
11 *350:8 *1304:A1 9.99 
*END

*D_NET *351 0.00857691
*CONN
*I *1302:A1 I *D gf180mcu_fd_sc_mcu7t5v0__nor2_1
*I *1285:I0 I *D gf180mcu_fd_sc_mcu7t5v0__mux2_2
*I *1263:A3 I *D gf180mcu_fd_sc_mcu7t5v0__nor4_1
*I *1284:I1 I *D gf180mcu_fd_sc_mcu7t5v0__mux2_2
*I *1318:A1 I *D gf180mcu_fd_sc_mcu7t5v0__nand2_1
*I *1471:Q O *D gf180mcu_fd_sc_mcu7t5v0__dffrnq_1
*CAP
1 *1302:A1 0.00019295
2 *1285:I0 0.000297281
3 *1263:A3 0.000184706
4 *1284:I1 3.33195e-05
5 *1318:A1 0.000277274
6 *1471:Q 0
7 *351:22 0.000505147
8 *351:16 0.000614286
9 *351:10 0.000850619
10 *351:6 0.000511262
11 *1263:A3 *1263:A2 0.000145707
12 *1263:A3 *352:8 8.68398e-06
13 *1263:A3 *352:14 4.50976e-05
14 *1318:A1 *352:39 3.0177e-06
15 *351:16 *1263:A2 1.51153e-05
16 *351:22 *352:14 4.34199e-06
17 *1263:A4 *1263:A3 2.10899e-05
18 *1263:A4 *351:10 9.7773e-05
19 *1263:A4 *351:16 8.8327e-05
20 *1265:A1 *351:16 0.000223398
21 *1285:S *1284:I1 4.33691e-05
22 *1285:S *1285:I0 0.00046972
23 *1285:S *351:16 0.00116201
24 *1285:S *351:22 7.52352e-05
25 *1286:S *1285:I0 0.000106536
26 *1318:A2 *1318:A1 0.000129389
27 *1323:I0 *1318:A1 0.00014648
28 *1395:I *1302:A1 4.22217e-05
29 *1405:I *351:10 0.000276564
30 *1441:D *1302:A1 8.32356e-05
31 *1441:D *351:10 3.42213e-05
32 *1471:CLK *1263:A3 6.07964e-05
33 *1471:CLK *351:22 6.18939e-05
34 *1472:D *1318:A1 1.07281e-05
35 *1472:RN *1263:A3 0.000184077
36 *1472:CLK *1318:A1 9.20679e-05
37 *1507:I *1318:A1 5.8482e-06
38 *1509:I *1285:I0 0
39 *1509:I *351:16 0
40 *231:14 *1284:I1 0.00020858
41 *231:14 *1318:A1 0
42 *231:14 *351:22 0.000439565
43 *306:119 *1302:A1 0.000204492
44 *313:68 *1302:A1 0.000119182
45 *313:70 *1302:A1 8.59696e-05
46 *313:70 *351:10 0.000224075
47 *330:41 *1318:A1 0
48 *349:83 *1318:A1 0.00016978
49 *350:25 *1285:I0 2.14748e-05
*RES
1 *1471:Q *351:6 9 
2 *351:6 *351:10 8.55 
3 *351:10 *351:16 7.92 
4 *351:16 *351:22 6.66 
5 *351:22 *1318:A1 16.02 
6 *351:22 *1284:I1 5.13 
7 *351:16 *1263:A3 10.98 
8 *351:10 *1285:I0 7.65 
9 *351:6 *1302:A1 11.52 
*END

*D_NET *352 0.016207
*CONN
*I *1263:A2 I *D gf180mcu_fd_sc_mcu7t5v0__nor4_1
*I *1300:A1 I *D gf180mcu_fd_sc_mcu7t5v0__nor2_1
*I *1317:I1 I *D gf180mcu_fd_sc_mcu7t5v0__mux2_2
*I *1282:A1 I *D gf180mcu_fd_sc_mcu7t5v0__nand2_1
*I *1284:I0 I *D gf180mcu_fd_sc_mcu7t5v0__mux2_2
*I *1472:Q O *D gf180mcu_fd_sc_mcu7t5v0__dffrnq_1
*CAP
1 *1263:A2 0.000124388
2 *1300:A1 0.00096053
3 *1317:I1 0
4 *1282:A1 3.34584e-05
5 *1284:I0 0
6 *1472:Q 0.000259202
7 *352:60 0.00186179
8 *352:39 0.00226281
9 *352:14 0.00148343
10 *352:8 0.000538933
11 *352:60 *1315:A1 0
12 *1263:A1 *352:39 0
13 *1263:A3 *1263:A2 0.000145707
14 *1263:A3 *352:8 8.68398e-06
15 *1263:A3 *352:14 4.50976e-05
16 *1265:A1 *1263:A2 0.000121576
17 *1265:A1 *352:14 0.000294431
18 *1265:A1 *352:39 0.000458181
19 *1265:A2 *352:39 2.65444e-06
20 *1278:A2 *352:39 8.31143e-06
21 *1283:A2 *1282:A1 0.000109323
22 *1285:S *352:14 0.000302466
23 *1285:S *352:39 7.10237e-05
24 *1313:A2 *1300:A1 0.000213332
25 *1314:B *1300:A1 0.000427501
26 *1316:B *352:60 3.63058e-05
27 *1318:A1 *352:39 3.0177e-06
28 *1321:A1 *1300:A1 0.000297533
29 *1408:I *352:60 2.20693e-05
30 *1426:I *352:8 3.60262e-05
31 *1452:RN *352:60 0.000109215
32 *1453:D *352:60 9.07783e-05
33 *1453:RN *1300:A1 0.000377108
34 *1453:RN *352:60 0.000515537
35 *1454:D *352:60 0.000109854
36 *1454:RN *352:60 0.000444513
37 *1471:CLK *352:8 0
38 *1472:RN *1263:A2 6.13973e-05
39 *1472:RN *352:8 0
40 *1509:I *1263:A2 1.77397e-05
41 *1510:I *1300:A1 0.00015668
42 *1516:I *352:39 0.000102988
43 *141:29 *1300:A1 0.000297533
44 *142:36 *352:39 0
45 *151:22 *1300:A1 3.1561e-05
46 *231:14 *352:39 0.00037349
47 *253:42 *352:39 0.000446921
48 *305:58 *352:60 6.2083e-06
49 *305:62 *352:60 0.000242943
50 *305:66 *1300:A1 0.000462306
51 *308:28 *1282:A1 0.000109323
52 *308:28 *352:39 0.000283821
53 *308:48 *352:39 0.00141577
54 *308:82 *352:14 0
55 *308:82 *352:39 0.000224506
56 *315:45 *352:60 3.55867e-05
57 *315:61 *1300:A1 2.43247e-05
58 *333:8 *352:60 0
59 *334:8 *1300:A1 0.000119679
60 *351:16 *1263:A2 1.51153e-05
61 *351:22 *352:14 4.34199e-06
*RES
1 *1472:Q *352:8 10.89 
2 *352:8 *352:14 6.12 
3 *352:14 *1284:I0 4.5 
4 *352:14 *352:39 35.19 
5 *352:39 *1282:A1 9.45 
6 *352:39 *352:60 21.87 
7 *352:60 *1317:I1 4.5 
8 *352:60 *1300:A1 22.95 
9 *352:8 *1263:A2 10.53 
*END

*D_NET *353 0.00189882
*CONN
*I *1168:I I *D gf180mcu_fd_sc_mcu7t5v0__clkinv_1
*I *1315:A1 I *D gf180mcu_fd_sc_mcu7t5v0__nand2_1
*I *1473:Q O *D gf180mcu_fd_sc_mcu7t5v0__dffrnq_1
*CAP
1 *1168:I 0
2 *1315:A1 0.000248044
3 *1473:Q 9.81667e-05
4 *353:10 0.000346211
5 *1283:A1 *1315:A1 0.000173529
6 *1283:A1 *353:10 7.00004e-05
7 *1319:B *1315:A1 6.72164e-05
8 *1427:I *1315:A1 1.61174e-05
9 *1507:I *353:10 0.000103922
10 *142:25 *353:10 0.000226823
11 *308:26 *1315:A1 1.39088e-05
12 *308:48 *1315:A1 6.85292e-05
13 *308:48 *353:10 0.000115921
14 *330:41 *353:10 0.000283695
15 *333:8 *1315:A1 6.67366e-05
16 *352:60 *1315:A1 0
*RES
1 *1473:Q *353:10 10.62 
2 *353:10 *1315:A1 10.98 
3 *353:10 *1168:I 9 
*END

*D_NET *354 0.00772991
*CONN
*I *1278:A1 I *D gf180mcu_fd_sc_mcu7t5v0__nand2_1
*I *1296:A1 I *D gf180mcu_fd_sc_mcu7t5v0__nor2_1
*I *1313:A1 I *D gf180mcu_fd_sc_mcu7t5v0__nand2_1
*I *1280:A1 I *D gf180mcu_fd_sc_mcu7t5v0__nor2_1
*I *1264:A4 I *D gf180mcu_fd_sc_mcu7t5v0__nor4_1
*I *1474:Q O *D gf180mcu_fd_sc_mcu7t5v0__dffrnq_1
*CAP
1 *1278:A1 1.63191e-05
2 *1296:A1 0.000467969
3 *1313:A1 0.000189671
4 *1280:A1 0.000200822
5 *1264:A4 8.58642e-05
6 *1474:Q 0.000287566
7 *354:48 0.00113589
8 *354:38 0.000697367
9 *354:23 0.0006523
10 *354:10 0.00062211
11 *1264:A3 *1264:A4 2.03791e-05
12 *1264:A3 *354:23 1.76011e-05
13 *1278:A2 *1280:A1 0
14 *1279:B *354:48 0.000212224
15 *1281:B *1280:A1 0.000104289
16 *1299:A1 *1280:A1 4.21964e-05
17 *1299:A1 *354:23 0.000118531
18 *1321:A1 *1264:A4 0.000365454
19 *1321:A1 *1278:A1 1.78132e-05
20 *1321:A1 *1280:A1 8.67059e-06
21 *1321:A1 *354:23 0.000658131
22 *1321:A1 *354:38 0.000111522
23 *1321:A1 *354:48 0
24 *1409:I *1296:A1 0
25 *1428:I *354:10 6.34031e-05
26 *1474:RN *354:23 7.22983e-05
27 *141:29 *1313:A1 0
28 *141:29 *354:48 0.000209482
29 *142:36 *1280:A1 6.85292e-05
30 *253:42 *1280:A1 1.12219e-05
31 *253:42 *1313:A1 0.000247379
32 *253:42 *354:38 0
33 *253:42 *354:48 0.000645069
34 *253:65 *1313:A1 0.00037349
35 *253:65 *354:48 1.69023e-06
36 *296:61 *354:10 0
37 *308:82 *1280:A1 4.6613e-06
*RES
1 *1474:Q *354:10 15.75 
2 *354:10 *1264:A4 5.49 
3 *354:10 *354:23 7.2 
4 *354:23 *1280:A1 10.44 
5 *354:23 *354:38 6.03 
6 *354:38 *354:48 9.9 
7 *354:48 *1313:A1 10.98 
8 *354:48 *1296:A1 12.51 
9 *354:38 *1278:A1 4.77 
*END

*D_NET *355 0.00048663
*CONN
*I *1167:I I *D gf180mcu_fd_sc_mcu7t5v0__clkinv_1
*I *1475:Q O *D gf180mcu_fd_sc_mcu7t5v0__dffrnq_1
*CAP
1 *1167:I 0.000214849
2 *1475:Q 0.000214849
3 *1429:I *1167:I 0
4 *1475:RN *1167:I 5.69319e-05
*RES
1 *1475:Q *1167:I 10.62 
*END

*D_NET *356 0.00175958
*CONN
*I *1166:I I *D gf180mcu_fd_sc_mcu7t5v0__clkinv_1
*I *1293:A2 I *D gf180mcu_fd_sc_mcu7t5v0__nand3_1
*I *1476:Q O *D gf180mcu_fd_sc_mcu7t5v0__dffrnq_1
*CAP
1 *1166:I 0.000204881
2 *1293:A2 0.000228717
3 *1476:Q 0
4 *356:6 0.000433598
5 *1466:CLK *1293:A2 0.000647473
6 *1470:D *1293:A2 0
7 *1470:CLK *1166:I 0.000110639
8 *1470:CLK *1293:A2 1.03692e-05
9 *1520:I *1166:I 3.31517e-06
10 *140:8 *1166:I 5.08425e-05
11 *140:8 *1293:A2 6.97472e-05
12 *350:25 *1166:I 0
*RES
1 *1476:Q *356:6 9 
2 *356:6 *1293:A2 11.52 
3 *356:6 *1166:I 10.62 
*END

*D_NET *357 0.00200503
*CONN
*I *1165:I I *D gf180mcu_fd_sc_mcu7t5v0__clkinv_1
*I *1289:A1 I *D gf180mcu_fd_sc_mcu7t5v0__nand3_1
*I *1477:Q O *D gf180mcu_fd_sc_mcu7t5v0__dffrnq_1
*CAP
1 *1165:I 0
2 *1289:A1 0.000117474
3 *1477:Q 0.000181638
4 *357:10 0.000299112
5 *1291:S *1289:A1 0.000382884
6 *1291:S *357:10 0.00023711
7 *1293:A1 *357:10 8.81508e-05
8 *1310:A1 *1289:A1 0.000288855
9 *1466:D *357:10 0.000233987
10 *1466:CLK *1289:A1 5.78854e-06
11 *1476:RN *1289:A1 8.38699e-05
12 *139:10 *1289:A1 6.22343e-05
13 *139:10 *357:10 9.93993e-06
14 *310:66 *1289:A1 1.18477e-05
15 *319:62 *357:10 2.13441e-06
*RES
1 *1477:Q *357:10 10.8 
2 *357:10 *1289:A1 10.8 
3 *357:10 *1165:I 9 
*END

*D_NET *358 0.00994428
*CONN
*I *1246:B I *D gf180mcu_fd_sc_mcu7t5v0__oai31_1
*I *1244:A2 I *D gf180mcu_fd_sc_mcu7t5v0__nand2_1
*I *1185:I I *D gf180mcu_fd_sc_mcu7t5v0__clkinv_1
*I *1502:D I *D gf180mcu_fd_sc_mcu7t5v0__dffsnq_1
*I *1236:A2 I *D gf180mcu_fd_sc_mcu7t5v0__nor2_1
*I *1238:A3 I *D gf180mcu_fd_sc_mcu7t5v0__or3_1
*I *1237:A3 I *D gf180mcu_fd_sc_mcu7t5v0__nor3_1
*I *1504:Q O *D gf180mcu_fd_sc_mcu7t5v0__dffsnq_1
*CAP
1 *1246:B 0.000106395
2 *1244:A2 0.000433628
3 *1185:I 0
4 *1502:D 0.000192954
5 *1236:A2 0
6 *1238:A3 0.000124903
7 *1237:A3 6.03876e-05
8 *1504:Q 0
9 *358:47 0.000584516
10 *358:43 0.0011963
11 *358:23 0.000197728
12 *358:12 0.000321944
13 *358:10 0.000905866
14 *358:6 0.000452416
15 *1246:B *365:14 2.08301e-05
16 *1246:B *365:20 1.0415e-05
17 *358:10 *359:27 0
18 *1237:A1 *1238:A3 4.21768e-05
19 *1237:A1 *358:23 4.74102e-05
20 *1237:A2 *1237:A3 0.00035741
21 *1237:A2 *358:12 0.000161479
22 *1237:A2 *358:23 9.4836e-05
23 *1243:A2 *1502:D 0.000117805
24 *1243:A3 *1246:B 3.12451e-05
25 *1248:A3 *358:10 8.16511e-05
26 *1248:A3 *358:12 0.000104278
27 *1248:A3 *358:43 0.000143853
28 *1249:A2 *358:47 8.54106e-06
29 *1249:B *1502:D 8.12023e-06
30 *1502:CLK *1502:D 3.55118e-05
31 *1531:I *358:43 0.000790543
32 *158:17 *1238:A3 0.000169917
33 *158:17 *358:23 7.50811e-05
34 *206:6 *1237:A3 8.69576e-05
35 *211:16 *1237:A3 2.32355e-05
36 *211:16 *358:12 0.000151361
37 *215:8 *1244:A2 4.38853e-05
38 *215:8 *358:47 3.31517e-06
39 *217:16 *1246:B 0.000186229
40 *217:16 *358:10 0.000930487
41 *218:12 *358:43 0.00060899
42 *218:33 *358:47 0.000155079
43 *294:52 *1246:B 7.80776e-06
44 *311:10 *358:10 3.5827e-05
45 *319:30 *358:12 0.000665559
46 *319:30 *358:43 0.000119192
47 *327:67 *1238:A3 4.82122e-05
*RES
1 *1504:Q *358:6 9 
2 *358:6 *358:10 7.65 
3 *358:10 *358:12 2.97 
4 *358:12 *1237:A3 5.49 
5 *358:12 *358:23 5.49 
6 *358:23 *1238:A3 10.35 
7 *358:23 *1236:A2 9 
8 *358:10 *358:43 10.35 
9 *358:43 *358:47 7.11 
10 *358:47 *1502:D 6.12 
11 *358:47 *1185:I 4.5 
12 *358:43 *1244:A2 11.25 
13 *358:6 *1246:B 9.9 
*END

*D_NET *359 0.00852331
*CONN
*I *1244:A1 I *D gf180mcu_fd_sc_mcu7t5v0__nand2_1
*I *1248:A1 I *D gf180mcu_fd_sc_mcu7t5v0__nor3_1
*I *1184:I I *D gf180mcu_fd_sc_mcu7t5v0__clkinv_1
*I *1243:A1 I *D gf180mcu_fd_sc_mcu7t5v0__and4_1
*I *1247:A1 I *D gf180mcu_fd_sc_mcu7t5v0__nor2_1
*I *1502:Q O *D gf180mcu_fd_sc_mcu7t5v0__dffsnq_1
*CAP
1 *1244:A1 7.14593e-05
2 *1248:A1 0
3 *1184:I 0.000153307
4 *1243:A1 0.000160499
5 *1247:A1 0.00056966
6 *1502:Q 0.000126849
7 *359:42 0.000203244
8 *359:27 0.000512992
9 *359:8 0.00115071
10 *359:6 0.000476803
11 *1244:A1 *360:29 2.99208e-05
12 *1247:A1 *365:20 0
13 *359:8 *360:29 4.1822e-05
14 *1243:A2 *1243:A1 0.000106536
15 *1243:A3 *1247:A1 0.000112212
16 *1243:A3 *359:8 3.325e-05
17 *1247:A2 *1247:A1 0.000484915
18 *1249:B *1243:A1 0.000220609
19 *1272:A2 *1184:I 6.60586e-05
20 *1272:A2 *359:42 3.70804e-05
21 *1495:D *359:8 0
22 *1502:CLK *1243:A1 0.000155203
23 *1504:D *1184:I 2.63429e-05
24 *1504:CLK *1243:A1 2.30981e-05
25 *211:16 *1184:I 2.36914e-05
26 *211:20 *1184:I 0.000177559
27 *211:20 *359:42 0.000223398
28 *235:6 *359:8 2.73782e-05
29 *269:16 *1244:A1 6.36965e-05
30 *269:16 *359:8 0.000473402
31 *269:32 *1247:A1 0.000353915
32 *269:32 *359:8 0.000589913
33 *294:58 *1243:A1 0.00043778
34 *294:58 *359:27 0.00128761
35 *311:10 *359:27 0.000102397
36 *358:10 *359:27 0
*RES
1 *1502:Q *359:6 5.31 
2 *359:6 *359:8 3.33 
3 *359:8 *1247:A1 9.45 
4 *359:8 *359:27 8.01 
5 *359:27 *1243:A1 11.88 
6 *359:27 *359:42 5.13 
7 *359:42 *1184:I 15.12 
8 *359:42 *1248:A1 4.5 
9 *359:6 *1244:A1 5.13 
*END

*D_NET *360 0.00958797
*CONN
*I *1245:A1 I *D gf180mcu_fd_sc_mcu7t5v0__nor3_1
*I *1288:I1 I *D gf180mcu_fd_sc_mcu7t5v0__mux2_2
*I *1268:A1 I *D gf180mcu_fd_sc_mcu7t5v0__xor2_1
*I *1343:A1 I *D gf180mcu_fd_sc_mcu7t5v0__oai32_1
*I *1500:D I *D gf180mcu_fd_sc_mcu7t5v0__dffsnq_1
*I *1503:Q O *D gf180mcu_fd_sc_mcu7t5v0__dffsnq_1
*CAP
1 *1245:A1 6.95147e-05
2 *1288:I1 0.00106155
3 *1268:A1 0.00037705
4 *1343:A1 0
5 *1500:D 9.76157e-05
6 *1503:Q 0.000738106
7 *360:31 0.00037705
8 *360:29 0.00143266
9 *360:23 0.000926864
10 *360:8 0.00132196
11 *1288:I1 *1187:I 0.000318962
12 *1244:A1 *360:29 2.99208e-05
13 *1245:A3 *360:29 5.97457e-06
14 *1268:A2 *360:8 0
15 *1268:A2 *360:23 0
16 *1269:A2 *1245:A1 0.000166876
17 *1269:A2 *360:23 0.000377211
18 *1269:A2 *360:29 3.00687e-05
19 *1339:A2 *360:23 0
20 *1340:A2 *360:29 1.78052e-05
21 *1343:A2 *1268:A1 0.0011021
22 *1343:B1 *1268:A1 3.98088e-05
23 *1468:D *1288:I1 7.01651e-05
24 *1495:RN *1288:I1 0
25 *1500:CLK *360:8 2.32821e-05
26 *1500:CLK *360:23 2.65444e-06
27 *1528:I *360:8 0.000149282
28 *10:12 *360:8 2.3259e-05
29 *157:24 *1268:A1 7.01651e-05
30 *157:24 *360:23 2.14748e-05
31 *214:10 *360:29 0
32 *235:6 *1268:A1 2.40933e-06
33 *235:6 *360:29 0.000638833
34 *269:16 *360:23 1.33014e-05
35 *269:16 *360:29 4.56896e-06
36 *294:44 *1288:I1 0
37 *297:67 *1268:A1 0
38 *297:67 *1288:I1 0
39 *318:31 *360:8 3.56486e-05
40 *359:8 *360:29 4.1822e-05
*RES
1 *1503:Q *360:8 9.54 
2 *360:8 *1500:D 5.13 
3 *360:8 *360:23 3.96 
4 *360:23 *360:29 7.92 
5 *360:29 *360:31 4.5 
6 *360:31 *1343:A1 4.5 
7 *360:31 *1268:A1 8.55 
8 *360:29 *1288:I1 16.02 
9 *360:23 *1245:A1 5.22 
*END

*D_NET *361 0.000887608
*CONN
*I *1183:I I *D gf180mcu_fd_sc_mcu7t5v0__clkinv_1
*I *1500:Q O *D gf180mcu_fd_sc_mcu7t5v0__dffsnq_1
*CAP
1 *1183:I 0.000302253
2 *1500:Q 0.000302253
3 *1452:D *1183:I 0
4 *1453:D *1183:I 3.42213e-05
5 *1500:SETN *1183:I 8.69474e-05
6 *297:61 *1183:I 0.000119192
7 *315:43 *1183:I 4.27403e-05
*RES
1 *1500:Q *1183:I 20.7 
*END

*D_NET *362 0.00431516
*CONN
*I *1273:A1 I *D gf180mcu_fd_sc_mcu7t5v0__nand2_1
*I *1353:B2 I *D gf180mcu_fd_sc_mcu7t5v0__aoi22_1
*I *1240:A1 I *D gf180mcu_fd_sc_mcu7t5v0__nor2_1
*I *1241:A2 I *D gf180mcu_fd_sc_mcu7t5v0__or3_1
*I *1492:Q O *D gf180mcu_fd_sc_mcu7t5v0__dffrnq_1
*CAP
1 *1273:A1 0
2 *1353:B2 0
3 *1240:A1 0.000103107
4 *1241:A2 0.00018813
5 *1492:Q 0.000538434
6 *362:14 0.00051807
7 *362:12 0.000427944
8 *362:10 0.000739545
9 *1240:A1 *1240:A2 0.000215887
10 *1240:A1 *363:31 4.55112e-05
11 *1240:A1 *366:35 0.000223398
12 *1241:A2 *1347:B 9.5155e-05
13 *1241:A2 *363:35 4.82027e-05
14 *1241:A2 *364:18 4.72305e-06
15 *1241:A2 *366:35 3.22122e-05
16 *362:10 *364:10 0.000260128
17 *362:12 *364:10 1.18076e-06
18 *362:12 *364:12 3.89257e-05
19 *362:14 *364:12 2.40219e-05
20 *362:14 *364:18 7.13692e-06
21 *1353:A2 *1240:A1 9.84908e-05
22 *1354:A2 *1240:A1 9.18827e-05
23 *1492:CLK *1240:A1 0.000567799
24 *207:25 *362:10 0
25 *207:25 *362:12 0
26 *207:25 *362:14 0
27 *270:22 *1240:A1 0
28 *271:19 *1241:A2 7.3556e-06
29 *271:19 *362:14 1.22343e-05
30 *348:18 *362:10 2.5688e-05
*RES
1 *1492:Q *362:10 13.32 
2 *362:10 *362:12 1.53 
3 *362:12 *362:14 1.35 
4 *362:14 *1241:A2 10.08 
5 *362:14 *1240:A1 11.43 
6 *362:12 *1353:B2 9 
7 *362:10 *1273:A1 9 
*END

*D_NET *363 0.00855769
*CONN
*I *1241:A1 I *D gf180mcu_fd_sc_mcu7t5v0__or3_1
*I *1351:B I *D gf180mcu_fd_sc_mcu7t5v0__oai21_1
*I *1271:A1 I *D gf180mcu_fd_sc_mcu7t5v0__aoi211_1
*I *1186:I I *D gf180mcu_fd_sc_mcu7t5v0__clkinv_1
*I *1493:Q O *D gf180mcu_fd_sc_mcu7t5v0__dffrnq_1
*CAP
1 *1241:A1 0
2 *1351:B 0.000237472
3 *1271:A1 6.73905e-05
4 *1186:I 0.000864808
5 *1493:Q 9.5929e-05
6 *363:35 0.00100566
7 *363:31 0.000870846
8 *363:8 0.00113078
9 *1186:I *366:12 8.42299e-05
10 *1186:I *366:35 0.000847295
11 *363:31 *1347:B 9.5155e-05
12 *363:31 *364:18 0.00021369
13 *363:31 *366:35 0.000609619
14 *363:35 *364:18 8.31705e-06
15 *1240:A1 *363:31 4.55112e-05
16 *1241:A2 *363:35 4.82027e-05
17 *1266:A2 *1271:A1 2.31089e-05
18 *1271:C *1271:A1 0.000106536
19 *1272:A2 *1351:B 1.34641e-05
20 *1338:A2 *363:35 0.000146193
21 *1341:A1 *1186:I 0.000274279
22 *1341:B1 *1186:I 5.93219e-05
23 *1341:B2 *1186:I 0
24 *1342:A1 *1186:I 4.12217e-05
25 *1342:A2 *1186:I 5.06104e-06
26 *1342:B2 *1186:I 0.000458887
27 *1351:A1 *1271:A1 0
28 *1351:A1 *363:35 0
29 *1465:CLK *1186:I 0
30 *1492:CLK *363:31 0.000425752
31 *1493:RN *1186:I 0.000142517
32 *1493:RN *363:8 2.53811e-05
33 *1493:RN *363:31 4.77966e-05
34 *211:10 *363:35 1.77066e-05
35 *211:16 *1351:B 3.55118e-05
36 *211:16 *363:35 8.54106e-06
37 *212:23 *1271:A1 0.000255088
38 *212:23 *363:35 0.00020066
39 *231:29 *1351:B 2.57443e-05
40 *270:22 *1186:I 2.00048e-05
41 *271:19 *363:35 0
*RES
1 *1493:Q *363:8 5.22 
2 *363:8 *1186:I 21.42 
3 *363:8 *363:31 2.97 
4 *363:31 *363:35 8.73 
5 *363:35 *1271:A1 9.9 
6 *363:35 *1351:B 10.26 
7 *363:31 *1241:A1 4.5 
*END

*D_NET *364 0.00628222
*CONN
*I *1345:A1 I *D gf180mcu_fd_sc_mcu7t5v0__and2_1
*I *1240:A2 I *D gf180mcu_fd_sc_mcu7t5v0__nor2_1
*I *1347:B I *D gf180mcu_fd_sc_mcu7t5v0__oai21_1
*I *1241:A3 I *D gf180mcu_fd_sc_mcu7t5v0__or3_1
*I *1494:Q O *D gf180mcu_fd_sc_mcu7t5v0__dffrnq_1
*CAP
1 *1345:A1 7.33671e-05
2 *1240:A2 4.75238e-05
3 *1347:B 0.000153833
4 *1241:A3 9.58651e-05
5 *1494:Q 0.000777243
6 *364:18 0.000489533
7 *364:12 0.000642372
8 *364:10 0.00120562
9 *1240:A2 *366:35 2.14748e-05
10 *1241:A3 *366:35 9.18756e-06
11 *1347:B *366:35 6.69896e-05
12 *364:18 *366:35 5.96408e-05
13 *1240:A1 *1240:A2 0.000215887
14 *1241:A2 *1347:B 9.5155e-05
15 *1241:A2 *364:18 4.72305e-06
16 *1345:A2 *1345:A1 0.000280356
17 *1354:A2 *1240:A2 0.000578516
18 *1469:D *364:10 7.01651e-05
19 *1492:CLK *1347:B 0.00046585
20 *1494:RN *364:10 0
21 *237:8 *1345:A1 0.000280356
22 *310:96 *364:10 0
23 *348:18 *364:10 0
24 *348:24 *364:10 0
25 *362:10 *364:10 0.000260128
26 *362:12 *364:10 1.18076e-06
27 *362:12 *364:12 3.89257e-05
28 *362:14 *364:12 2.40219e-05
29 *362:14 *364:18 7.13692e-06
30 *363:31 *1347:B 9.5155e-05
31 *363:31 *364:18 0.00021369
32 *363:35 *364:18 8.31705e-06
*RES
1 *1494:Q *364:10 14.94 
2 *364:10 *364:12 2.43 
3 *364:12 *364:18 6.12 
4 *364:18 *1241:A3 5.13 
5 *364:18 *1347:B 6.57 
6 *364:12 *1240:A2 10.53 
7 *364:10 *1345:A1 10.71 
*END

*D_NET *365 0.007525
*CONN
*I *1187:I I *D gf180mcu_fd_sc_mcu7t5v0__clkinv_1
*I *1246:A1 I *D gf180mcu_fd_sc_mcu7t5v0__oai31_1
*I *1239:A1 I *D gf180mcu_fd_sc_mcu7t5v0__nor3_1
*I *1349:A1 I *D gf180mcu_fd_sc_mcu7t5v0__nand2_1
*I *1495:Q O *D gf180mcu_fd_sc_mcu7t5v0__dffrnq_1
*CAP
1 *1187:I 0.000225948
2 *1246:A1 0
3 *1239:A1 0
4 *1349:A1 0.000479087
5 *1495:Q 0.000415744
6 *365:20 0.000685504
7 *365:14 0.000760152
8 *365:8 0.00119543
9 *1349:A1 *366:45 0.00118495
10 *365:20 *1246:A2 6.34269e-05
11 *365:20 *366:45 4.75096e-05
12 *1243:A3 *365:14 7.59619e-05
13 *1243:A3 *365:20 0.00027481
14 *1246:B *365:14 2.08301e-05
15 *1246:B *365:20 1.0415e-05
16 *1247:A1 *365:20 0
17 *1288:I1 *1187:I 0.000318962
18 *1348:A1 *1349:A1 5.25643e-05
19 *1352:A1 *1349:A1 3.2553e-06
20 *1353:A2 *1349:A1 0.000535397
21 *1494:D *1349:A1 6.7989e-05
22 *1495:D *1187:I 2.5688e-05
23 *1495:D *365:14 0.000169515
24 *1495:CLK *365:14 2.31089e-05
25 *231:14 *1349:A1 1.18076e-06
26 *235:18 *1349:A1 0
27 *269:32 *1349:A1 7.80776e-06
28 *269:34 *1349:A1 0
29 *270:22 *1187:I 0
30 *270:22 *365:14 0.000364473
31 *270:22 *365:20 6.06287e-05
32 *294:12 *1349:A1 0.00027566
33 *294:31 *365:20 1.69023e-06
34 *294:52 *365:14 0.000103139
35 *311:58 *365:8 7.41861e-05
*RES
1 *1495:Q *365:8 11.97 
2 *365:8 *365:14 9.54 
3 *365:14 *365:20 2.07 
4 *365:20 *1349:A1 18.72 
5 *365:20 *1239:A1 4.5 
6 *365:14 *1246:A1 4.5 
7 *365:8 *1187:I 11.07 
*END

*D_NET *366 0.0115372
*CONN
*I *1346:A1 I *D gf180mcu_fd_sc_mcu7t5v0__nand2_1
*I *1246:A2 I *D gf180mcu_fd_sc_mcu7t5v0__oai31_1
*I *1239:A2 I *D gf180mcu_fd_sc_mcu7t5v0__nor3_1
*I *1188:I I *D gf180mcu_fd_sc_mcu7t5v0__clkinv_1
*I *1496:Q O *D gf180mcu_fd_sc_mcu7t5v0__dffrnq_1
*CAP
1 *1346:A1 0
2 *1246:A2 0.000192927
3 *1239:A2 0
4 *1188:I 0
5 *1496:Q 0.00109411
6 *366:45 0.000578983
7 *366:35 0.00156307
8 *366:12 0.00227113
9 *1246:A2 *1246:A3 0.000102063
10 *1186:I *366:12 8.42299e-05
11 *1186:I *366:35 0.000847295
12 *1240:A1 *366:35 0.000223398
13 *1240:A2 *366:35 2.14748e-05
14 *1241:A2 *366:35 3.22122e-05
15 *1241:A3 *366:35 9.18756e-06
16 *1277:B *366:12 0
17 *1292:I0 *366:12 0.000760023
18 *1338:A2 *366:35 0
19 *1342:A1 *366:35 0.000185262
20 *1342:B2 *366:12 1.03831e-05
21 *1347:B *366:35 6.69896e-05
22 *1348:A2 *1246:A2 0
23 *1349:A1 *366:45 0.00118495
24 *1353:A2 *366:45 1.07281e-05
25 *1354:A1 *366:12 3.51497e-05
26 *1354:A2 *366:35 2.26729e-05
27 *1492:CLK *366:35 2.25399e-05
28 *1493:RN *366:35 0
29 *1494:D *366:45 0.000628106
30 *1501:D *366:12 1.25323e-05
31 *207:10 *366:35 0
32 *210:6 *366:35 0.000173247
33 *211:10 *366:35 3.5061e-05
34 *231:14 *366:45 7.45032e-05
35 *237:19 *366:12 4.11306e-05
36 *237:34 *366:12 3.24058e-06
37 *269:34 *366:35 0.000283705
38 *270:22 *366:12 2.16372e-05
39 *294:12 *366:35 9.98677e-06
40 *294:12 *366:45 0.000149329
41 *294:31 *1246:A2 5.79792e-06
42 *294:31 *366:45 0
43 *319:30 *366:35 0
44 *363:31 *366:35 0.000609619
45 *364:18 *366:35 5.96408e-05
46 *365:20 *1246:A2 6.34269e-05
47 *365:20 *366:45 4.75096e-05
*RES
1 *1496:Q *366:12 21.06 
2 *366:12 *1188:I 4.5 
3 *366:12 *366:35 19.53 
4 *366:35 *366:45 13.77 
5 *366:45 *1239:A2 4.5 
6 *366:45 *1246:A2 6.3 
7 *366:35 *1346:A1 4.5 
*END

*D_NET *367 0.0111045
*CONN
*I *1246:A3 I *D gf180mcu_fd_sc_mcu7t5v0__oai31_1
*I *1239:A3 I *D gf180mcu_fd_sc_mcu7t5v0__nor3_1
*I *1353:A1 I *D gf180mcu_fd_sc_mcu7t5v0__aoi22_1
*I *1189:I I *D gf180mcu_fd_sc_mcu7t5v0__clkinv_1
*I *1497:Q O *D gf180mcu_fd_sc_mcu7t5v0__dffrnq_1
*CAP
1 *1246:A3 0.000150336
2 *1239:A3 0
3 *1353:A1 0
4 *1189:I 5.84231e-05
5 *1497:Q 0.00014173
6 *367:38 0.000762084
7 *367:23 0.0016444
8 *367:8 0.0012328
9 *1246:A2 *1246:A3 0.000102063
10 *1348:A1 *367:38 1.35476e-05
11 *1354:A2 *367:23 0.000117403
12 *1465:D *1189:I 0.000119192
13 *1465:D *367:23 4.31832e-06
14 *1465:CLK *1189:I 0.000119192
15 *294:31 *1246:A3 0.000294421
16 *301:10 *367:8 0
17 *301:10 *367:23 0
18 *301:12 *367:23 0.00379681
19 *301:12 *367:38 0.00248853
20 *311:31 *1246:A3 4.79098e-05
21 *311:31 *367:38 1.13241e-05
22 *319:62 *367:8 0
23 *319:62 *367:23 0
*RES
1 *1497:Q *367:8 9.81 
2 *367:8 *1189:I 9.81 
3 *367:8 *367:23 14.94 
4 *367:23 *1353:A1 13.5 
5 *367:23 *367:38 11.16 
6 *367:38 *1239:A3 9 
7 *367:38 *1246:A3 10.71 
*END

*D_NET *368 0.00269242
*CONN
*I *1310:A3 I *D gf180mcu_fd_sc_mcu7t5v0__and3_1
*I *1293:A3 I *D gf180mcu_fd_sc_mcu7t5v0__nand3_1
*I *1289:A3 I *D gf180mcu_fd_sc_mcu7t5v0__nand3_1
*I *1501:Q O *D gf180mcu_fd_sc_mcu7t5v0__dffrnq_1
*CAP
1 *1310:A3 8.8283e-05
2 *1293:A3 0
3 *1289:A3 0
4 *1501:Q 3.48845e-05
5 *368:19 0.000241268
6 *368:8 0.00018787
7 *1310:A1 *1310:A3 5.56123e-05
8 *1466:CLK *1310:A3 0.000898846
9 *1476:RN *1310:A3 0.000568913
10 *349:25 *368:8 0.000171431
11 *349:25 *368:19 0.000445314
*RES
1 *1501:Q *368:8 9.45 
2 *368:8 *1289:A3 9 
3 *368:8 *368:19 5.85 
4 *368:19 *1293:A3 4.5 
5 *368:19 *1310:A3 6.93 
*END

*D_NET *369 0.00699586
*CONN
*I *1227:A1 I *D gf180mcu_fd_sc_mcu7t5v0__nand2_1
*I *1228:A2 I *D gf180mcu_fd_sc_mcu7t5v0__nand4_1
*I *1161:I I *D gf180mcu_fd_sc_mcu7t5v0__clkinv_1
*I *1484:Q O *D gf180mcu_fd_sc_mcu7t5v0__dffrnq_1
*CAP
1 *1227:A1 0.000176353
2 *1228:A2 0.000213487
3 *1161:I 0.000728998
4 *1484:Q 0.00050252
5 *369:12 0.0011994
6 *369:8 0.000935788
7 *1161:I *1202:A1 0
8 *1161:I *371:10 1.69115e-05
9 *1227:A1 *1232:A1 0.000365445
10 *1228:A2 *370:16 0.000119952
11 *1228:A2 *371:10 1.00099e-05
12 *1203:C *1161:I 4.5615e-05
13 *1226:A2 *1228:A2 0.000151427
14 *1227:A2 *1227:A1 0.000260328
15 *1232:A2 *1227:A1 0.0001987
16 *1233:A3 *1227:A1 0.000107798
17 *1234:A2 *1161:I 9.57249e-05
18 *1234:A2 *1228:A2 8.69576e-05
19 *1485:D *1227:A1 0.000824046
20 *1513:I *1161:I 6.78732e-05
21 *1519:I *1161:I 2.8591e-05
22 *199:6 *1228:A2 0
23 *199:17 *369:8 4.22217e-05
24 *199:17 *369:12 0.000173829
25 *199:32 *369:8 0.000493797
26 *199:45 *369:8 0.000130361
27 *300:31 *1161:I 0
28 *300:31 *369:12 1.97308e-05
*RES
1 *1484:Q *369:8 14.49 
2 *369:8 *369:12 6.57 
3 *369:12 *1161:I 18.81 
4 *369:12 *1228:A2 6.66 
5 *369:8 *1227:A1 12.69 
*END

*D_NET *370 0.00716216
*CONN
*I *1232:A1 I *D gf180mcu_fd_sc_mcu7t5v0__xor2_1
*I *1228:A1 I *D gf180mcu_fd_sc_mcu7t5v0__nand4_1
*I *1199:A1 I *D gf180mcu_fd_sc_mcu7t5v0__aoi22_1
*I *1200:A1 I *D gf180mcu_fd_sc_mcu7t5v0__oai221_1
*I *1485:Q O *D gf180mcu_fd_sc_mcu7t5v0__dffrnq_1
*CAP
1 *1232:A1 3.2371e-05
2 *1228:A1 2.01121e-05
3 *1199:A1 0
4 *1200:A1 0.000105239
5 *1485:Q 0.000499749
6 *370:16 0.000745079
7 *370:12 0.00088685
8 *370:8 0.000759018
9 *1199:A2 *1200:A1 0.00037349
10 *1199:B2 *1200:A1 5.38599e-05
11 *1200:A2 *1200:A1 1.07374e-05
12 *1200:C *1200:A1 1.19491e-05
13 *1200:C *370:16 0
14 *1203:A2 *1200:A1 0
15 *1226:A2 *1228:A1 1.19491e-05
16 *1227:A1 *1232:A1 0.000365445
17 *1227:A2 *1232:A1 0.000294421
18 *1228:A2 *370:16 0.000119952
19 *1233:A1 *370:16 5.90775e-05
20 *1234:A2 *370:16 0.00183367
21 *1235:A2 *370:16 0
22 *1235:A3 *370:16 3.22122e-05
23 *1389:I *370:8 0.00033406
24 *1389:I *370:12 8.79625e-05
25 *1450:CLK *1200:A1 1.58709e-05
26 *1450:CLK *370:16 4.6613e-06
27 *1485:CLK *1228:A1 2.31089e-05
28 *1485:CLK *370:16 7.70028e-05
29 *1513:I *370:16 2.48345e-05
30 *199:17 *370:8 0
31 *199:17 *370:12 0
32 *199:32 *370:8 0
33 *199:45 *370:8 0
34 *300:25 *370:16 0.000222872
35 *300:27 *370:16 0.000120172
36 *300:31 *370:12 3.6437e-05
*RES
1 *1485:Q *370:8 13.77 
2 *370:8 *370:12 6.21 
3 *370:12 *370:16 7.74 
4 *370:16 *1200:A1 5.85 
5 *370:16 *1199:A1 4.5 
6 *370:12 *1228:A1 4.77 
7 *370:8 *1232:A1 9.99 
*END

*D_NET *371 0.00215346
*CONN
*I *1202:A1 I *D gf180mcu_fd_sc_mcu7t5v0__xor2_1
*I *1160:I I *D gf180mcu_fd_sc_mcu7t5v0__clkinv_1
*I *1486:Q O *D gf180mcu_fd_sc_mcu7t5v0__dffrnq_1
*CAP
1 *1202:A1 0.000320119
2 *1160:I 0.000173414
3 *1486:Q 0.000336238
4 *371:10 0.000829771
5 *1161:I *1202:A1 0
6 *1161:I *371:10 1.69115e-05
7 *1202:A2 *1202:A1 4.6613e-06
8 *1228:A2 *371:10 1.00099e-05
9 *1440:I *1202:A1 0.00035975
10 *1486:RN *371:10 0
11 *300:31 *1160:I 4.96361e-05
12 *300:31 *371:10 5.29547e-05
*RES
1 *1486:Q *371:10 11.52 
2 *371:10 *1160:I 10.53 
3 *371:10 *1202:A1 11.79 
*END

*D_NET *372 0.00649535
*CONN
*I *1203:B1 I *D gf180mcu_fd_sc_mcu7t5v0__aoi221_1
*I *1205:C1 I *D gf180mcu_fd_sc_mcu7t5v0__oai222_1
*I *1182:I I *D gf180mcu_fd_sc_mcu7t5v0__clkinv_1
*I *1336:A1 I *D gf180mcu_fd_sc_mcu7t5v0__nor2_1
*I *1487:Q O *D gf180mcu_fd_sc_mcu7t5v0__dffrnq_1
*CAP
1 *1203:B1 0.00026408
2 *1205:C1 0.000183047
3 *1182:I 0
4 *1336:A1 0.000191056
5 *1487:Q 0.000252685
6 *372:36 0.00128141
7 *372:23 0.000908375
8 *372:10 0.000517829
9 *1203:B1 *1199:B1 0.000289436
10 *1203:B1 *375:10 3.17959e-05
11 *1205:C1 *1205:B1 4.6613e-06
12 *1205:C1 *375:6 0
13 *1193:I *1336:A1 0
14 *1202:A2 *372:36 0
15 *1229:A1 *372:10 8.69576e-05
16 *1231:A1 *372:36 0
17 *1231:A2 *372:10 0
18 *1231:A3 *372:23 0
19 *1231:A3 *372:36 0
20 *1324:A2 *372:10 0.00031576
21 *1336:A2 *1336:A1 0
22 *1336:A2 *372:23 0
23 *1337:A4 *1336:A1 0
24 *1380:I *372:36 0.000193087
25 *1388:I *1336:A1 0.000425752
26 *1388:I *372:10 2.73748e-05
27 *1440:I *372:36 0
28 *1490:RN *1205:C1 9.84908e-05
29 *1490:RN *372:36 0.000436478
30 *27:10 *1336:A1 2.99208e-05
31 *134:8 *372:36 0
32 *134:10 *372:36 0
33 *179:18 *1203:B1 0
34 *179:38 *1203:B1 0
35 *202:8 *372:10 2.6147e-05
36 *259:10 *1336:A1 0.000382875
37 *259:10 *372:10 0.000183662
38 *302:10 *372:36 0
39 *316:62 *1336:A1 1.47929e-05
40 *316:73 *1336:A1 8.32424e-05
41 *316:73 *372:23 5.47541e-05
42 *316:73 *372:36 0.000211673
*RES
1 *1487:Q *372:10 11.7 
2 *372:10 *1336:A1 11.52 
3 *372:10 *372:23 0.81 
4 *372:23 *1182:I 9 
5 *372:23 *372:36 11.52 
6 *372:36 *1205:C1 5.67 
7 *372:36 *1203:B1 15.57 
*END

*D_NET *373 0.00756558
*CONN
*I *1326:A2 I *D gf180mcu_fd_sc_mcu7t5v0__nand3_1
*I *1334:A1 I *D gf180mcu_fd_sc_mcu7t5v0__xnor2_1
*I *1325:A1 I *D gf180mcu_fd_sc_mcu7t5v0__nand2_1
*I *1327:A3 I *D gf180mcu_fd_sc_mcu7t5v0__nand4_1
*I *1198:A2 I *D gf180mcu_fd_sc_mcu7t5v0__xor2_1
*I *1488:Q O *D gf180mcu_fd_sc_mcu7t5v0__dffrnq_1
*CAP
1 *1326:A2 9.18969e-05
2 *1334:A1 0.000215792
3 *1325:A1 8.25378e-05
4 *1327:A3 0
5 *1198:A2 0.000402659
6 *1488:Q 1.6397e-05
7 *373:36 0.000585197
8 *373:12 0.000529705
9 *373:8 0.000518043
10 *373:6 0.000212424
11 *1198:A2 *1328:A1 0.000611791
12 *1198:A2 *374:27 0.000436478
13 *1326:A2 *1326:A1 3.22348e-05
14 *1326:A2 *1330:A1 3.01487e-05
15 *373:8 *1326:A1 3.7102e-05
16 *373:12 *1326:A1 1.77397e-05
17 *373:12 *374:40 5.41768e-05
18 *1193:I *1325:A1 2.03791e-05
19 *1193:I *1334:A1 5.65194e-05
20 *1325:A2 *1325:A1 0.00037349
21 *1325:A2 *1334:A1 6.2979e-05
22 *1326:A3 *1326:A2 3.40411e-05
23 *1326:A3 *373:6 5.59098e-05
24 *1326:A3 *373:8 9.91544e-05
25 *1327:A4 *373:8 6.02974e-05
26 *1327:A4 *373:12 0.000436469
27 *1329:A3 *1198:A2 0.000171937
28 *1330:A2 *1326:A2 9.84908e-05
29 *1333:A1 *1198:A2 0
30 *303:27 *1334:A1 0.000907063
31 *303:40 *373:36 0.00130211
32 *315:69 *1198:A2 0
33 *318:56 *373:36 1.24166e-05
34 *325:61 *1198:A2 0
35 *325:61 *373:12 0
*RES
1 *1488:Q *373:6 4.77 
2 *373:6 *373:8 0.99 
3 *373:8 *373:12 1.62 
4 *373:12 *1198:A2 17.82 
5 *373:12 *1327:A3 4.5 
6 *373:8 *373:36 12.51 
7 *373:36 *1325:A1 5.49 
8 *373:36 *1334:A1 7.11 
9 *373:6 *1326:A2 5.58 
*END

*D_NET *374 0.00852064
*CONN
*I *1326:A1 I *D gf180mcu_fd_sc_mcu7t5v0__nand3_1
*I *1201:B1 I *D gf180mcu_fd_sc_mcu7t5v0__aoi221_1
*I *1205:B1 I *D gf180mcu_fd_sc_mcu7t5v0__oai222_1
*I *1327:A2 I *D gf180mcu_fd_sc_mcu7t5v0__nand4_1
*I *1332:A1 I *D gf180mcu_fd_sc_mcu7t5v0__xor2_1
*I *1489:Q O *D gf180mcu_fd_sc_mcu7t5v0__dffrnq_1
*CAP
1 *1326:A1 0.000125395
2 *1201:B1 0.00019568
3 *1205:B1 0.00014183
4 *1327:A2 0
5 *1332:A1 0.000243889
6 *1489:Q 0.000151641
7 *374:44 0.000723648
8 *374:40 0.000627799
9 *374:27 0.000303516
10 *374:8 0.00058278
11 *1326:A1 *1327:A1 0.000632064
12 *374:40 *1327:A1 0.000303984
13 *1193:I *1332:A1 1.17725e-05
14 *1198:A2 *374:27 0.000436478
15 *1202:A2 *1201:B1 0.000837435
16 *1205:B2 *1201:B1 0.000351196
17 *1205:B2 *1205:B1 0.00013586
18 *1205:C1 *1205:B1 4.6613e-06
19 *1326:A2 *1326:A1 3.22348e-05
20 *1328:A2 *374:27 0.000140022
21 *1329:A3 *1332:A1 0.000320262
22 *1329:A3 *374:27 0.00023968
23 *1330:A2 *1326:A1 0.000166843
24 *1333:A1 *1332:A1 0.000272355
25 *1333:A1 *374:8 0
26 *1333:A2 *1332:A1 0.000266572
27 *1489:RN *1332:A1 8.66004e-05
28 *1489:RN *374:27 3.16842e-05
29 *1491:D *374:8 0
30 *152:25 *1201:B1 1.0415e-05
31 *153:27 *1205:B1 0.000550324
32 *292:72 *1201:B1 0.000157811
33 *292:72 *374:44 0.000123199
34 *315:69 *374:27 0
35 *315:71 *1332:A1 0
36 *315:71 *374:27 0
37 *318:56 *374:44 0.000203986
38 *373:8 *1326:A1 3.7102e-05
39 *373:12 *1326:A1 1.77397e-05
40 *373:12 *374:40 5.41768e-05
*RES
1 *1489:Q *374:8 9.81 
2 *374:8 *1332:A1 12.42 
3 *374:8 *374:27 6.93 
4 *374:27 *1327:A2 4.5 
5 *374:27 *374:40 1.62 
6 *374:40 *374:44 8.19 
7 *374:44 *1205:B1 10.71 
8 *374:44 *1201:B1 12.24 
9 *374:40 *1326:A1 6.39 
*END

*D_NET *375 0.00646669
*CONN
*I *1199:B1 I *D gf180mcu_fd_sc_mcu7t5v0__aoi22_1
*I *1205:A2 I *D gf180mcu_fd_sc_mcu7t5v0__oai222_1
*I *1327:A1 I *D gf180mcu_fd_sc_mcu7t5v0__nand4_1
*I *1330:A1 I *D gf180mcu_fd_sc_mcu7t5v0__xor2_1
*I *1490:Q O *D gf180mcu_fd_sc_mcu7t5v0__dffrnq_1
*CAP
1 *1199:B1 0.000364156
2 *1205:A2 0
3 *1327:A1 0.000278058
4 *1330:A1 0.000421209
5 *1490:Q 0
6 *375:10 0.00109167
7 *375:6 0.000482496
8 *375:4 0.000454251
9 *1199:B2 *1199:B1 0.000121774
10 *1202:A2 *375:6 0.00035741
11 *1203:A2 *1199:B1 0.000125111
12 *1203:B1 *1199:B1 0.000289436
13 *1203:B1 *375:10 3.17959e-05
14 *1203:B2 *1199:B1 5.6767e-06
15 *1203:B2 *375:10 0.000372606
16 *1205:A1 *1199:B1 5.17714e-05
17 *1205:B2 *375:6 3.01487e-05
18 *1205:C1 *375:6 0
19 *1205:C2 *375:10 0.000320262
20 *1206:A2 *1199:B1 8.54106e-06
21 *1234:A1 *1199:B1 0
22 *1326:A1 *1327:A1 0.000632064
23 *1326:A2 *1330:A1 3.01487e-05
24 *1326:A3 *1330:A1 7.55765e-06
25 *1330:A2 *1330:A1 0.000370175
26 *1331:A3 *1330:A1 0
27 *1490:RN *375:6 2.65444e-06
28 *1490:CLK *1330:A1 2.83425e-05
29 *1513:I *1199:B1 4.88761e-05
30 *302:10 *375:10 0
31 *318:56 *1330:A1 5.28652e-05
32 *318:56 *375:10 0.000183657
33 *325:55 *1330:A1 0
34 *325:61 *1330:A1 0
35 *374:40 *1327:A1 0.000303984
*RES
1 *1490:Q *375:4 4.5 
2 *375:4 *375:6 0.99 
3 *375:6 *375:10 8.73 
4 *375:10 *1330:A1 12.42 
5 *375:10 *1327:A1 11.88 
6 *375:6 *1205:A2 4.5 
7 *375:4 *1199:B1 16.83 
*END

*D_NET *376 0.00238416
*CONN
*I *1328:A1 I *D gf180mcu_fd_sc_mcu7t5v0__xor2_1
*I *1181:I I *D gf180mcu_fd_sc_mcu7t5v0__clkinv_1
*I *1491:Q O *D gf180mcu_fd_sc_mcu7t5v0__dffrnq_1
*CAP
1 *1328:A1 0.000237759
2 *1181:I 0.00016103
3 *1491:Q 7.79571e-05
4 *376:6 0.000476746
5 *1198:A1 *1328:A1 0.000511789
6 *1198:A1 *376:6 0.000294421
7 *1198:A2 *1328:A1 0.000611791
8 *1491:RN *376:6 1.26644e-05
9 *315:65 *376:6 0
10 *315:69 *1328:A1 0
*RES
1 *1491:Q *376:6 5.31 
2 *376:6 *1181:I 14.49 
3 *376:6 *1328:A1 16.56 
*END

*D_NET *377 0.00382243
*CONN
*I *1499:D I *D gf180mcu_fd_sc_mcu7t5v0__dffrnq_1
*I *1228:A3 I *D gf180mcu_fd_sc_mcu7t5v0__nand4_1
*I *1226:A1 I *D gf180mcu_fd_sc_mcu7t5v0__and2_1
*I *1498:Q O *D gf180mcu_fd_sc_mcu7t5v0__dffrnq_1
*CAP
1 *1499:D 0
2 *1228:A3 5.27805e-05
3 *1226:A1 0.000180509
4 *1498:Q 0.0003151
5 *377:16 0.000679938
6 *377:10 0.000761749
7 *1226:A2 *1226:A1 0.000175108
8 *1389:I *1228:A3 2.35868e-05
9 *1499:CLK *377:16 0.000121576
10 *164:10 *1228:A3 7.03219e-05
11 *164:10 *377:16 0.000320262
12 *201:8 *1228:A3 7.772e-05
13 *201:8 *377:10 8.92778e-05
14 *201:8 *377:16 0.000857574
15 *201:14 *377:10 9.6931e-05
16 *300:31 *1228:A3 0
17 *300:31 *377:16 0
*RES
1 *1498:Q *377:10 16.47 
2 *377:10 *377:16 10.44 
3 *377:16 *1226:A1 10.35 
4 *377:16 *1228:A3 9.63 
5 *377:10 *1499:D 4.5 
*END

*D_NET *378 0.000853489
*CONN
*I *1190:I I *D gf180mcu_fd_sc_mcu7t5v0__clkinv_1
*I *1499:Q O *D gf180mcu_fd_sc_mcu7t5v0__dffrnq_1
*CAP
1 *1190:I 0.000272327
2 *1499:Q 0.000272327
3 *1389:I *1190:I 0.000268435
4 *1499:RN *1190:I 4.03999e-05
*RES
1 *1499:Q *1190:I 20.34 
*END

*D_NET *379 0.0055058
*CONN
*I *1359:A3 I *D gf180mcu_fd_sc_mcu7t5v0__nand3_1
*I *1211:B1 I *D gf180mcu_fd_sc_mcu7t5v0__oai22_1
*I *1357:A2 I *D gf180mcu_fd_sc_mcu7t5v0__xnor2_1
*I *1355:A1 I *D gf180mcu_fd_sc_mcu7t5v0__nor3_1
*I *1356:A2 I *D gf180mcu_fd_sc_mcu7t5v0__nand2_1
*I *1441:Q O *D gf180mcu_fd_sc_mcu7t5v0__dffrnq_1
*CAP
1 *1359:A3 7.91581e-05
2 *1211:B1 0.000570194
3 *1357:A2 0
4 *1355:A1 0.000152564
5 *1356:A2 0
6 *1441:Q 0.000280345
7 *379:25 0.000404871
8 *379:23 0.0010195
9 *379:21 0.000359403
10 *379:12 0.000363593
11 *1211:B1 *380:25 0.000373622
12 *1359:A3 *380:47 8.68398e-06
13 *379:12 *1356:A1 0.000106536
14 *379:12 *380:25 0
15 *379:12 *380:47 0
16 *379:21 *1356:A1 0.000169515
17 *379:21 *1359:A2 0.000201379
18 *379:21 *380:25 0
19 *379:23 *1357:A1 4.24123e-05
20 *379:23 *380:8 8.66077e-05
21 *379:23 *380:47 3.60189e-05
22 *379:25 *1357:A1 8.91593e-05
23 *1211:A1 *1211:B1 1.61174e-05
24 *1213:A2 *1211:B1 0
25 *1213:C *379:12 5.03972e-05
26 *1220:A2 *379:12 0.000103075
27 *1355:A2 *1355:A1 0.000526079
28 *1355:A3 *1355:A1 5.79557e-05
29 *1360:A2 *379:12 6.76406e-05
30 *1441:RN *1211:B1 0.000112242
31 *1441:RN *379:12 0.000109323
32 *1442:D *1355:A1 6.22032e-05
33 *1442:RN *1211:B1 5.72035e-05
34 *306:119 *1211:B1 0
*RES
1 *1441:Q *379:12 16.02 
2 *379:12 *1356:A2 4.5 
3 *379:12 *379:21 5.67 
4 *379:21 *379:23 1.89 
5 *379:23 *379:25 1.89 
6 *379:25 *1355:A1 10.89 
7 *379:25 *1357:A2 9 
8 *379:23 *1211:B1 13.95 
9 *379:21 *1359:A3 9.54 
*END

*D_NET *380 0.00498191
*CONN
*I *1359:A2 I *D gf180mcu_fd_sc_mcu7t5v0__nand3_1
*I *1356:A1 I *D gf180mcu_fd_sc_mcu7t5v0__nand2_1
*I *1211:A2 I *D gf180mcu_fd_sc_mcu7t5v0__oai22_1
*I *1210:A2 I *D gf180mcu_fd_sc_mcu7t5v0__nand2_1
*I *1357:A1 I *D gf180mcu_fd_sc_mcu7t5v0__xnor2_1
*I *1442:Q O *D gf180mcu_fd_sc_mcu7t5v0__dffrnq_1
*CAP
1 *1359:A2 0.000144927
2 *1356:A1 6.77437e-06
3 *1211:A2 0
4 *1210:A2 0.000245156
5 *1357:A1 0.000236607
6 *1442:Q 0
7 *380:47 0.000223402
8 *380:25 0.000733761
9 *380:8 0.000811293
10 *380:6 0.000157781
11 *1210:A2 *1212:B1 2.36813e-05
12 *1359:A2 *381:18 4.27222e-05
13 *1210:A1 *1210:A2 0.000164228
14 *1211:A1 *1210:A2 2.74005e-05
15 *1211:B1 *380:25 0.000373622
16 *1213:A1 *1210:A2 2.08301e-05
17 *1213:A2 *380:25 5.01855e-05
18 *1220:A2 *1356:A1 0.000240538
19 *1220:A2 *1359:A2 9.20698e-05
20 *1220:A2 *380:25 0
21 *1358:A3 *1357:A1 4.15457e-05
22 *1359:A3 *380:47 8.68398e-06
23 *1441:RN *1357:A1 0
24 *1441:RN *380:8 0
25 *1441:RN *380:47 0
26 *1442:RN *1357:A1 0.000488524
27 *280:6 *1359:A2 0.000106536
28 *306:119 *1357:A1 1.00099e-05
29 *379:12 *1356:A1 0.000106536
30 *379:12 *380:25 0
31 *379:12 *380:47 0
32 *379:21 *1356:A1 0.000169515
33 *379:21 *1359:A2 0.000201379
34 *379:21 *380:25 0
35 *379:23 *1357:A1 4.24123e-05
36 *379:23 *380:8 8.66077e-05
37 *379:23 *380:47 3.60189e-05
38 *379:25 *1357:A1 8.91593e-05
*RES
1 *1442:Q *380:6 9 
2 *380:6 *380:8 0.99 
3 *380:8 *1357:A1 11.7 
4 *380:8 *380:25 8.64 
5 *380:25 *1210:A2 15.39 
6 *380:25 *1211:A2 4.5 
7 *380:6 *380:47 5.13 
8 *380:47 *1356:A1 5.13 
9 *380:47 *1359:A2 6.21 
*END

*D_NET *381 0.00476514
*CONN
*I *1359:A1 I *D gf180mcu_fd_sc_mcu7t5v0__nand3_1
*I *1192:I I *D gf180mcu_fd_sc_mcu7t5v0__clkinv_1
*I *1212:B1 I *D gf180mcu_fd_sc_mcu7t5v0__oai22_1
*I *1443:Q O *D gf180mcu_fd_sc_mcu7t5v0__dffrnq_1
*CAP
1 *1359:A1 0
2 *1192:I 0
3 *1212:B1 0.000508415
4 *1443:Q 0.000447191
5 *381:18 0.000702294
6 *381:12 0.00064107
7 *1207:B1 *1212:B1 4.5615e-05
8 *1207:B2 *1212:B1 7.77173e-05
9 *1210:A2 *1212:B1 2.36813e-05
10 *1213:A1 *1212:B1 3.81737e-05
11 *1213:B *1212:B1 0
12 *1213:C *1212:B1 0.000122672
13 *1220:A1 *1212:B1 0
14 *1220:A1 *381:18 0
15 *1220:A2 *1212:B1 0.00020358
16 *1220:A2 *381:12 0.000146681
17 *1220:A2 *381:18 0.000124393
18 *1359:A2 *381:18 4.27222e-05
19 *1361:A2 *381:12 0
20 *1361:A2 *381:18 4.10396e-06
21 *1397:I *381:12 0.00063587
22 *166:6 *381:18 1.61174e-05
23 *280:6 *381:12 0.000807286
24 *280:6 *381:18 0.000177559
*RES
1 *1443:Q *381:12 18.36 
2 *381:12 *381:18 2.07 
3 *381:18 *1212:B1 9 
4 *381:18 *1192:I 4.5 
5 *381:12 *1359:A1 4.5 
*END

*D_NET *382 0.00738522
*CONN
*I *1191:I I *D gf180mcu_fd_sc_mcu7t5v0__clkinv_1
*I *1212:A2 I *D gf180mcu_fd_sc_mcu7t5v0__oai22_1
*I *1444:Q O *D gf180mcu_fd_sc_mcu7t5v0__dffrnq_1
*CAP
1 *1191:I 0
2 *1212:A2 0.000746922
3 *1444:Q 0.000146996
4 *382:8 0.000893918
5 *1209:A2 *1212:A2 0.000244736
6 *1213:B *1212:A2 0.000302466
7 *1213:C *1212:A2 3.45237e-05
8 *1220:A1 *1212:A2 1.27919e-05
9 *1220:A1 *382:8 5.30888e-06
10 *1225:B1 *1212:A2 0.000980185
11 *1225:B1 *382:8 0.000444513
12 *165:6 *1212:A2 0.00357286
*RES
1 *1444:Q *382:8 6.12 
2 *382:8 *1212:A2 25.56 
3 *382:8 *1191:I 4.5 
*END

*D_NET *383 0.0042683
*CONN
*I *1366:A1 I *D gf180mcu_fd_sc_mcu7t5v0__and2_1
*I *1367:A1 I *D gf180mcu_fd_sc_mcu7t5v0__nor2_1
*I *1215:B1 I *D gf180mcu_fd_sc_mcu7t5v0__aoi22_1
*I *1218:B1 I *D gf180mcu_fd_sc_mcu7t5v0__oai22_1
*I *1445:Q O *D gf180mcu_fd_sc_mcu7t5v0__dffrnq_1
*CAP
1 *1366:A1 5.49557e-05
2 *1367:A1 0
3 *1215:B1 0
4 *1218:B1 6.81112e-05
5 *1445:Q 0.000152911
6 *383:20 0.000622925
7 *383:14 0.000976247
8 *383:8 0.0006293
9 *1218:B1 *1215:A2 0.000134374
10 *383:20 *1217:B1 0
11 *1215:A1 *383:20 1.0415e-05
12 *1215:B2 *383:20 1.61174e-05
13 *1218:B2 *1218:B1 0.000225234
14 *1294:A1 *1218:B1 0.000375176
15 *1294:A1 *383:20 3.73774e-06
16 *1367:A2 *383:14 0.00010296
17 *1368:A3 *383:14 0
18 *1368:A4 *383:14 0.000106536
19 *1372:A3 *383:8 0
20 *1399:I *383:8 3.72323e-05
21 *1445:RN *383:8 8.45636e-05
22 *143:8 *1218:B1 6.84426e-06
23 *188:18 *1218:B1 0
24 *199:53 *383:14 3.98244e-05
25 *199:53 *383:20 1.86887e-06
26 *199:76 *383:20 0.000231042
27 *283:35 *383:20 0
28 *285:10 *383:14 0
29 *285:23 *383:14 0
30 *317:90 *383:8 3.31517e-06
31 *317:90 *383:14 2.08967e-05
32 *317:96 *1366:A1 0.000294421
33 *326:80 *1366:A1 6.92926e-05
34 *326:80 *383:14 0
35 *326:80 *383:20 0
*RES
1 *1445:Q *383:8 10.35 
2 *383:8 *383:14 7.92 
3 *383:14 *383:20 4.23 
4 *383:20 *1218:B1 15.21 
5 *383:20 *1215:B1 4.5 
6 *383:14 *1367:A1 4.5 
7 *383:8 *1366:A1 9.81 
*END

*D_NET *384 0.0113942
*CONN
*I *1370:A1 I *D gf180mcu_fd_sc_mcu7t5v0__xnor2_1
*I *1369:A1 I *D gf180mcu_fd_sc_mcu7t5v0__nand2_1
*I *1372:A2 I *D gf180mcu_fd_sc_mcu7t5v0__nand3_1
*I *1217:B1 I *D gf180mcu_fd_sc_mcu7t5v0__oai22_1
*I *1215:A2 I *D gf180mcu_fd_sc_mcu7t5v0__aoi22_1
*I *1446:Q O *D gf180mcu_fd_sc_mcu7t5v0__dffrnq_1
*CAP
1 *1370:A1 0.000348201
2 *1369:A1 7.92502e-05
3 *1372:A2 2.22482e-05
4 *1217:B1 0.000293692
5 *1215:A2 0.000110532
6 *1446:Q 0
7 *384:49 0.000652946
8 *384:14 0.00122138
9 *384:8 0.00121212
10 *384:4 0.000598216
11 *1217:B1 *1218:A2 4.6613e-06
12 *1370:A1 *1373:A1 0.000366463
13 *1372:A2 *385:27 3.22122e-05
14 *384:8 *385:27 0.000293287
15 *384:8 *385:45 0
16 *384:14 *1218:A2 9.5299e-05
17 *384:14 *1222:A2 0.000149937
18 *384:14 *385:45 0.000824668
19 *384:14 *386:12 1.07281e-05
20 *384:49 *1373:A1 1.29325e-05
21 *384:49 *385:27 0.000105965
22 *1169:I *1217:B1 6.91924e-05
23 *1214:A1 *384:14 0
24 *1218:A1 *1217:B1 0.000365454
25 *1218:B1 *1215:A2 0.000134374
26 *1219:A2 *1217:B1 0.000258547
27 *1224:A1 *1217:B1 5.56207e-05
28 *1294:A1 *1215:A2 0.000174497
29 *1294:A1 *1217:B1 6.11179e-05
30 *1370:A2 *384:49 4.22217e-05
31 *1373:A2 *1369:A1 9.30128e-05
32 *1373:A2 *1370:A1 0.000758797
33 *1446:RN *1369:A1 0.000127164
34 *1446:RN *1370:A1 0.000166469
35 *143:8 *1215:A2 0
36 *143:8 *384:14 0
37 *143:12 *384:14 0
38 *144:25 *1217:B1 1.34934e-05
39 *199:45 *1370:A1 0
40 *283:35 *384:14 0
41 *285:27 *1369:A1 3.97987e-05
42 *317:96 *1369:A1 2.9185e-05
43 *317:96 *384:8 0.00172753
44 *317:96 *384:14 0.000117181
45 *317:96 *384:49 0.000537526
46 *317:98 *1370:A1 0.000188271
47 *383:20 *1217:B1 0
*RES
1 *1446:Q *384:4 4.5 
2 *384:4 *384:8 5.4 
3 *384:8 *384:14 12.06 
4 *384:14 *1215:A2 10.35 
5 *384:14 *1217:B1 12.24 
6 *384:8 *1372:A2 4.77 
7 *384:4 *384:49 11.34 
8 *384:49 *1369:A1 5.58 
9 *384:49 *1370:A1 17.82 
*END

*D_NET *385 0.00991265
*CONN
*I *1372:A1 I *D gf180mcu_fd_sc_mcu7t5v0__nand3_1
*I *1214:B1 I *D gf180mcu_fd_sc_mcu7t5v0__aoi22_1
*I *1217:A2 I *D gf180mcu_fd_sc_mcu7t5v0__oai22_1
*I *1373:A1 I *D gf180mcu_fd_sc_mcu7t5v0__xor2_1
*I *1447:Q O *D gf180mcu_fd_sc_mcu7t5v0__dffrnq_1
*CAP
1 *1372:A1 0
2 *1214:B1 0
3 *1217:A2 0.000181783
4 *1373:A1 0.000298798
5 *1447:Q 0.000230612
6 *385:45 0.000893623
7 *385:27 0.0013296
8 *385:8 0.00114717
9 *385:27 *1375:A1 2.14748e-05
10 *385:27 *386:10 2.98728e-05
11 *385:45 *1214:A2 0.000804885
12 *385:45 *386:10 9.43321e-05
13 *1214:B2 *1217:A2 6.85018e-05
14 *1216:A2 *385:45 0
15 *1221:B *1217:A2 0.000223407
16 *1221:B *385:45 5.97457e-06
17 *1222:B *1217:A2 0.000286386
18 *1222:B *385:45 0.000401004
19 *1225:A2 *1217:A2 0.000173539
20 *1370:A1 *1373:A1 0.000366463
21 *1370:A2 *1373:A1 0
22 *1372:A2 *385:27 3.22122e-05
23 *1375:A2 *385:27 0.00116884
24 *1399:I *385:45 0.000155203
25 *1401:I *1373:A1 0
26 *1401:I *385:8 0
27 *1401:I *385:27 2.14748e-05
28 *1446:RN *1373:A1 0.000365445
29 *1447:RN *385:27 0.000215887
30 *188:18 *1217:A2 1.46975e-05
31 *190:10 *1217:A2 8.76503e-05
32 *317:96 *385:27 5.69593e-05
33 *317:98 *1373:A1 0
34 *384:8 *385:27 0.000293287
35 *384:8 *385:45 0
36 *384:14 *385:45 0.000824668
37 *384:49 *1373:A1 1.29325e-05
38 *384:49 *385:27 0.000105965
*RES
1 *1447:Q *385:8 10.53 
2 *385:8 *1373:A1 11.7 
3 *385:8 *385:27 12.15 
4 *385:27 *385:45 9.09 
5 *385:45 *1217:A2 15.75 
6 *385:45 *1214:B1 4.5 
7 *385:27 *1372:A1 4.5 
*END

*D_NET *386 0.00635074
*CONN
*I *1375:A1 I *D gf180mcu_fd_sc_mcu7t5v0__xor2_1
*I *1214:A2 I *D gf180mcu_fd_sc_mcu7t5v0__aoi22_1
*I *1222:A2 I *D gf180mcu_fd_sc_mcu7t5v0__oai21_1
*I *1218:A2 I *D gf180mcu_fd_sc_mcu7t5v0__oai22_1
*I *1448:Q O *D gf180mcu_fd_sc_mcu7t5v0__dffrnq_1
*CAP
1 *1375:A1 0.000399666
2 *1214:A2 0.000255277
3 *1222:A2 9.65035e-05
4 *1218:A2 0.000208016
5 *1448:Q 0
6 *386:12 0.000566363
7 *386:10 0.00155631
8 *386:4 0.00143886
9 *1217:B1 *1218:A2 4.6613e-06
10 *1225:A2 *1222:A2 0
11 *1375:A2 *1375:A1 0.000143853
12 *1375:A2 *386:10 1.43511e-05
13 *1399:I *386:10 0.000155203
14 *1402:I *1375:A1 3.58953e-05
15 *1402:I *386:10 3.56708e-05
16 *283:35 *1218:A2 0.000233586
17 *384:14 *1218:A2 9.5299e-05
18 *384:14 *1222:A2 0.000149937
19 *384:14 *386:12 1.07281e-05
20 *385:27 *1375:A1 2.14748e-05
21 *385:27 *386:10 2.98728e-05
22 *385:45 *1214:A2 0.000804885
23 *385:45 *386:10 9.43321e-05
*RES
1 *1448:Q *386:4 4.5 
2 *386:4 *386:10 12.06 
3 *386:10 *386:12 1.17 
4 *386:12 *1218:A2 10.98 
5 *386:12 *1222:A2 10.17 
6 *386:10 *1214:A2 11.79 
7 *386:4 *1375:A1 7.83 
*END
