*SPEF "ieee 1481-1999"
*DESIGN "digital_top"
*DATE "18:20:18 Friday August 28, 2026"
*VENDOR "The OpenROAD Project"
*PROGRAM "OpenROAD"
*VERSION "26Q1-1024-gdcf36133a"
*DESIGN_FLOW "NAME_SCOPE LOCAL" "PIN_CAP NONE"
*DIVIDER /
*DELIMITER :
*BUS_DELIMITER []
*T_UNIT 1 NS
*C_UNIT 1 PF
*R_UNIT 1 OHM
*L_UNIT 1 HENRY

*NAME_MAP
*3 cap_ctrl[0]
*4 cap_ctrl[1]
*5 cap_ctrl[2]
*6 clk
*7 comp_out
*8 en
*9 scl
*10 sda_in
*11 sda_oe
*12 sda_out
*13 trigger_out
*14 _000_
*15 _001_
*16 _002_
*17 _003_
*18 _004_
*19 _005_
*20 _006_
*21 _007_
*22 _008_
*23 _009_
*24 _010_
*25 _011_
*26 _012_
*27 _013_
*28 _014_
*29 _015_
*30 _016_
*31 _017_
*32 _018_
*33 _019_
*34 _020_
*35 _021_
*36 _022_
*37 _023_
*38 _024_
*39 _025_
*40 _026_
*41 _027_
*42 _028_
*43 _029_
*44 _030_
*45 _031_
*46 _032_
*47 _033_
*48 _034_
*49 _035_
*50 _036_
*51 _037_
*52 _038_
*53 _039_
*54 _040_
*55 _041_
*56 _042_
*57 _043_
*58 _044_
*59 _045_
*60 _046_
*61 _047_
*62 _048_
*63 _049_
*64 _050_
*65 _051_
*66 _052_
*67 _053_
*68 _054_
*69 _055_
*70 _056_
*71 _057_
*72 _058_
*73 _059_
*74 _060_
*75 _061_
*76 _062_
*77 _063_
*78 _064_
*79 _065_
*80 _066_
*81 _067_
*82 _068_
*83 _069_
*84 _070_
*85 _071_
*86 _072_
*87 _073_
*88 _074_
*89 _075_
*90 _076_
*91 _077_
*92 _078_
*93 _079_
*94 _080_
*95 _081_
*96 _082_
*97 _083_
*98 _084_
*99 _085_
*100 _086_
*101 _087_
*102 _088_
*103 _089_
*104 _090_
*105 _091_
*106 _092_
*107 _093_
*108 _094_
*109 _095_
*110 _096_
*111 _097_
*112 _098_
*113 _099_
*114 _100_
*115 _101_
*116 _102_
*117 _103_
*118 _104_
*119 _105_
*120 _106_
*121 _107_
*122 _108_
*123 _109_
*124 _110_
*125 _111_
*126 _112_
*127 _113_
*128 _114_
*129 _115_
*130 _116_
*131 _117_
*132 _118_
*133 _119_
*134 _120_
*135 _121_
*136 _122_
*137 _123_
*138 _124_
*139 _125_
*140 _126_
*141 _127_
*142 _128_
*143 _129_
*144 _130_
*145 _131_
*146 _132_
*147 _133_
*148 _134_
*149 _135_
*150 _136_
*151 _137_
*152 _138_
*153 _139_
*154 _140_
*155 _141_
*156 _142_
*157 _143_
*158 _144_
*159 _145_
*160 _146_
*161 _147_
*162 _148_
*163 _149_
*164 _150_
*165 _151_
*166 _152_
*167 _153_
*168 _154_
*169 _155_
*170 _156_
*171 _157_
*172 _158_
*173 _159_
*174 _160_
*175 _161_
*176 _162_
*177 _163_
*178 _164_
*179 _165_
*180 _166_
*181 _167_
*182 _168_
*183 _169_
*184 _170_
*185 _171_
*186 _172_
*187 _173_
*188 _174_
*189 _175_
*190 _176_
*191 _177_
*192 _178_
*193 _179_
*194 _180_
*195 _181_
*196 _182_
*197 _183_
*198 _184_
*199 _185_
*200 _186_
*201 _187_
*202 _188_
*203 _189_
*204 _190_
*205 _191_
*206 _192_
*207 _193_
*208 _194_
*209 _195_
*210 _196_
*211 _197_
*212 _198_
*213 _199_
*214 _200_
*215 _201_
*216 _202_
*217 _203_
*218 _204_
*219 _205_
*220 _206_
*221 _207_
*222 _208_
*223 _209_
*224 _210_
*225 _211_
*226 _212_
*227 _213_
*228 _214_
*229 _215_
*230 _216_
*231 _217_
*232 _218_
*233 _219_
*234 _220_
*235 _221_
*236 _222_
*237 _223_
*238 _224_
*239 _225_
*240 _226_
*241 _227_
*242 _228_
*243 _229_
*244 _230_
*245 _231_
*246 _232_
*247 _233_
*248 _234_
*249 _235_
*250 _236_
*251 _237_
*252 _238_
*253 _239_
*254 _240_
*255 _241_
*256 _242_
*257 _243_
*258 _244_
*259 _245_
*260 _246_
*261 _247_
*262 _248_
*263 _249_
*264 _250_
*265 _251_
*266 _252_
*267 _253_
*268 _254_
*269 _255_
*270 _256_
*271 _257_
*272 _258_
*273 _259_
*274 _260_
*275 _261_
*276 _262_
*277 _263_
*278 _264_
*279 _265_
*280 _266_
*281 _267_
*282 _268_
*283 _269_
*284 _270_
*285 _271_
*286 _272_
*287 _273_
*288 _274_
*289 _275_
*290 _276_
*291 _277_
*292 _278_
*293 _279_
*294 clknet_0_clk
*295 clknet_4_0_0_clk
*296 clknet_4_10_0_clk
*297 clknet_4_11_0_clk
*298 clknet_4_12_0_clk
*299 clknet_4_13_0_clk
*300 clknet_4_14_0_clk
*301 clknet_4_15_0_clk
*302 clknet_4_1_0_clk
*303 clknet_4_2_0_clk
*304 clknet_4_3_0_clk
*305 clknet_4_4_0_clk
*306 clknet_4_5_0_clk
*307 clknet_4_6_0_clk
*308 clknet_4_7_0_clk
*309 clknet_4_8_0_clk
*310 clknet_4_9_0_clk
*311 net1
*312 net10
*313 net11
*314 net12
*315 net13
*316 net14
*317 net15
*318 net16
*319 net17
*320 net18
*321 net19
*322 net2
*323 net20
*324 net21
*325 net22
*326 net23
*327 net24
*328 net25
*329 net26
*330 net27
*331 net28
*332 net29
*333 net3
*334 net30
*335 net31
*336 net32
*337 net33
*338 net34
*339 net35
*340 net36
*341 net37
*342 net38
*343 net39
*344 net4
*345 net40
*346 net41
*347 net42
*348 net43
*349 net44
*350 net45
*351 net46
*352 net47
*353 net48
*354 net49
*355 net5
*356 net50
*357 net51
*358 net52
*359 net53
*360 net54
*361 net55
*362 net56
*363 net57
*364 net58
*365 net59
*366 net6
*367 net60
*368 net61
*369 net62
*370 net63
*371 net7
*372 net8
*373 net9
*374 threshold_w\[0\]
*375 threshold_w\[1\]
*376 threshold_w\[2\]
*377 threshold_w\[3\]
*378 threshold_w\[4\]
*379 threshold_w\[5\]
*380 threshold_w\[6\]
*381 threshold_w\[7\]
*382 timeout_val_w\[0\]
*383 timeout_val_w\[1\]
*384 timeout_val_w\[2\]
*385 timeout_val_w\[3\]
*386 timeout_val_w\[4\]
*387 timeout_val_w\[5\]
*388 timeout_val_w\[6\]
*389 timeout_val_w\[7\]
*390 u_i2c_config\.bit_cnt\[0\]
*391 u_i2c_config\.bit_cnt\[1\]
*392 u_i2c_config\.bit_cnt\[2\]
*393 u_i2c_config\.bit_cnt\[3\]
*394 u_i2c_config\.parallel_data\[0\]
*395 u_i2c_config\.parallel_data\[1\]
*396 u_i2c_config\.parallel_data\[2\]
*397 u_i2c_config\.parallel_data\[3\]
*398 u_i2c_config\.parallel_data\[4\]
*399 u_i2c_config\.parallel_data\[5\]
*400 u_i2c_config\.parallel_data\[6\]
*401 u_i2c_config\.parallel_data\[7\]
*402 u_i2c_config\.reg_addr\[0\]
*403 u_i2c_config\.reg_addr\[1\]
*404 u_i2c_config\.scl_d1
*405 u_i2c_config\.scl_d2
*406 u_i2c_config\.sda_d1
*407 u_i2c_config\.sda_d2
*408 u_i2c_config\.state\[1\]
*409 u_i2c_config\.state\[2\]
*410 u_i2c_config\.state\[3\]
*411 u_i2c_config\.state\[4\]
*412 u_i2c_config\.state\[5\]
*413 u_i2c_config\.state\[6\]
*414 u_i2c_config\.write_en
*415 u_main_cnt\.count_reg\[0\]
*416 u_main_cnt\.count_reg\[1\]
*417 u_main_cnt\.count_reg\[2\]
*418 u_main_cnt\.count_reg\[3\]
*419 u_main_cnt\.count_reg\[4\]
*420 u_main_cnt\.count_reg\[5\]
*421 u_main_cnt\.count_reg\[6\]
*422 u_main_cnt\.count_reg\[7\]
*423 u_pulse_gen\.signal_d1
*424 u_pulse_gen\.signal_d2
*425 u_timeout_cnt\.timer_count\[0\]
*426 u_timeout_cnt\.timer_count\[1\]
*427 u_timeout_cnt\.timer_count\[2\]
*428 u_timeout_cnt\.timer_count\[3\]
*429 u_timeout_cnt\.timer_count\[4\]
*430 u_timeout_cnt\.timer_count\[5\]
*431 u_timeout_cnt\.timer_count\[6\]
*432 u_timeout_cnt\.timer_count\[7\]
*433 FILLER_0_10
*434 FILLER_0_104
*435 FILLER_0_106
*436 FILLER_0_127
*437 FILLER_0_138
*438 FILLER_0_14
*439 FILLER_0_16
*440 FILLER_0_2
*441 FILLER_0_33
*442 FILLER_0_36
*443 FILLER_0_70
*444 FILLER_0_76
*445 FILLER_10_10
*446 FILLER_10_111
*447 FILLER_10_126
*448 FILLER_10_14
*449 FILLER_10_177
*450 FILLER_10_179
*451 FILLER_10_184
*452 FILLER_10_2
*453 FILLER_11_128
*454 FILLER_11_142
*455 FILLER_11_175
*456 FILLER_11_183
*457 FILLER_11_187
*458 FILLER_11_54
*459 FILLER_11_88
*460 FILLER_12_104
*461 FILLER_12_115
*462 FILLER_12_136
*463 FILLER_12_157
*464 FILLER_12_30
*465 FILLER_12_37
*466 FILLER_12_57
*467 FILLER_12_59
*468 FILLER_13_137
*469 FILLER_13_139
*470 FILLER_13_2
*471 FILLER_13_68
*472 FILLER_14_177
*473 FILLER_14_179
*474 FILLER_14_184
*475 FILLER_14_2
*476 FILLER_14_37
*477 FILLER_14_83
*478 FILLER_15_135
*479 FILLER_15_151
*480 FILLER_15_153
*481 FILLER_15_2
*482 FILLER_15_44
*483 FILLER_15_66
*484 FILLER_15_92
*485 FILLER_16_104
*486 FILLER_16_111
*487 FILLER_16_117
*488 FILLER_16_173
*489 FILLER_16_18
*490 FILLER_16_185
*491 FILLER_16_187
*492 FILLER_16_2
*493 FILLER_16_37
*494 FILLER_16_39
*495 FILLER_16_50
*496 FILLER_16_64
*497 FILLER_17_134
*498 FILLER_17_138
*499 FILLER_17_142
*500 FILLER_17_146
*501 FILLER_17_187
*502 FILLER_17_2
*503 FILLER_17_51
*504 FILLER_17_53
*505 FILLER_18_104
*506 FILLER_18_124
*507 FILLER_18_126
*508 FILLER_18_161
*509 FILLER_18_177
*510 FILLER_18_179
*511 FILLER_18_184
*512 FILLER_18_2
*513 FILLER_18_6
*514 FILLER_18_61
*515 FILLER_19_129
*516 FILLER_19_142
*517 FILLER_19_2
*518 FILLER_19_52
*519 FILLER_19_54
*520 FILLER_19_72
*521 FILLER_1_119
*522 FILLER_1_137
*523 FILLER_1_139
*524 FILLER_1_146
*525 FILLER_1_151
*526 FILLER_1_155
*527 FILLER_1_160
*528 FILLER_1_176
*529 FILLER_1_18
*530 FILLER_1_184
*531 FILLER_1_34
*532 FILLER_1_38
*533 FILLER_1_78
*534 FILLER_1_83
*535 FILLER_20_10
*536 FILLER_20_132
*537 FILLER_20_14
*538 FILLER_20_155
*539 FILLER_20_177
*540 FILLER_20_179
*541 FILLER_20_184
*542 FILLER_20_2
*543 FILLER_20_37
*544 FILLER_20_39
*545 FILLER_20_79
*546 FILLER_21_153
*547 FILLER_21_38
*548 FILLER_21_72
*549 FILLER_22_107
*550 FILLER_22_18
*551 FILLER_22_185
*552 FILLER_22_187
*553 FILLER_23_121
*554 FILLER_23_138
*555 FILLER_23_51
*556 FILLER_23_53
*557 FILLER_23_76
*558 FILLER_23_80
*559 FILLER_23_82
*560 FILLER_24_142
*561 FILLER_24_171
*562 FILLER_24_186
*563 FILLER_24_2
*564 FILLER_24_53
*565 FILLER_24_57
*566 FILLER_24_59
*567 FILLER_24_6
*568 FILLER_24_8
*569 FILLER_24_96
*570 FILLER_25_10
*571 FILLER_25_14
*572 FILLER_25_16
*573 FILLER_25_2
*574 FILLER_25_69
*575 FILLER_25_72
*576 FILLER_25_77
*577 FILLER_25_81
*578 FILLER_25_86
*579 FILLER_25_94
*580 FILLER_25_96
*581 FILLER_26_10
*582 FILLER_26_103
*583 FILLER_26_131
*584 FILLER_26_17
*585 FILLER_26_174
*586 FILLER_26_177
*587 FILLER_26_179
*588 FILLER_26_184
*589 FILLER_26_2
*590 FILLER_26_21
*591 FILLER_26_37
*592 FILLER_26_86
*593 FILLER_26_94
*594 FILLER_26_98
*595 FILLER_27_117
*596 FILLER_27_119
*597 FILLER_27_128
*598 FILLER_27_142
*599 FILLER_27_146
*600 FILLER_27_160
*601 FILLER_27_168
*602 FILLER_27_42
*603 FILLER_27_72
*604 FILLER_27_80
*605 FILLER_27_82
*606 FILLER_28_111
*607 FILLER_28_115
*608 FILLER_28_139
*609 FILLER_28_152
*610 FILLER_28_164
*611 FILLER_28_172
*612 FILLER_28_174
*613 FILLER_28_177
*614 FILLER_28_179
*615 FILLER_28_184
*616 FILLER_28_2
*617 FILLER_28_37
*618 FILLER_28_63
*619 FILLER_29_102
*620 FILLER_29_107
*621 FILLER_29_111
*622 FILLER_29_36
*623 FILLER_29_42
*624 FILLER_29_44
*625 FILLER_29_50
*626 FILLER_29_58
*627 FILLER_29_66
*628 FILLER_29_78
*629 FILLER_29_94
*630 FILLER_2_107
*631 FILLER_2_155
*632 FILLER_2_171
*633 FILLER_2_177
*634 FILLER_2_185
*635 FILLER_2_187
*636 FILLER_2_2
*637 FILLER_2_34
*638 FILLER_2_37
*639 FILLER_2_56
*640 FILLER_30_104
*641 FILLER_30_139
*642 FILLER_30_155
*643 FILLER_30_16
*644 FILLER_30_164
*645 FILLER_30_172
*646 FILLER_30_174
*647 FILLER_30_177
*648 FILLER_30_179
*649 FILLER_30_18
*650 FILLER_30_184
*651 FILLER_30_2
*652 FILLER_30_45
*653 FILLER_30_85
*654 FILLER_31_122
*655 FILLER_31_2
*656 FILLER_31_4
*657 FILLER_31_72
*658 FILLER_31_76
*659 FILLER_31_78
*660 FILLER_31_87
*661 FILLER_32_103
*662 FILLER_32_107
*663 FILLER_32_115
*664 FILLER_32_123
*665 FILLER_32_159
*666 FILLER_32_177
*667 FILLER_32_18
*668 FILLER_32_185
*669 FILLER_32_187
*670 FILLER_32_34
*671 FILLER_32_37
*672 FILLER_32_60
*673 FILLER_32_86
*674 FILLER_32_90
*675 FILLER_33_129
*676 FILLER_33_138
*677 FILLER_33_154
*678 FILLER_33_186
*679 FILLER_33_83
*680 FILLER_33_87
*681 FILLER_34_102
*682 FILLER_34_104
*683 FILLER_34_107
*684 FILLER_34_123
*685 FILLER_34_127
*686 FILLER_34_129
*687 FILLER_34_14
*688 FILLER_34_156
*689 FILLER_34_172
*690 FILLER_34_174
*691 FILLER_34_177
*692 FILLER_34_185
*693 FILLER_34_187
*694 FILLER_34_2
*695 FILLER_34_34
*696 FILLER_34_37
*697 FILLER_34_80
*698 FILLER_35_10
*699 FILLER_35_121
*700 FILLER_35_125
*701 FILLER_35_130
*702 FILLER_35_138
*703 FILLER_35_14
*704 FILLER_35_142
*705 FILLER_35_174
*706 FILLER_35_182
*707 FILLER_35_186
*708 FILLER_35_2
*709 FILLER_35_23
*710 FILLER_35_27
*711 FILLER_35_60
*712 FILLER_35_62
*713 FILLER_35_67
*714 FILLER_35_69
*715 FILLER_35_76
*716 FILLER_35_84
*717 FILLER_35_86
*718 FILLER_36_141
*719 FILLER_36_173
*720 FILLER_36_177
*721 FILLER_36_185
*722 FILLER_36_187
*723 FILLER_36_2
*724 FILLER_36_37
*725 FILLER_36_4
*726 FILLER_36_77
*727 FILLER_36_84
*728 FILLER_36_88
*729 FILLER_36_97
*730 FILLER_37_107
*731 FILLER_37_139
*732 FILLER_37_142
*733 FILLER_37_174
*734 FILLER_37_182
*735 FILLER_37_186
*736 FILLER_37_38
*737 FILLER_37_40
*738 FILLER_37_55
*739 FILLER_37_63
*740 FILLER_37_67
*741 FILLER_37_69
*742 FILLER_37_72
*743 FILLER_37_74
*744 FILLER_37_85
*745 FILLER_37_87
*746 FILLER_37_98
*747 FILLER_38_100
*748 FILLER_38_104
*749 FILLER_38_107
*750 FILLER_38_109
*751 FILLER_38_114
*752 FILLER_38_146
*753 FILLER_38_15
*754 FILLER_38_162
*755 FILLER_38_170
*756 FILLER_38_174
*757 FILLER_38_177
*758 FILLER_38_185
*759 FILLER_38_187
*760 FILLER_38_2
*761 FILLER_38_31
*762 FILLER_38_37
*763 FILLER_38_4
*764 FILLER_38_48
*765 FILLER_38_56
*766 FILLER_39_120
*767 FILLER_39_136
*768 FILLER_39_142
*769 FILLER_39_174
*770 FILLER_39_18
*771 FILLER_39_182
*772 FILLER_39_186
*773 FILLER_39_2
*774 FILLER_39_26
*775 FILLER_39_34
*776 FILLER_39_78
*777 FILLER_3_138
*778 FILLER_3_2
*779 FILLER_3_34
*780 FILLER_3_69
*781 FILLER_3_80
*782 FILLER_3_82
*783 FILLER_40_103
*784 FILLER_40_107
*785 FILLER_40_171
*786 FILLER_40_177
*787 FILLER_40_185
*788 FILLER_40_187
*789 FILLER_40_2
*790 FILLER_40_34
*791 FILLER_40_37
*792 FILLER_40_45
*793 FILLER_40_53
*794 FILLER_40_57
*795 FILLER_40_79
*796 FILLER_40_95
*797 FILLER_41_10
*798 FILLER_41_136
*799 FILLER_41_14
*800 FILLER_41_142
*801 FILLER_41_174
*802 FILLER_41_182
*803 FILLER_41_186
*804 FILLER_41_2
*805 FILLER_41_50
*806 FILLER_41_66
*807 FILLER_41_72
*808 FILLER_42_101
*809 FILLER_42_107
*810 FILLER_42_171
*811 FILLER_42_177
*812 FILLER_42_185
*813 FILLER_42_187
*814 FILLER_42_2
*815 FILLER_42_34
*816 FILLER_42_37
*817 FILLER_43_136
*818 FILLER_43_142
*819 FILLER_43_174
*820 FILLER_43_182
*821 FILLER_43_186
*822 FILLER_43_2
*823 FILLER_43_66
*824 FILLER_43_72
*825 FILLER_44_101
*826 FILLER_44_107
*827 FILLER_44_171
*828 FILLER_44_177
*829 FILLER_44_18
*830 FILLER_44_185
*831 FILLER_44_187
*832 FILLER_44_34
*833 FILLER_44_37
*834 FILLER_45_136
*835 FILLER_45_142
*836 FILLER_45_174
*837 FILLER_45_182
*838 FILLER_45_186
*839 FILLER_45_2
*840 FILLER_45_66
*841 FILLER_45_72
*842 FILLER_46_101
*843 FILLER_46_107
*844 FILLER_46_171
*845 FILLER_46_177
*846 FILLER_46_185
*847 FILLER_46_187
*848 FILLER_46_2
*849 FILLER_46_34
*850 FILLER_46_37
*851 FILLER_47_136
*852 FILLER_47_142
*853 FILLER_47_174
*854 FILLER_47_182
*855 FILLER_47_186
*856 FILLER_47_2
*857 FILLER_47_66
*858 FILLER_47_72
*859 FILLER_48_101
*860 FILLER_48_107
*861 FILLER_48_171
*862 FILLER_48_177
*863 FILLER_48_185
*864 FILLER_48_187
*865 FILLER_48_2
*866 FILLER_48_34
*867 FILLER_48_37
*868 FILLER_49_136
*869 FILLER_49_142
*870 FILLER_49_174
*871 FILLER_49_182
*872 FILLER_49_186
*873 FILLER_49_2
*874 FILLER_49_66
*875 FILLER_49_72
*876 FILLER_4_102
*877 FILLER_4_104
*878 FILLER_4_122
*879 FILLER_4_165
*880 FILLER_4_173
*881 FILLER_4_177
*882 FILLER_4_179
*883 FILLER_4_184
*884 FILLER_4_2
*885 FILLER_4_34
*886 FILLER_4_37
*887 FILLER_4_39
*888 FILLER_50_101
*889 FILLER_50_107
*890 FILLER_50_171
*891 FILLER_50_177
*892 FILLER_50_185
*893 FILLER_50_187
*894 FILLER_50_2
*895 FILLER_50_34
*896 FILLER_50_37
*897 FILLER_51_136
*898 FILLER_51_142
*899 FILLER_51_174
*900 FILLER_51_182
*901 FILLER_51_186
*902 FILLER_51_2
*903 FILLER_51_66
*904 FILLER_51_72
*905 FILLER_52_101
*906 FILLER_52_107
*907 FILLER_52_171
*908 FILLER_52_177
*909 FILLER_52_185
*910 FILLER_52_187
*911 FILLER_52_2
*912 FILLER_52_34
*913 FILLER_52_37
*914 FILLER_53_136
*915 FILLER_53_142
*916 FILLER_53_174
*917 FILLER_53_182
*918 FILLER_53_186
*919 FILLER_53_2
*920 FILLER_53_66
*921 FILLER_53_72
*922 FILLER_54_104
*923 FILLER_54_138
*924 FILLER_54_172
*925 FILLER_54_18
*926 FILLER_54_36
*927 FILLER_54_70
*928 FILLER_5_105
*929 FILLER_5_107
*930 FILLER_5_132
*931 FILLER_5_134
*932 FILLER_5_18
*933 FILLER_5_2
*934 FILLER_5_26
*935 FILLER_5_72
*936 FILLER_6_133
*937 FILLER_6_135
*938 FILLER_6_172
*939 FILLER_6_174
*940 FILLER_6_18
*941 FILLER_6_185
*942 FILLER_6_187
*943 FILLER_6_2
*944 FILLER_6_37
*945 FILLER_6_39
*946 FILLER_7_18
*947 FILLER_7_2
*948 FILLER_7_22
*949 FILLER_7_60
*950 FILLER_7_72
*951 FILLER_7_74
*952 FILLER_8_104
*953 FILLER_8_125
*954 FILLER_8_150
*955 FILLER_8_171
*956 FILLER_8_177
*957 FILLER_8_18
*958 FILLER_8_185
*959 FILLER_8_187
*960 FILLER_8_2
*961 FILLER_8_26
*962 FILLER_8_37
*963 FILLER_8_39
*964 FILLER_9_10
*965 FILLER_9_105
*966 FILLER_9_117
*967 FILLER_9_128
*968 FILLER_9_14
*969 FILLER_9_142
*970 FILLER_9_151
*971 FILLER_9_153
*972 FILLER_9_2
*973 FILLER_9_65
*974 FILLER_9_72
*975 PHY_EDGE_ROW_0_Left_55
*976 PHY_EDGE_ROW_0_Right_0
*977 PHY_EDGE_ROW_10_Left_65
*978 PHY_EDGE_ROW_10_Right_10
*979 PHY_EDGE_ROW_11_Left_66
*980 PHY_EDGE_ROW_11_Right_11
*981 PHY_EDGE_ROW_12_Left_67
*982 PHY_EDGE_ROW_12_Right_12
*983 PHY_EDGE_ROW_13_Left_68
*984 PHY_EDGE_ROW_13_Right_13
*985 PHY_EDGE_ROW_14_Left_69
*986 PHY_EDGE_ROW_14_Right_14
*987 PHY_EDGE_ROW_15_Left_70
*988 PHY_EDGE_ROW_15_Right_15
*989 PHY_EDGE_ROW_16_Left_71
*990 PHY_EDGE_ROW_16_Right_16
*991 PHY_EDGE_ROW_17_Left_72
*992 PHY_EDGE_ROW_17_Right_17
*993 PHY_EDGE_ROW_18_Left_73
*994 PHY_EDGE_ROW_18_Right_18
*995 PHY_EDGE_ROW_19_Left_74
*996 PHY_EDGE_ROW_19_Right_19
*997 PHY_EDGE_ROW_1_Left_56
*998 PHY_EDGE_ROW_1_Right_1
*999 PHY_EDGE_ROW_20_Left_75
*1000 PHY_EDGE_ROW_20_Right_20
*1001 PHY_EDGE_ROW_21_Left_76
*1002 PHY_EDGE_ROW_21_Right_21
*1003 PHY_EDGE_ROW_22_Left_77
*1004 PHY_EDGE_ROW_22_Right_22
*1005 PHY_EDGE_ROW_23_Left_78
*1006 PHY_EDGE_ROW_23_Right_23
*1007 PHY_EDGE_ROW_24_Left_79
*1008 PHY_EDGE_ROW_24_Right_24
*1009 PHY_EDGE_ROW_25_Left_80
*1010 PHY_EDGE_ROW_25_Right_25
*1011 PHY_EDGE_ROW_26_Left_81
*1012 PHY_EDGE_ROW_26_Right_26
*1013 PHY_EDGE_ROW_27_Left_82
*1014 PHY_EDGE_ROW_27_Right_27
*1015 PHY_EDGE_ROW_28_Left_83
*1016 PHY_EDGE_ROW_28_Right_28
*1017 PHY_EDGE_ROW_29_Left_84
*1018 PHY_EDGE_ROW_29_Right_29
*1019 PHY_EDGE_ROW_2_Left_57
*1020 PHY_EDGE_ROW_2_Right_2
*1021 PHY_EDGE_ROW_30_Left_85
*1022 PHY_EDGE_ROW_30_Right_30
*1023 PHY_EDGE_ROW_31_Left_86
*1024 PHY_EDGE_ROW_31_Right_31
*1025 PHY_EDGE_ROW_32_Left_87
*1026 PHY_EDGE_ROW_32_Right_32
*1027 PHY_EDGE_ROW_33_Left_88
*1028 PHY_EDGE_ROW_33_Right_33
*1029 PHY_EDGE_ROW_34_Left_89
*1030 PHY_EDGE_ROW_34_Right_34
*1031 PHY_EDGE_ROW_35_Left_90
*1032 PHY_EDGE_ROW_35_Right_35
*1033 PHY_EDGE_ROW_36_Left_91
*1034 PHY_EDGE_ROW_36_Right_36
*1035 PHY_EDGE_ROW_37_Left_92
*1036 PHY_EDGE_ROW_37_Right_37
*1037 PHY_EDGE_ROW_38_Left_93
*1038 PHY_EDGE_ROW_38_Right_38
*1039 PHY_EDGE_ROW_39_Left_94
*1040 PHY_EDGE_ROW_39_Right_39
*1041 PHY_EDGE_ROW_3_Left_58
*1042 PHY_EDGE_ROW_3_Right_3
*1043 PHY_EDGE_ROW_40_Left_95
*1044 PHY_EDGE_ROW_40_Right_40
*1045 PHY_EDGE_ROW_41_Left_96
*1046 PHY_EDGE_ROW_41_Right_41
*1047 PHY_EDGE_ROW_42_Left_97
*1048 PHY_EDGE_ROW_42_Right_42
*1049 PHY_EDGE_ROW_43_Left_98
*1050 PHY_EDGE_ROW_43_Right_43
*1051 PHY_EDGE_ROW_44_Left_99
*1052 PHY_EDGE_ROW_44_Right_44
*1053 PHY_EDGE_ROW_45_Left_100
*1054 PHY_EDGE_ROW_45_Right_45
*1055 PHY_EDGE_ROW_46_Left_101
*1056 PHY_EDGE_ROW_46_Right_46
*1057 PHY_EDGE_ROW_47_Left_102
*1058 PHY_EDGE_ROW_47_Right_47
*1059 PHY_EDGE_ROW_48_Left_103
*1060 PHY_EDGE_ROW_48_Right_48
*1061 PHY_EDGE_ROW_49_Left_104
*1062 PHY_EDGE_ROW_49_Right_49
*1063 PHY_EDGE_ROW_4_Left_59
*1064 PHY_EDGE_ROW_4_Right_4
*1065 PHY_EDGE_ROW_50_Left_105
*1066 PHY_EDGE_ROW_50_Right_50
*1067 PHY_EDGE_ROW_51_Left_106
*1068 PHY_EDGE_ROW_51_Right_51
*1069 PHY_EDGE_ROW_52_Left_107
*1070 PHY_EDGE_ROW_52_Right_52
*1071 PHY_EDGE_ROW_53_Left_108
*1072 PHY_EDGE_ROW_53_Right_53
*1073 PHY_EDGE_ROW_54_Left_109
*1074 PHY_EDGE_ROW_54_Right_54
*1075 PHY_EDGE_ROW_5_Left_60
*1076 PHY_EDGE_ROW_5_Right_5
*1077 PHY_EDGE_ROW_6_Left_61
*1078 PHY_EDGE_ROW_6_Right_6
*1079 PHY_EDGE_ROW_7_Left_62
*1080 PHY_EDGE_ROW_7_Right_7
*1081 PHY_EDGE_ROW_8_Left_63
*1082 PHY_EDGE_ROW_8_Right_8
*1083 PHY_EDGE_ROW_9_Left_64
*1084 PHY_EDGE_ROW_9_Right_9
*1085 TAP_TAPCELL_ROW_0_110
*1086 TAP_TAPCELL_ROW_0_111
*1087 TAP_TAPCELL_ROW_0_112
*1088 TAP_TAPCELL_ROW_0_113
*1089 TAP_TAPCELL_ROW_0_114
*1090 TAP_TAPCELL_ROW_10_137
*1091 TAP_TAPCELL_ROW_10_138
*1092 TAP_TAPCELL_ROW_10_139
*1093 TAP_TAPCELL_ROW_11_140
*1094 TAP_TAPCELL_ROW_11_141
*1095 TAP_TAPCELL_ROW_12_142
*1096 TAP_TAPCELL_ROW_12_143
*1097 TAP_TAPCELL_ROW_12_144
*1098 TAP_TAPCELL_ROW_13_145
*1099 TAP_TAPCELL_ROW_13_146
*1100 TAP_TAPCELL_ROW_14_147
*1101 TAP_TAPCELL_ROW_14_148
*1102 TAP_TAPCELL_ROW_14_149
*1103 TAP_TAPCELL_ROW_15_150
*1104 TAP_TAPCELL_ROW_15_151
*1105 TAP_TAPCELL_ROW_16_152
*1106 TAP_TAPCELL_ROW_16_153
*1107 TAP_TAPCELL_ROW_16_154
*1108 TAP_TAPCELL_ROW_17_155
*1109 TAP_TAPCELL_ROW_17_156
*1110 TAP_TAPCELL_ROW_18_157
*1111 TAP_TAPCELL_ROW_18_158
*1112 TAP_TAPCELL_ROW_18_159
*1113 TAP_TAPCELL_ROW_19_160
*1114 TAP_TAPCELL_ROW_19_161
*1115 TAP_TAPCELL_ROW_1_115
*1116 TAP_TAPCELL_ROW_1_116
*1117 TAP_TAPCELL_ROW_20_162
*1118 TAP_TAPCELL_ROW_20_163
*1119 TAP_TAPCELL_ROW_20_164
*1120 TAP_TAPCELL_ROW_21_165
*1121 TAP_TAPCELL_ROW_21_166
*1122 TAP_TAPCELL_ROW_22_167
*1123 TAP_TAPCELL_ROW_22_168
*1124 TAP_TAPCELL_ROW_22_169
*1125 TAP_TAPCELL_ROW_23_170
*1126 TAP_TAPCELL_ROW_23_171
*1127 TAP_TAPCELL_ROW_24_172
*1128 TAP_TAPCELL_ROW_24_173
*1129 TAP_TAPCELL_ROW_24_174
*1130 TAP_TAPCELL_ROW_25_175
*1131 TAP_TAPCELL_ROW_25_176
*1132 TAP_TAPCELL_ROW_26_177
*1133 TAP_TAPCELL_ROW_26_178
*1134 TAP_TAPCELL_ROW_26_179
*1135 TAP_TAPCELL_ROW_27_180
*1136 TAP_TAPCELL_ROW_27_181
*1137 TAP_TAPCELL_ROW_28_182
*1138 TAP_TAPCELL_ROW_28_183
*1139 TAP_TAPCELL_ROW_28_184
*1140 TAP_TAPCELL_ROW_29_185
*1141 TAP_TAPCELL_ROW_29_186
*1142 TAP_TAPCELL_ROW_2_117
*1143 TAP_TAPCELL_ROW_2_118
*1144 TAP_TAPCELL_ROW_2_119
*1145 TAP_TAPCELL_ROW_30_187
*1146 TAP_TAPCELL_ROW_30_188
*1147 TAP_TAPCELL_ROW_30_189
*1148 TAP_TAPCELL_ROW_31_190
*1149 TAP_TAPCELL_ROW_31_191
*1150 TAP_TAPCELL_ROW_32_192
*1151 TAP_TAPCELL_ROW_32_193
*1152 TAP_TAPCELL_ROW_32_194
*1153 TAP_TAPCELL_ROW_33_195
*1154 TAP_TAPCELL_ROW_33_196
*1155 TAP_TAPCELL_ROW_34_197
*1156 TAP_TAPCELL_ROW_34_198
*1157 TAP_TAPCELL_ROW_34_199
*1158 TAP_TAPCELL_ROW_35_200
*1159 TAP_TAPCELL_ROW_35_201
*1160 TAP_TAPCELL_ROW_36_202
*1161 TAP_TAPCELL_ROW_36_203
*1162 TAP_TAPCELL_ROW_36_204
*1163 TAP_TAPCELL_ROW_37_205
*1164 TAP_TAPCELL_ROW_37_206
*1165 TAP_TAPCELL_ROW_38_207
*1166 TAP_TAPCELL_ROW_38_208
*1167 TAP_TAPCELL_ROW_38_209
*1168 TAP_TAPCELL_ROW_39_210
*1169 TAP_TAPCELL_ROW_39_211
*1170 TAP_TAPCELL_ROW_3_120
*1171 TAP_TAPCELL_ROW_3_121
*1172 TAP_TAPCELL_ROW_40_212
*1173 TAP_TAPCELL_ROW_40_213
*1174 TAP_TAPCELL_ROW_40_214
*1175 TAP_TAPCELL_ROW_41_215
*1176 TAP_TAPCELL_ROW_41_216
*1177 TAP_TAPCELL_ROW_42_217
*1178 TAP_TAPCELL_ROW_42_218
*1179 TAP_TAPCELL_ROW_42_219
*1180 TAP_TAPCELL_ROW_43_220
*1181 TAP_TAPCELL_ROW_43_221
*1182 TAP_TAPCELL_ROW_44_222
*1183 TAP_TAPCELL_ROW_44_223
*1184 TAP_TAPCELL_ROW_44_224
*1185 TAP_TAPCELL_ROW_45_225
*1186 TAP_TAPCELL_ROW_45_226
*1187 TAP_TAPCELL_ROW_46_227
*1188 TAP_TAPCELL_ROW_46_228
*1189 TAP_TAPCELL_ROW_46_229
*1190 TAP_TAPCELL_ROW_47_230
*1191 TAP_TAPCELL_ROW_47_231
*1192 TAP_TAPCELL_ROW_48_232
*1193 TAP_TAPCELL_ROW_48_233
*1194 TAP_TAPCELL_ROW_48_234
*1195 TAP_TAPCELL_ROW_49_235
*1196 TAP_TAPCELL_ROW_49_236
*1197 TAP_TAPCELL_ROW_4_122
*1198 TAP_TAPCELL_ROW_4_123
*1199 TAP_TAPCELL_ROW_4_124
*1200 TAP_TAPCELL_ROW_50_237
*1201 TAP_TAPCELL_ROW_50_238
*1202 TAP_TAPCELL_ROW_50_239
*1203 TAP_TAPCELL_ROW_51_240
*1204 TAP_TAPCELL_ROW_51_241
*1205 TAP_TAPCELL_ROW_52_242
*1206 TAP_TAPCELL_ROW_52_243
*1207 TAP_TAPCELL_ROW_52_244
*1208 TAP_TAPCELL_ROW_53_245
*1209 TAP_TAPCELL_ROW_53_246
*1210 TAP_TAPCELL_ROW_54_247
*1211 TAP_TAPCELL_ROW_54_248
*1212 TAP_TAPCELL_ROW_54_249
*1213 TAP_TAPCELL_ROW_54_250
*1214 TAP_TAPCELL_ROW_54_251
*1215 TAP_TAPCELL_ROW_5_125
*1216 TAP_TAPCELL_ROW_5_126
*1217 TAP_TAPCELL_ROW_6_127
*1218 TAP_TAPCELL_ROW_6_128
*1219 TAP_TAPCELL_ROW_6_129
*1220 TAP_TAPCELL_ROW_7_130
*1221 TAP_TAPCELL_ROW_7_131
*1222 TAP_TAPCELL_ROW_8_132
*1223 TAP_TAPCELL_ROW_8_133
*1224 TAP_TAPCELL_ROW_8_134
*1225 TAP_TAPCELL_ROW_9_135
*1226 TAP_TAPCELL_ROW_9_136
*1227 _280_
*1228 _281_
*1229 _282_
*1230 _283_
*1231 _284_
*1232 _285_
*1233 _286_
*1234 _287_
*1235 _288_
*1236 _289_
*1237 _290_
*1238 _291_
*1239 _292_
*1240 _293_
*1241 _294_
*1242 _295_
*1243 _296_
*1244 _297_
*1245 _298_
*1246 _299_
*1247 _300_
*1248 _301_
*1249 _302_
*1250 _303_
*1251 _304_
*1252 _305_
*1253 _306_
*1254 _307_
*1255 _308_
*1256 _309_
*1257 _310_
*1258 _311_
*1259 _312_
*1260 _313_
*1261 _314_
*1262 _315_
*1263 _316_
*1264 _317_
*1265 _318_
*1266 _319_
*1267 _320_
*1268 _321_
*1269 _322_
*1270 _323_
*1271 _324_
*1272 _325_
*1273 _326_
*1274 _327_
*1275 _328_
*1276 _329_
*1277 _330_
*1278 _331_
*1279 _332_
*1280 _333_
*1281 _334_
*1282 _335_
*1283 _336_
*1284 _337_
*1285 _338_
*1286 _339_
*1287 _340_
*1288 _341_
*1289 _342_
*1290 _343_
*1291 _344_
*1292 _345_
*1293 _346_
*1294 _347_
*1295 _348_
*1296 _349_
*1297 _350_
*1298 _351_
*1299 _352_
*1300 _353_
*1301 _354_
*1302 _355_
*1303 _356_
*1304 _357_
*1305 _358_
*1306 _359_
*1307 _360_
*1308 _361_
*1309 _362_
*1310 _363_
*1311 _364_
*1312 _365_
*1313 _366_
*1314 _367_
*1315 _368_
*1316 _369_
*1317 _370_
*1318 _371_
*1319 _372_
*1320 _373_
*1321 _374_
*1322 _375_
*1323 _376_
*1324 _377_
*1325 _378_
*1326 _379_
*1327 _380_
*1328 _381_
*1329 _382_
*1330 _383_
*1331 _384_
*1332 _385_
*1333 _386_
*1334 _387_
*1335 _388_
*1336 _389_
*1337 _390_
*1338 _391_
*1339 _392_
*1340 _393_
*1341 _394_
*1342 _395_
*1343 _396_
*1344 _397_
*1345 _398_
*1346 _399_
*1347 _400_
*1348 _401_
*1349 _402_
*1350 _403_
*1351 _404_
*1352 _405_
*1353 _406_
*1354 _407_
*1355 _408_
*1356 _409_
*1357 _410_
*1358 _411_
*1359 _412_
*1360 _413_
*1361 _414_
*1362 _415_
*1363 _416_
*1364 _417_
*1365 _418_
*1366 _419_
*1367 _420_
*1368 _421_
*1369 _422_
*1370 _423_
*1371 _424_
*1372 _425_
*1373 _426_
*1374 _427_
*1375 _428_
*1376 _429_
*1377 _430_
*1378 _431_
*1379 _432_
*1380 _433_
*1381 _434_
*1382 _435_
*1383 _436_
*1384 _437_
*1385 _438_
*1386 _439_
*1387 _440_
*1388 _441_
*1389 _442_
*1390 _443_
*1391 _444_
*1392 _445_
*1393 _446_
*1394 _447_
*1395 _448_
*1396 _449_
*1397 _450_
*1398 _451_
*1399 _452_
*1400 _453_
*1401 _454_
*1402 _455_
*1403 _456_
*1404 _457_
*1405 _458_
*1406 _459_
*1407 _460_
*1408 _461_
*1409 _462_
*1410 _463_
*1411 _464_
*1412 _465_
*1413 _466_
*1414 _467_
*1415 _468_
*1416 _469_
*1417 _470_
*1418 _471_
*1419 _472_
*1420 _473_
*1421 _474_
*1422 _475_
*1423 _476_
*1424 _477_
*1425 _478_
*1426 _479_
*1427 _480_
*1428 _481_
*1429 _482_
*1430 _483_
*1431 _484_
*1432 _485_
*1433 _486_
*1434 _487_
*1435 _488_
*1436 _489_
*1437 _490_
*1438 _491_
*1439 _492_
*1440 _493_
*1441 _494_
*1442 _495_
*1443 _496_
*1444 _497_
*1445 _498_
*1446 _499_
*1447 _500_
*1448 _501_
*1449 _502_
*1450 _503_
*1451 _504_
*1452 _505_
*1453 _506_
*1454 _507_
*1455 _508_
*1456 _509_
*1457 _510_
*1458 _511_
*1459 _512_
*1460 _513_
*1461 _514_
*1462 _515_
*1463 _516_
*1464 _517_
*1465 _518_
*1466 _519_
*1467 _520_
*1468 _521_
*1469 _522_
*1470 _523_
*1471 _524_
*1472 _525_
*1473 _526_
*1474 _527_
*1475 _528_
*1476 _529_
*1477 _530_
*1478 _531_
*1479 _532_
*1480 _533_
*1481 _534_
*1482 _535_
*1483 _536_
*1484 _537_
*1485 _538_
*1486 _539_
*1487 _540_
*1488 _541_
*1489 _542_
*1490 _543_
*1491 _544_
*1492 _545_
*1493 _546_
*1494 _547_
*1495 _548_
*1496 _549_
*1497 _550_
*1498 _551_
*1499 _552_
*1500 _553_
*1501 _554_
*1502 _555_
*1503 _556_
*1504 _557_
*1505 _558_
*1506 _559_
*1507 _560_
*1508 _561_
*1509 _562_
*1510 _563_
*1511 _564_
*1512 _565_
*1513 _566_
*1514 _567_
*1515 _568_
*1516 _569_
*1517 _570_
*1518 _571_
*1519 _572_
*1520 _573_
*1521 _574_
*1522 _575_
*1523 _576_
*1524 _577_
*1525 _578_
*1526 _579_
*1527 _580_
*1528 _581_
*1529 _582_
*1530 _583_
*1531 _584_
*1532 _585_
*1533 _586_
*1534 _587_
*1535 _588_
*1536 _589_
*1537 _590_
*1538 _591_
*1539 _592_
*1540 _593_
*1541 _594_
*1542 _595_
*1543 _596_
*1544 _597_
*1545 _598_
*1546 _599_
*1547 _600_
*1548 _601_
*1549 _602_
*1550 _603_
*1551 _604_
*1552 _605_
*1553 _606_
*1554 _607_
*1555 _608_
*1556 _609_
*1557 _610_
*1558 _611_
*1559 _612_
*1560 _613_
*1561 _614_
*1562 _615_
*1563 _616_
*1564 _617_
*1565 _618_
*1566 _619_
*1567 _620_
*1568 _621_
*1569 _622_
*1570 _623_
*1571 _624_
*1572 clkbuf_0_clk
*1573 clkbuf_4_0_0_clk
*1574 clkbuf_4_10_0_clk
*1575 clkbuf_4_11_0_clk
*1576 clkbuf_4_12_0_clk
*1577 clkbuf_4_13_0_clk
*1578 clkbuf_4_14_0_clk
*1579 clkbuf_4_15_0_clk
*1580 clkbuf_4_1_0_clk
*1581 clkbuf_4_2_0_clk
*1582 clkbuf_4_3_0_clk
*1583 clkbuf_4_4_0_clk
*1584 clkbuf_4_5_0_clk
*1585 clkbuf_4_6_0_clk
*1586 clkbuf_4_7_0_clk
*1587 clkbuf_4_8_0_clk
*1588 clkbuf_4_9_0_clk
*1589 clkload0
*1590 clkload1
*1591 clkload10
*1592 clkload11
*1593 clkload12
*1594 clkload13
*1595 clkload2
*1596 clkload3
*1597 clkload4
*1598 clkload5
*1599 clkload6
*1600 clkload7
*1601 clkload8
*1602 clkload9
*1603 fanout11
*1604 fanout12
*1605 fanout13
*1606 fanout14
*1607 fanout15
*1608 fanout16
*1609 fanout17
*1610 fanout20
*1611 fanout21
*1612 fanout22
*1613 fanout23
*1614 fanout24
*1615 fanout25
*1616 fanout26
*1617 fanout27
*1618 fanout28
*1619 fanout29
*1620 fanout30
*1621 fanout31
*1622 fanout32
*1623 fanout33
*1624 fanout34
*1625 fanout35
*1626 fanout36
*1627 fanout37
*1628 fanout38
*1629 fanout39
*1630 fanout40
*1631 fanout41
*1632 fanout42
*1633 fanout43
*1634 fanout44
*1635 fanout45
*1636 fanout46
*1637 fanout47
*1638 fanout48
*1639 fanout49
*1640 fanout50
*1641 fanout51
*1642 fanout52
*1643 fanout53
*1644 fanout54
*1645 fanout55
*1646 fanout56
*1647 fanout57
*1648 fanout58
*1649 fanout59
*1650 fanout60
*1651 fanout61
*1652 fanout62
*1653 fanout63
*1654 input1
*1655 input2
*1656 input3
*1657 input4
*1658 max_cap18
*1659 output10
*1660 output5
*1661 output6
*1662 output7
*1663 output8
*1664 output9
*1665 wire19

*PORTS
cap_ctrl[0] O
cap_ctrl[1] O
cap_ctrl[2] O
clk I
comp_out I
en I
scl I
sda_in I
sda_oe O
sda_out O
trigger_out O

*D_NET *3 0.00158299
*CONN
*P cap_ctrl[0] O
*I *1660:Z O *D gf180mcu_fd_sc_mcu7t5v0__dlyb_1
*CAP
1 cap_ctrl[0] 0.00078655
2 *1660:Z 0.00078655
3 cap_ctrl[0] *1632:I 0
4 cap_ctrl[0] *1660:I 0
5 cap_ctrl[0] *311:30 9.88736e-06
*RES
1 *1660:Z cap_ctrl[0] 9.858 
*END

*D_NET *4 0.00213212
*CONN
*P cap_ctrl[1] O
*I *1661:Z O *D gf180mcu_fd_sc_mcu7t5v0__dlyb_1
*CAP
1 cap_ctrl[1] 0.000851486
2 *1661:Z 0.000851486
3 cap_ctrl[1] *1637:I 0.000429153
*RES
1 *1661:Z cap_ctrl[1] 10.618 
*END

*D_NET *5 0.00155248
*CONN
*P cap_ctrl[2] O
*I *1662:Z O *D gf180mcu_fd_sc_mcu7t5v0__dlyb_1
*CAP
1 cap_ctrl[2] 0.000776241
2 *1662:Z 0.000776241
*RES
1 *1662:Z cap_ctrl[2] 9.63 
*END

*D_NET *6 0.00680351
*CONN
*P clk I
*I *1572:I I *D gf180mcu_fd_sc_mcu7t5v0__clkbuf_16
*CAP
1 clk 0.00206214
2 *1572:I 0.00206214
3 *1572:I *1257:I 4.19931e-05
4 *1572:I *1264:A2 0.000150391
5 *1572:I *1272:B1 2.69779e-05
6 *1572:I *1272:B2 0.000151116
7 *1572:I *1272:C2 2.13118e-05
8 *1572:I *1295:A1 0
9 *1572:I *1295:A3 1.9339e-05
10 *1572:I *1295:A4 7.15683e-05
11 *1572:I *1302:A3 0
12 *1572:I *1391:A3 4.97386e-06
13 *1572:I *1396:A3 0
14 *1572:I *1447:I 0.000313838
15 *1572:I *1579:I 0.000243045
16 *1572:I *155:25 5.51838e-05
17 *1572:I *166:6 7.31112e-05
18 *1572:I *201:14 3.2657e-05
19 *1572:I *294:161 2.976e-05
20 *1572:I *294:171 0.000282761
21 *1572:I *316:42 0
22 *1572:I *316:57 0.000606781
23 *1572:I *319:10 0.000195541
24 *1572:I *368:36 0.000175235
25 *1572:I *418:12 0
26 *1572:I *420:30 0.00018365
*RES
1 clk *1572:I 27.8534 
*END

*D_NET *7 0.00155007
*CONN
*P comp_out I
*I *1654:I I *D gf180mcu_fd_sc_mcu7t5v0__dlyb_1
*CAP
1 comp_out 0.000775034
2 *1654:I 0.000775034
*RES
1 comp_out *1654:I 9.858 
*END

*D_NET *8 0.000863918
*CONN
*P en I
*I *1655:I I *D gf180mcu_fd_sc_mcu7t5v0__dlyb_1
*CAP
1 en 0.000431959
2 *1655:I 0.000431959
*RES
1 en *1655:I 12.002 
*END

*D_NET *9 0.00096071
*CONN
*P scl I
*I *1656:I I *D gf180mcu_fd_sc_mcu7t5v0__dlyb_1
*CAP
1 scl 0.000448966
2 *1656:I 0.000448966
3 *1656:I *1571:D 4.6818e-05
4 *1656:I *1571:CLK 1.5961e-05
*RES
1 scl *1656:I 12.154 
*END

*D_NET *10 0.00069857
*CONN
*P sda_in I
*I *1657:I I *D gf180mcu_fd_sc_mcu7t5v0__dlyb_1
*CAP
1 sda_in 0.000349285
2 *1657:I 0.000349285
*RES
1 sda_in *1657:I 11.47 
*END

*D_NET *11 0.00116857
*CONN
*P sda_oe O
*I *1663:Z O *D gf180mcu_fd_sc_mcu7t5v0__dlyb_1
*CAP
1 sda_oe 0.000584283
2 *1663:Z 0.000584283
*RES
1 *1663:Z sda_oe 12.686 
*END

*D_NET *12 0.000865772
*CONN
*P sda_out O
*I *1664:Z O *D gf180mcu_fd_sc_mcu7t5v0__dlyb_1
*CAP
1 sda_out 0.000392757
2 *1664:Z 0.000392757
3 sda_out *1561:CLK 8.02577e-05
*RES
1 *1664:Z sda_out 11.774 
*END

*D_NET *13 0.000924442
*CONN
*P trigger_out O
*I *1659:Z O *D gf180mcu_fd_sc_mcu7t5v0__dlyb_1
*CAP
1 trigger_out 0.000462221
2 *1659:Z 0.000462221
*RES
1 *1659:Z trigger_out 12.078 
*END

*D_NET *14 0.000598882
*CONN
*I *1559:D I *D gf180mcu_fd_sc_mcu7t5v0__dffrnq_1
*I *1421:ZN O *D gf180mcu_fd_sc_mcu7t5v0__nand2_1
*CAP
1 *1559:D 0.000237038
2 *1421:ZN 0.000237038
3 *1559:D *1412:A2 0
4 *1559:D *1421:A2 9.58397e-05
5 *1559:D *1559:CLK 0
6 *1559:D *1568:D 2.89664e-05
*RES
1 *1421:ZN *1559:D 10.824 
*END

*D_NET *15 0.00113857
*CONN
*I *1560:D I *D gf180mcu_fd_sc_mcu7t5v0__dffrnq_1
*I *1419:ZN O *D gf180mcu_fd_sc_mcu7t5v0__nand2_1
*CAP
1 *1560:D 0.000150801
2 *1419:ZN 0.000150801
3 *1560:D *1419:A2 0.000222453
4 *1560:D *1561:CLK 0.000614516
*RES
1 *1419:ZN *1560:D 11.28 
*END

*D_NET *16 0.00034526
*CONN
*I *1561:D I *D gf180mcu_fd_sc_mcu7t5v0__dffrnq_1
*I *1415:ZN O *D gf180mcu_fd_sc_mcu7t5v0__nand2_1
*CAP
1 *1561:D 8.77726e-05
2 *1415:ZN 8.77726e-05
3 *1561:D *1412:A1 2.17248e-05
4 *1561:D *1412:A2 2.21712e-05
5 *1561:D *1414:A2 1.5015e-05
6 *1561:D *1415:A1 8.18373e-05
7 *1561:D *1561:CLK 2.89664e-05
*RES
1 *1415:ZN *1561:D 9.836 
*END

*D_NET *17 0.00483944
*CONN
*I *1562:D I *D gf180mcu_fd_sc_mcu7t5v0__dffrnq_1
*I *1410:ZN O *D gf180mcu_fd_sc_mcu7t5v0__oai32_1
*CAP
1 *1562:D 0.000835345
2 *1410:ZN 0.000835345
3 *1562:D *1406:A1 8.5576e-05
4 *1562:D *1410:B1 0.000243507
5 *1562:D *1410:B2 9.26705e-05
6 *1562:D *1421:A2 0.000265189
7 *1562:D *1444:I0 9.75543e-06
8 *1562:D *1452:I 3.16765e-06
9 *1562:D *1562:RN 0.000246201
10 *1562:D *1565:CLK 1.82803e-05
11 *1562:D *1620:I 0.000418938
12 *1562:D *217:16 0.00175459
13 *1562:D *405:10 3.08702e-05
*RES
1 *1410:ZN *1562:D 27.348 
*END

*D_NET *18 0.000716112
*CONN
*I *1563:D I *D gf180mcu_fd_sc_mcu7t5v0__dffrnq_1
*I *1409:ZN O *D gf180mcu_fd_sc_mcu7t5v0__oai22_1
*CAP
1 *1563:D 7.13368e-05
2 *1409:ZN 7.13368e-05
3 *1563:D *1409:A1 0.000301264
4 *1563:D *1626:I 0.00024311
5 *1563:D *272:31 2.9378e-06
6 *1563:D *339:30 2.6126e-05
*RES
1 *1409:ZN *1563:D 10.292 
*END

*D_NET *19 0.000389952
*CONN
*I *1564:D I *D gf180mcu_fd_sc_mcu7t5v0__dffrnq_1
*I *1408:ZN O *D gf180mcu_fd_sc_mcu7t5v0__oai22_1
*CAP
1 *1564:D 0.000105171
2 *1408:ZN 0.000105171
3 *1564:D *1626:I 0
4 *1564:D *1663:I 0.000179609
*RES
1 *1408:ZN *1564:D 9.988 
*END

*D_NET *20 0.0046103
*CONN
*I *1568:D I *D gf180mcu_fd_sc_mcu7t5v0__dffrnq_1
*I *1412:Z O *D gf180mcu_fd_sc_mcu7t5v0__and2_1
*CAP
1 *1568:D 0.000821025
2 *1412:Z 0.000821025
3 *1568:D *1421:A2 0.000317494
4 *1568:D *1460:I 0.000448201
5 *1568:D *1535:CLK 4.05291e-05
6 *1568:D *1567:CLK 0.000142455
7 *1568:D *1570:D 0.000493324
8 *1568:D *1645:I 0
9 *1568:D *1647:I 0
10 *1568:D *1651:I 0
11 *1568:D *239:12 0.000386335
12 *1568:D *239:16 0.000946619
13 *1568:D *309:6 9.02859e-05
14 *1568:D *360:8 7.40448e-05
15 *1568:D *360:25 0
16 *1559:D *1568:D 2.89664e-05
*RES
1 *1412:Z *1568:D 18.652 
*END

*D_NET *21 0.00185647
*CONN
*I *1508:D I *D gf180mcu_fd_sc_mcu7t5v0__dffrnq_1
*I *1422:ZN O *D gf180mcu_fd_sc_mcu7t5v0__nor3_1
*CAP
1 *1508:D 0.000540136
2 *1422:ZN 0.000540136
3 *1508:D *1259:I 0
4 *1508:D *1280:A1 0.00030236
5 *1508:D *1422:A1 0.000329225
6 *1508:D *1481:I 5.09739e-06
7 *1508:D *168:14 0
8 *1508:D *426:29 0.000139515
*RES
1 *1422:ZN *1508:D 13.408 
*END

*D_NET *22 0.000959479
*CONN
*I *1509:D I *D gf180mcu_fd_sc_mcu7t5v0__dffrnq_1
*I *1425:ZN O *D gf180mcu_fd_sc_mcu7t5v0__nor3_1
*CAP
1 *1509:D 0.00015354
2 *1425:ZN 0.00015354
3 *1509:D *1290:A4 2.6126e-05
4 *1509:D *1422:A3 0.000321009
5 *1509:D *1637:I 0.000305265
*RES
1 *1425:ZN *1509:D 11.128 
*END

*D_NET *23 0.00117842
*CONN
*I *1510:D I *D gf180mcu_fd_sc_mcu7t5v0__dffrnq_1
*I *1429:ZN O *D gf180mcu_fd_sc_mcu7t5v0__nor3_1
*CAP
1 *1510:D 0.000431568
2 *1429:ZN 0.000431568
3 *1510:D *1429:A1 7.85437e-06
4 *1510:D *1429:A2 4.27813e-05
5 *1510:D *1432:A1 0
6 *1510:D *1432:A4 3.10238e-05
7 *1510:D *1508:RN 0.000121117
8 *1510:D *1510:CLK 1.03413e-05
9 *1510:D *151:10 0
10 *1510:D *306:6 6.83929e-06
11 *1510:D *313:27 5.03091e-05
12 *1510:D *425:10 4.50189e-05
*RES
1 *1429:ZN *1510:D 11.888 
*END

*D_NET *24 0.00147564
*CONN
*I *1511:D I *D gf180mcu_fd_sc_mcu7t5v0__dffrnq_1
*I *1432:ZN O *D gf180mcu_fd_sc_mcu7t5v0__nor4_1
*CAP
1 *1511:D 0.000151432
2 *1432:ZN 0.000151432
3 *1511:D *1279:A2 0.00019722
4 *1511:D *1430:A1 7.60086e-05
5 *1511:D *1430:A2 0.000194414
6 *1511:D *167:8 0.000406051
7 *1511:D *167:10 0.000278996
8 *1511:D *313:27 2.0087e-05
*RES
1 *1432:ZN *1511:D 20.432 
*END

*D_NET *25 0.00122736
*CONN
*I *1512:D I *D gf180mcu_fd_sc_mcu7t5v0__dffrnq_1
*I *1435:ZN O *D gf180mcu_fd_sc_mcu7t5v0__nor4_1
*CAP
1 *1512:D 0.000257144
2 *1435:ZN 0.000257144
3 *1512:D *1435:A4 0.000151949
4 *1512:D *1607:I 0.000117335
5 *1512:D *190:14 2.09451e-05
6 *1512:D *287:10 0.000122017
7 *1512:D *313:10 0.000300828
*RES
1 *1435:ZN *1512:D 20.432 
*END

*D_NET *26 0.00275235
*CONN
*I *1513:D I *D gf180mcu_fd_sc_mcu7t5v0__dffrnq_1
*I *1438:ZN O *D gf180mcu_fd_sc_mcu7t5v0__nor3_1
*CAP
1 *1513:D 0.000155244
2 *1438:ZN 0.000155244
3 *1513:D *1438:A1 4.40118e-05
4 *1513:D *1438:A2 1.02578e-05
5 *1513:D *1439:A1 0.000370849
6 *1513:D *1468:I 2.94167e-05
7 *1513:D *1469:I 0.00112948
8 *1513:D *430:14 2.23783e-05
9 *1513:D *430:36 5.97012e-05
10 *1513:D *431:29 0.000775767
*RES
1 *1438:ZN *1513:D 21.8 
*END

*D_NET *27 0.000932865
*CONN
*I *1514:D I *D gf180mcu_fd_sc_mcu7t5v0__dffrnq_1
*I *1441:ZN O *D gf180mcu_fd_sc_mcu7t5v0__nor3_1
*CAP
1 *1514:D 0.000413166
2 *1441:ZN 0.000413166
3 *1514:D *1441:A3 6.77785e-05
4 *1514:D *1621:I 0
5 *1514:D *1640:I 2.57058e-06
6 *1514:D *336:6 3.61829e-05
*RES
1 *1441:ZN *1514:D 11.812 
*END

*D_NET *28 0.00167043
*CONN
*I *1515:D I *D gf180mcu_fd_sc_mcu7t5v0__dffrnq_1
*I *1443:ZN O *D gf180mcu_fd_sc_mcu7t5v0__nor3_1
*CAP
1 *1515:D 6.39468e-05
2 *1443:ZN 6.39468e-05
3 *1515:D *1443:A3 0.000786534
4 *1515:D *1606:I 0.000141897
5 *1515:D *287:33 1.97747e-05
6 *1515:D *432:8 0.000594335
*RES
1 *1443:ZN *1515:D 20.28 
*END

*D_NET *29 0.00218967
*CONN
*I *1554:RN I *D gf180mcu_fd_sc_mcu7t5v0__dffrnq_1
*I *1444:S I *D gf180mcu_fd_sc_mcu7t5v0__mux2_2
*I *1260:ZN O *D gf180mcu_fd_sc_mcu7t5v0__clkinv_1
*CAP
1 *1554:RN 0.000293105
2 *1444:S 1.55447e-05
3 *1260:ZN 8.85586e-05
4 *29:8 0.000397208
5 *1444:S *1444:I1 0.000215472
6 *1444:S *1554:D 7.09389e-05
7 *1554:RN *1249:I 0
8 *1554:RN *1260:I 0
9 *1554:RN *1444:I1 0.000614671
10 *1554:RN *1554:D 0.000210233
11 *1554:RN *1650:I 4.97712e-06
12 *1554:RN *367:23 0
13 *1554:RN *418:6 0
14 *29:8 *1260:I 0.000243346
15 *29:8 *1444:I0 3.56141e-05
16 *29:8 *1444:I1 0
*RES
1 *1260:ZN *29:8 9.836 
2 *29:8 *1444:S 9.532 
3 *29:8 *1554:RN 11.888 
*END

*D_NET *30 0.000437964
*CONN
*I *1555:RN I *D gf180mcu_fd_sc_mcu7t5v0__dffrnq_1
*I *1445:ZN O *D gf180mcu_fd_sc_mcu7t5v0__clkinv_1
*CAP
1 *1555:RN 0.000117977
2 *1445:ZN 0.000117977
3 *1555:RN *1402:A1 3.83835e-06
4 *1555:RN *1402:A2 0
5 *1555:RN *1555:D 6.13012e-05
6 *1555:RN *301:48 0.000136871
*RES
1 *1445:ZN *1555:RN 10.14 
*END

*D_NET *31 0.000404363
*CONN
*I *1556:RN I *D gf180mcu_fd_sc_mcu7t5v0__dffrnq_1
*I *1446:ZN O *D gf180mcu_fd_sc_mcu7t5v0__clkinv_1
*CAP
1 *1556:RN 0.000202181
2 *1446:ZN 0.000202181
*RES
1 *1446:ZN *1556:RN 10.14 
*END

*D_NET *32 0.000404363
*CONN
*I *1557:RN I *D gf180mcu_fd_sc_mcu7t5v0__dffrnq_1
*I *1447:ZN O *D gf180mcu_fd_sc_mcu7t5v0__clkinv_1
*CAP
1 *1557:RN 0.000202181
2 *1447:ZN 0.000202181
*RES
1 *1447:ZN *1557:RN 10.14 
*END

*D_NET *33 0.0014757
*CONN
*I *1558:RN I *D gf180mcu_fd_sc_mcu7t5v0__dffrnq_1
*I *1448:ZN O *D gf180mcu_fd_sc_mcu7t5v0__clkinv_1
*CAP
1 *1558:RN 0.000270364
2 *1448:ZN 0.000270364
3 *1558:RN *1551:D 0.00020108
4 *1558:RN *1558:D 0.000112968
5 *1558:RN *1608:I 4.63008e-05
6 *1558:RN *316:42 0.000515713
7 *1558:RN *415:29 5.89152e-05
*RES
1 *1448:ZN *1558:RN 21.648 
*END

*D_NET *34 0.00059022
*CONN
*I *1559:RN I *D gf180mcu_fd_sc_mcu7t5v0__dffrnq_1
*I *1449:ZN O *D gf180mcu_fd_sc_mcu7t5v0__clkinv_1
*CAP
1 *1559:RN 0.000210428
2 *1449:ZN 0.000210428
3 *1559:RN *1449:I 0
4 *1559:RN *1457:I 0
5 *1559:RN *1645:I 0.000169363
6 *1559:RN *159:6 0
*RES
1 *1449:ZN *1559:RN 10.52 
*END

*D_NET *35 0.000476512
*CONN
*I *1560:RN I *D gf180mcu_fd_sc_mcu7t5v0__dffrnq_1
*I *1450:ZN O *D gf180mcu_fd_sc_mcu7t5v0__clkinv_1
*CAP
1 *1560:RN 0.00012647
2 *1450:ZN 0.00012647
3 *1560:RN *237:29 0.000181183
4 *1560:RN *361:22 3.78032e-05
5 *1560:RN *361:37 4.58601e-06
*RES
1 *1450:ZN *1560:RN 9.912 
*END

*D_NET *36 0.00151229
*CONN
*I *1561:RN I *D gf180mcu_fd_sc_mcu7t5v0__dffrnq_1
*I *1451:ZN O *D gf180mcu_fd_sc_mcu7t5v0__clkinv_1
*CAP
1 *1561:RN 0.000394582
2 *1451:ZN 0.000394582
3 *1561:RN *1308:A3 4.50469e-05
4 *1561:RN *209:12 2.69032e-05
5 *1561:RN *237:6 0
6 *1561:RN *237:29 0.000181183
7 *1561:RN *361:10 0.000469992
*RES
1 *1451:ZN *1561:RN 12.42 
*END

*D_NET *37 0.00326576
*CONN
*I *1562:RN I *D gf180mcu_fd_sc_mcu7t5v0__dffrnq_1
*I *1452:ZN O *D gf180mcu_fd_sc_mcu7t5v0__clkinv_1
*CAP
1 *1562:RN 0.000522502
2 *1452:ZN 0.000522502
3 *1562:RN *1518:CLK 1.5015e-05
4 *1562:RN *1569:D 9.68549e-05
5 *1562:RN *233:18 0.00125058
6 *1562:RN *337:19 0.000594673
7 *1562:RN *411:19 1.74362e-05
8 *1562:D *1562:RN 0.000246201
*RES
1 *1452:ZN *1562:RN 24.308 
*END

*D_NET *38 0.000322413
*CONN
*I *1563:RN I *D gf180mcu_fd_sc_mcu7t5v0__dffrnq_1
*I *1453:ZN O *D gf180mcu_fd_sc_mcu7t5v0__clkinv_1
*CAP
1 *1563:RN 0.000127278
2 *1453:ZN 0.000127278
3 *1563:RN *1328:A2 1.30476e-05
4 *1563:RN *1646:I 5.48085e-05
*RES
1 *1453:ZN *1563:RN 9.912 
*END

*D_NET *39 0.000269397
*CONN
*I *1564:RN I *D gf180mcu_fd_sc_mcu7t5v0__dffrnq_1
*I *1454:ZN O *D gf180mcu_fd_sc_mcu7t5v0__clkinv_1
*CAP
1 *1564:RN 0.000134698
2 *1454:ZN 0.000134698
3 *1564:RN *1646:I 0
*RES
1 *1454:ZN *1564:RN 9.76 
*END

*D_NET *40 0.000658969
*CONN
*I *1565:RN I *D gf180mcu_fd_sc_mcu7t5v0__dffrnq_1
*I *1455:ZN O *D gf180mcu_fd_sc_mcu7t5v0__clkinv_1
*CAP
1 *1565:RN 0.000283299
2 *1455:ZN 0.000283299
3 *1565:RN *423:12 9.23709e-05
*RES
1 *1455:ZN *1565:RN 10.824 
*END

*D_NET *41 0.000594399
*CONN
*I *1566:RN I *D gf180mcu_fd_sc_mcu7t5v0__dffrnq_1
*I *1456:ZN O *D gf180mcu_fd_sc_mcu7t5v0__clkinv_1
*CAP
1 *1566:RN 0.000111126
2 *1456:ZN 0.000111126
3 *1566:RN *1257:I 0.000105545
4 *1566:RN *1269:A2 0.000158886
5 *1566:RN *364:13 2.5879e-05
6 *1566:RN *376:14 8.18373e-05
*RES
1 *1456:ZN *1566:RN 19.368 
*END

*D_NET *42 0.0016005
*CONN
*I *1567:SETN I *D gf180mcu_fd_sc_mcu7t5v0__dffsnq_1
*I *1457:ZN O *D gf180mcu_fd_sc_mcu7t5v0__clkinv_1
*CAP
1 *1567:SETN 0.000305958
2 *1457:ZN 0.000305958
3 *1567:SETN *1250:I 0.000557809
4 *1567:SETN *1421:A2 0
5 *1567:SETN *406:10 1.91917e-06
6 *1567:SETN *406:12 5.64165e-05
7 *1567:SETN *406:36 0.000372443
*RES
1 *1457:ZN *1567:SETN 20.888 
*END

*D_NET *43 0.00188597
*CONN
*I *1568:RN I *D gf180mcu_fd_sc_mcu7t5v0__dffrnq_1
*I *1458:ZN O *D gf180mcu_fd_sc_mcu7t5v0__clkinv_1
*CAP
1 *1568:RN 0.000850984
2 *1458:ZN 0.000850984
3 *1568:RN *1343:A2 0
4 *1568:RN *1568:CLK 0.000149579
5 *1568:RN *1652:I 2.63978e-05
6 *1568:RN *239:16 8.02751e-06
7 *1568:RN *239:33 0
*RES
1 *1458:ZN *1568:RN 23.168 
*END

*D_NET *44 0.000295837
*CONN
*I *1569:SETN I *D gf180mcu_fd_sc_mcu7t5v0__dffsnq_1
*I *1459:ZN O *D gf180mcu_fd_sc_mcu7t5v0__clkinv_1
*CAP
1 *1569:SETN 0.000121464
2 *1459:ZN 0.000121464
3 *1569:SETN *1646:I 5.29084e-05
4 *1569:SETN *298:25 0
*RES
1 *1459:ZN *1569:SETN 9.836 
*END

*D_NET *45 0.00142497
*CONN
*I *1570:SETN I *D gf180mcu_fd_sc_mcu7t5v0__dffsnq_1
*I *1460:ZN O *D gf180mcu_fd_sc_mcu7t5v0__clkinv_1
*CAP
1 *1570:SETN 0.000189446
2 *1460:ZN 0.000189446
3 *1570:SETN *1460:I 0.00053326
4 *1570:SETN *360:8 8.7332e-05
5 *1570:SETN *360:21 0.0003062
6 *1570:SETN *360:41 0.000119284
*RES
1 *1460:ZN *1570:SETN 20.432 
*END

*D_NET *46 0.00125618
*CONN
*I *1571:SETN I *D gf180mcu_fd_sc_mcu7t5v0__dffsnq_1
*I *1461:ZN O *D gf180mcu_fd_sc_mcu7t5v0__clkinv_1
*CAP
1 *1571:SETN 0.000199413
2 *1461:ZN 0.000199413
3 *1571:SETN *1461:I 4.32237e-05
4 *1571:SETN *1490:I 0.000508106
5 *1571:SETN *1536:RN 8.18282e-05
6 *1571:SETN *1571:CLK 2.77105e-05
7 *1571:SETN *349:8 2.98131e-06
8 *1571:SETN *349:23 0.000103986
9 *1571:SETN *395:10 8.95196e-05
*RES
1 *1461:ZN *1571:SETN 20.356 
*END

*D_NET *47 0.00101758
*CONN
*I *1508:RN I *D gf180mcu_fd_sc_mcu7t5v0__dffrnq_1
*I *1462:ZN O *D gf180mcu_fd_sc_mcu7t5v0__clkinv_1
*CAP
1 *1508:RN 0.00040311
2 *1462:ZN 0.00040311
3 *1508:RN *1509:RN 0
4 *1508:RN *1510:CLK 4.50189e-05
5 *1508:RN *426:12 4.52224e-05
6 *1510:D *1508:RN 0.000121117
*RES
1 *1462:ZN *1508:RN 11.66 
*END

*D_NET *48 0.000226315
*CONN
*I *1509:RN I *D gf180mcu_fd_sc_mcu7t5v0__dffrnq_1
*I *1463:ZN O *D gf180mcu_fd_sc_mcu7t5v0__clkinv_1
*CAP
1 *1509:RN 6.83979e-05
2 *1463:ZN 6.83979e-05
3 *1509:RN *1259:I 8.95196e-05
4 *1508:RN *1509:RN 0
*RES
1 *1463:ZN *1509:RN 9.532 
*END

*D_NET *49 0.000221771
*CONN
*I *1510:RN I *D gf180mcu_fd_sc_mcu7t5v0__dffrnq_1
*I *1464:ZN O *D gf180mcu_fd_sc_mcu7t5v0__clkinv_1
*CAP
1 *1510:RN 0.000107408
2 *1464:ZN 0.000107408
3 *1510:RN *427:12 6.95491e-06
*RES
1 *1464:ZN *1510:RN 9.532 
*END

*D_NET *50 0.000659073
*CONN
*I *1511:RN I *D gf180mcu_fd_sc_mcu7t5v0__dffrnq_1
*I *1465:ZN O *D gf180mcu_fd_sc_mcu7t5v0__clkinv_1
*CAP
1 *1511:RN 0.000110196
2 *1465:ZN 0.000110196
3 *1511:RN *1466:I 0.000438681
*RES
1 *1465:ZN *1511:RN 10.14 
*END

*D_NET *51 0.000313891
*CONN
*I *1512:RN I *D gf180mcu_fd_sc_mcu7t5v0__dffrnq_1
*I *1466:ZN O *D gf180mcu_fd_sc_mcu7t5v0__clkinv_1
*CAP
1 *1512:RN 5.64058e-05
2 *1466:ZN 5.64058e-05
3 *1512:RN *1466:I 0.00020108
*RES
1 *1466:ZN *1512:RN 9.532 
*END

*D_NET *52 0.000908512
*CONN
*I *1513:RN I *D gf180mcu_fd_sc_mcu7t5v0__dffrnq_1
*I *1467:ZN O *D gf180mcu_fd_sc_mcu7t5v0__clkinv_1
*CAP
1 *1513:RN 3.14698e-05
2 *1467:ZN 3.14698e-05
3 *1513:RN *1467:I 0.000134622
4 *1513:RN *1468:I 0.000288164
5 *1513:RN *430:36 0.000422786
*RES
1 *1467:ZN *1513:RN 10.14 
*END

*D_NET *53 0.000445072
*CONN
*I *1514:RN I *D gf180mcu_fd_sc_mcu7t5v0__dffrnq_1
*I *1468:ZN O *D gf180mcu_fd_sc_mcu7t5v0__clkinv_1
*CAP
1 *1514:RN 0.000111192
2 *1468:ZN 0.000111192
3 *1514:RN *316:25 0.000209639
4 *1514:RN *431:10 1.30476e-05
*RES
1 *1468:ZN *1514:RN 10.14 
*END

*D_NET *54 0.000759769
*CONN
*I *1515:RN I *D gf180mcu_fd_sc_mcu7t5v0__dffrnq_1
*I *1469:ZN O *D gf180mcu_fd_sc_mcu7t5v0__clkinv_1
*CAP
1 *1515:RN 0.000207317
2 *1469:ZN 0.000207317
3 *1515:RN *1439:A1 5.76373e-06
4 *1515:RN *1469:I 0.000157845
5 *1515:RN *430:36 0.000181528
*RES
1 *1469:ZN *1515:RN 10.748 
*END

*D_NET *55 0.000806669
*CONN
*I *1516:SETN I *D gf180mcu_fd_sc_mcu7t5v0__dffsnq_1
*I *1470:ZN O *D gf180mcu_fd_sc_mcu7t5v0__clkinv_1
*CAP
1 *1516:SETN 0.000179099
2 *1470:ZN 0.000179099
3 *1516:SETN *1610:I 0.000133351
4 *1516:SETN *311:30 0.00031512
5 *1516:SETN *359:14 0
*RES
1 *1470:ZN *1516:SETN 10.824 
*END

*D_NET *56 0.000441786
*CONN
*I *1517:RN I *D gf180mcu_fd_sc_mcu7t5v0__dffrnq_1
*I *1471:ZN O *D gf180mcu_fd_sc_mcu7t5v0__clkinv_1
*CAP
1 *1517:RN 0.000103488
2 *1471:ZN 0.000103488
3 *1517:RN *1267:B1 1.71854e-05
4 *1517:RN *1270:A1 2.59502e-05
5 *1517:RN *1270:B1 3.33335e-05
6 *1517:RN *294:161 0.000158342
*RES
1 *1471:ZN *1517:RN 19.14 
*END

*D_NET *57 0.000414295
*CONN
*I *1518:SETN I *D gf180mcu_fd_sc_mcu7t5v0__dffsnq_1
*I *1472:ZN O *D gf180mcu_fd_sc_mcu7t5v0__clkinv_1
*CAP
1 *1518:SETN 0.000136199
2 *1472:ZN 0.000136199
3 *1518:SETN *359:26 0.000141897
4 *1518:SETN *376:10 0
*RES
1 *1472:ZN *1518:SETN 10.064 
*END

*D_NET *58 0.000647988
*CONN
*I *1519:RN I *D gf180mcu_fd_sc_mcu7t5v0__dffrnq_1
*I *1473:ZN O *D gf180mcu_fd_sc_mcu7t5v0__clkinv_1
*CAP
1 *1519:RN 0.000205251
2 *1473:ZN 0.000205251
3 *1519:RN *1262:A4 1.02578e-05
4 *1519:RN *1473:I 0.000103857
5 *1519:RN *1474:I 0.000123372
*RES
1 *1473:ZN *1519:RN 10.52 
*END

*D_NET *59 0.00213367
*CONN
*I *1520:RN I *D gf180mcu_fd_sc_mcu7t5v0__dffrnq_1
*I *1474:ZN O *D gf180mcu_fd_sc_mcu7t5v0__clkinv_1
*CAP
1 *1520:RN 0.000400805
2 *1474:ZN 0.000400805
3 *1520:RN *1381:B 1.46159e-05
4 *1520:RN *1384:I0 7.35651e-05
5 *1520:RN *1386:A1 0.00114777
6 *1520:RN *1519:D 4.724e-05
7 *1520:RN *378:25 4.88658e-05
*RES
1 *1474:ZN *1520:RN 22.18 
*END

*D_NET *60 0.000349292
*CONN
*I *1521:RN I *D gf180mcu_fd_sc_mcu7t5v0__dffrnq_1
*I *1475:ZN O *D gf180mcu_fd_sc_mcu7t5v0__clkinv_1
*CAP
1 *1521:RN 8.94762e-05
2 *1475:ZN 8.94762e-05
3 *1521:RN *154:23 8.95196e-05
4 *1521:RN *294:7 2.95314e-05
5 *1521:RN *364:6 5.1289e-05
*RES
1 *1475:ZN *1521:RN 9.912 
*END

*D_NET *61 0.000659871
*CONN
*I *1522:RN I *D gf180mcu_fd_sc_mcu7t5v0__dffrnq_1
*I *1476:ZN O *D gf180mcu_fd_sc_mcu7t5v0__clkinv_1
*CAP
1 *1522:RN 8.8974e-05
2 *1476:ZN 8.8974e-05
3 *1522:RN *1476:I 0.000376901
4 *1522:RN *308:35 0.000105022
*RES
1 *1476:ZN *1522:RN 10.216 
*END

*D_NET *62 0.00063851
*CONN
*I *1523:RN I *D gf180mcu_fd_sc_mcu7t5v0__dffrnq_1
*I *1477:ZN O *D gf180mcu_fd_sc_mcu7t5v0__clkinv_1
*CAP
1 *1523:RN 0.000319255
2 *1477:ZN 0.000319255
*RES
1 *1477:ZN *1523:RN 10.976 
*END

*D_NET *63 0.00228511
*CONN
*I *1524:RN I *D gf180mcu_fd_sc_mcu7t5v0__dffrnq_1
*I *1478:ZN O *D gf180mcu_fd_sc_mcu7t5v0__clkinv_1
*CAP
1 *1524:RN 0.000260601
2 *1478:ZN 0.000260601
3 *1524:RN *1373:A1 0
4 *1524:RN *1373:A2 3.82391e-05
5 *1524:RN *1533:CLK 0.00070697
6 *1524:RN *1653:I 0.000331102
7 *1524:RN *305:20 0.000314277
8 *1524:RN *347:14 0.000324233
9 *1524:RN *371:6 4.90885e-05
*RES
1 *1478:ZN *1524:RN 21.496 
*END

*D_NET *64 0.00272999
*CONN
*I *1525:RN I *D gf180mcu_fd_sc_mcu7t5v0__dffrnq_1
*I *1479:ZN O *D gf180mcu_fd_sc_mcu7t5v0__clkinv_1
*CAP
1 *1525:RN 0.000409165
2 *1479:ZN 0.000409165
3 *1525:RN *1243:I 0.000438681
4 *1525:RN *1278:B2 4.42967e-05
5 *1525:RN *1373:A1 8.0352e-06
6 *1525:RN *1374:A1 0.00056918
7 *1525:RN *1533:RN 0
8 *1525:RN *1653:I 0.000823439
9 *1525:RN *347:8 2.80298e-05
10 *1525:RN *371:6 0
*RES
1 *1479:ZN *1525:RN 22.56 
*END

*D_NET *65 0.00297612
*CONN
*I *1526:RN I *D gf180mcu_fd_sc_mcu7t5v0__dffrnq_1
*I *1480:ZN O *D gf180mcu_fd_sc_mcu7t5v0__clkinv_1
*CAP
1 *1526:RN 0.000208525
2 *1480:ZN 0.000208525
3 *1526:RN *1653:I 0.00115574
4 *1526:RN *342:50 1.56182e-05
5 *1526:RN *347:43 0.00138771
*RES
1 *1480:ZN *1526:RN 13.256 
*END

*D_NET *66 0.00188069
*CONN
*I *1527:RN I *D gf180mcu_fd_sc_mcu7t5v0__dffrnq_1
*I *1481:ZN O *D gf180mcu_fd_sc_mcu7t5v0__clkinv_1
*CAP
1 *1527:RN 0.000214037
2 *1481:ZN 0.000214037
3 *1527:RN *1292:B1 0.000326276
4 *1527:RN *1292:B2 0.000255714
5 *1527:RN *1369:A1 8.04285e-05
6 *1527:RN *1369:A2 4.07435e-05
7 *1527:RN *1481:I 0
8 *1527:RN *1530:RN 0.000611253
9 *1527:RN *1607:I 1.12495e-05
10 *1527:RN *148:25 0.000126956
*RES
1 *1481:ZN *1527:RN 21.344 
*END

*D_NET *67 0.000790635
*CONN
*I *1528:RN I *D gf180mcu_fd_sc_mcu7t5v0__dffrnq_1
*I *1482:ZN O *D gf180mcu_fd_sc_mcu7t5v0__clkinv_1
*CAP
1 *1528:RN 0.000244346
2 *1482:ZN 0.000244346
3 *1528:RN *1527:D 9.57609e-06
4 *1528:RN *1614:I 0.000112501
5 *1528:RN *1616:I 0.00011955
6 *1528:RN *294:9 4.46991e-05
7 *1528:RN *342:50 1.56182e-05
*RES
1 *1482:ZN *1528:RN 10.976 
*END

*D_NET *68 0.00232881
*CONN
*I *1529:SETN I *D gf180mcu_fd_sc_mcu7t5v0__dffsnq_1
*I *1483:ZN O *D gf180mcu_fd_sc_mcu7t5v0__clkinv_1
*CAP
1 *1529:SETN 0.000445314
2 *1483:ZN 0.000445314
3 *1529:SETN *1364:B 0.000188422
4 *1529:SETN *1368:A1 0
5 *1529:SETN *1530:CLK 0.000136871
6 *1529:SETN *330:6 0.000386421
7 *1529:SETN *330:10 0.000386421
8 *1529:SETN *342:50 0.000205933
9 *1529:SETN *386:10 0.000134113
*RES
1 *1483:ZN *1529:SETN 23.32 
*END

*D_NET *69 0.00232586
*CONN
*I *1530:RN I *D gf180mcu_fd_sc_mcu7t5v0__dffrnq_1
*I *1484:ZN O *D gf180mcu_fd_sc_mcu7t5v0__clkinv_1
*CAP
1 *1530:RN 0.000336574
2 *1484:ZN 0.000336574
3 *1530:RN *1291:A1 0.000438681
4 *1530:RN *1291:A2 0.000438681
5 *1530:RN *1292:B2 3.00299e-05
6 *1530:RN *1363:A1 1.10309e-05
7 *1530:RN *1369:A1 3.16765e-06
8 *1530:RN *1370:A1 0
9 *1530:RN *148:25 0.000119866
10 *1530:RN *357:27 0
11 *1527:RN *1530:RN 0.000611253
*RES
1 *1484:ZN *1530:RN 21.952 
*END

*D_NET *70 0.00140174
*CONN
*I *1531:SETN I *D gf180mcu_fd_sc_mcu7t5v0__dffsnq_1
*I *1485:ZN O *D gf180mcu_fd_sc_mcu7t5v0__clkinv_1
*CAP
1 *1531:SETN 0.000361929
2 *1485:ZN 0.000361929
3 *1531:SETN *1291:A1 2.30518e-05
4 *1531:SETN *1379:A1 0.00033338
5 *1531:SETN *1474:I 0
6 *1531:SETN *1523:CLK 8.06016e-05
7 *1531:SETN *354:23 9.404e-05
8 *1531:SETN *354:29 0.000146811
*RES
1 *1485:ZN *1531:SETN 21.116 
*END

*D_NET *71 0.00260646
*CONN
*I *1532:RN I *D gf180mcu_fd_sc_mcu7t5v0__dffrnq_1
*I *1486:ZN O *D gf180mcu_fd_sc_mcu7t5v0__clkinv_1
*CAP
1 *1532:RN 0.000468499
2 *1486:ZN 0.000468499
3 *1532:RN *1358:S 7.6687e-05
4 *1532:RN *1376:B 0.000891586
5 *1532:RN *1524:D 0.000396904
6 *1532:RN *1636:I 3.94624e-05
7 *1532:RN *1641:I 0
8 *1532:RN *311:30 0
9 *1532:RN *345:56 0.000170069
10 *1532:RN *348:33 9.47539e-05
11 *1532:RN *355:10 0
*RES
1 *1486:ZN *1532:RN 22.94 
*END

*D_NET *72 0.000479598
*CONN
*I *1533:RN I *D gf180mcu_fd_sc_mcu7t5v0__dffrnq_1
*I *1487:ZN O *D gf180mcu_fd_sc_mcu7t5v0__clkinv_1
*CAP
1 *1533:RN 0.000239799
2 *1487:ZN 0.000239799
3 *1533:RN *1661:I 0
4 *1525:RN *1533:RN 0
*RES
1 *1487:ZN *1533:RN 10.368 
*END

*D_NET *73 0.000955025
*CONN
*I *1534:RN I *D gf180mcu_fd_sc_mcu7t5v0__dffrnq_1
*I *1488:ZN O *D gf180mcu_fd_sc_mcu7t5v0__clkinv_1
*CAP
1 *1534:RN 0.000329733
2 *1488:ZN 0.000329733
3 *1534:RN *1375:A2 1.64988e-05
4 *1534:RN *1488:I 0.000157657
5 *1534:RN *1533:CLK 6.64139e-05
6 *1534:RN *1662:I 0
7 *1534:RN *347:14 5.49899e-05
8 *1534:RN *371:6 0
*RES
1 *1488:ZN *1534:RN 11.28 
*END

*D_NET *74 0.000617417
*CONN
*I *1535:RN I *D gf180mcu_fd_sc_mcu7t5v0__dffrnq_1
*I *1489:ZN O *D gf180mcu_fd_sc_mcu7t5v0__clkinv_1
*CAP
1 *1535:RN 0.000200696
2 *1489:ZN 0.000200696
3 *1535:RN *1516:D 2.78679e-05
4 *1535:RN *334:8 2.6126e-05
5 *1535:RN *334:27 0
6 *1535:RN *406:10 0.000162031
*RES
1 *1489:ZN *1535:RN 10.672 
*END

*D_NET *75 0.00166128
*CONN
*I *1536:RN I *D gf180mcu_fd_sc_mcu7t5v0__dffrnq_1
*I *1490:ZN O *D gf180mcu_fd_sc_mcu7t5v0__clkinv_1
*CAP
1 *1536:RN 0.000196463
2 *1490:ZN 0.000196463
3 *1536:RN *1353:I1 5.14116e-06
4 *1536:RN *1490:I 0.000360226
5 *1536:RN *1536:D 8.95196e-05
6 *1536:RN *349:8 0.000634928
7 *1536:RN *395:10 9.67157e-05
8 *1571:SETN *1536:RN 8.18282e-05
*RES
1 *1490:ZN *1536:RN 11.888 
*END

*D_NET *76 0.0012658
*CONN
*I *1537:RN I *D gf180mcu_fd_sc_mcu7t5v0__dffrnq_1
*I *1491:ZN O *D gf180mcu_fd_sc_mcu7t5v0__clkinv_1
*CAP
1 *1537:RN 0.000377774
2 *1491:ZN 0.000377774
3 *1537:RN *1357:I0 0.000215111
4 *1537:RN *1532:CLK 7.53205e-05
5 *1537:RN *341:18 0
6 *1537:RN *370:10 0.000219822
*RES
1 *1491:ZN *1537:RN 21.192 
*END

*D_NET *77 0.00412855
*CONN
*I *1538:RN I *D gf180mcu_fd_sc_mcu7t5v0__dffrnq_1
*I *1492:ZN O *D gf180mcu_fd_sc_mcu7t5v0__clkinv_1
*CAP
1 *1538:RN 0.000447699
2 *1492:ZN 0.000447699
3 *1538:RN *1353:I0 1.81542e-05
4 *1538:RN *1371:A2 0.00205876
5 *1538:RN *1372:B 2.5728e-05
6 *1538:RN *1492:I 0.000591148
7 *1538:RN *311:30 3.10545e-05
8 *1538:RN *341:12 0.00032652
9 *1538:RN *341:42 3.79206e-06
10 *1538:RN *348:55 0.000177992
*RES
1 *1492:ZN *1538:RN 24.688 
*END

*D_NET *78 0.00044408
*CONN
*I *1539:RN I *D gf180mcu_fd_sc_mcu7t5v0__dffrnq_1
*I *1493:ZN O *D gf180mcu_fd_sc_mcu7t5v0__clkinv_1
*CAP
1 *1539:RN 8.63841e-05
2 *1493:ZN 8.63841e-05
3 *1539:RN *1490:I 5.7379e-05
4 *1539:RN *1493:I 1.28529e-05
5 *1539:RN *331:16 0.00020108
*RES
1 *1493:ZN *1539:RN 9.912 
*END

*D_NET *79 0.00231031
*CONN
*I *1540:RN I *D gf180mcu_fd_sc_mcu7t5v0__dffrnq_1
*I *1494:ZN O *D gf180mcu_fd_sc_mcu7t5v0__clkinv_1
*CAP
1 *1540:RN 0.000760414
2 *1494:ZN 0.000760414
3 *1540:RN *1235:I 6.39906e-05
4 *1540:RN *1384:I0 1.84387e-05
5 *1540:RN *1494:I 0.000325637
6 *1540:RN *311:30 7.05572e-05
7 *1540:RN *332:16 0.0003006
8 *1540:RN *399:8 1.02578e-05
*RES
1 *1494:ZN *1540:RN 15.232 
*END

*D_NET *80 0.00342027
*CONN
*I *1541:RN I *D gf180mcu_fd_sc_mcu7t5v0__dffrnq_1
*I *1495:ZN O *D gf180mcu_fd_sc_mcu7t5v0__clkinv_1
*CAP
1 *1541:RN 0.000399335
2 *1495:ZN 0.000399335
3 *1541:RN *1360:A1 0.000308479
4 *1541:RN *1539:CLK 0.000215892
5 *1541:RN *1541:D 0.000382544
6 *1541:RN *1541:CLK 5.97012e-05
7 *1541:RN *1544:RN 2.38459e-06
8 *1541:RN *1581:I 2.97354e-06
9 *1541:RN *1617:I 0.000139515
10 *1541:RN *1634:I 0.00103639
11 *1541:RN *1635:I 0.000244881
12 *1541:RN *1652:I 1.33594e-05
13 *1541:RN *141:25 0.00021548
*RES
1 *1495:ZN *1541:RN 23.624 
*END

*D_NET *81 0.00128977
*CONN
*I *1542:RN I *D gf180mcu_fd_sc_mcu7t5v0__dffrnq_1
*I *1496:ZN O *D gf180mcu_fd_sc_mcu7t5v0__clkinv_1
*CAP
1 *1542:RN 0.000331457
2 *1496:ZN 0.000331457
3 *1542:RN *1362:A2 1.20079e-05
4 *1542:RN *1362:B 0.000253437
5 *1542:RN *1519:CLK 4.72445e-05
6 *1542:RN *1531:D 2.68222e-05
7 *1542:RN *294:7 0
8 *1542:RN *329:16 0.000287348
*RES
1 *1496:ZN *1542:RN 11.964 
*END

*D_NET *82 0.00105485
*CONN
*I *1543:RN I *D gf180mcu_fd_sc_mcu7t5v0__dffrnq_1
*I *1497:ZN O *D gf180mcu_fd_sc_mcu7t5v0__clkinv_1
*CAP
1 *1543:RN 0.000255231
2 *1497:ZN 0.000255231
3 *1543:RN *1343:A1 0.000101228
4 *1543:RN *1356:A2 0.000186796
5 *1543:RN *1388:A1 0
6 *1543:RN *1497:I 0.000192107
7 *1543:RN *1630:I 6.42585e-05
*RES
1 *1497:ZN *1543:RN 20.128 
*END

*D_NET *83 0.00165811
*CONN
*I *1544:RN I *D gf180mcu_fd_sc_mcu7t5v0__dffrnq_1
*I *1498:ZN O *D gf180mcu_fd_sc_mcu7t5v0__clkinv_1
*CAP
1 *1544:RN 0.000486975
2 *1498:ZN 0.000486975
3 *1544:RN *1232:I 0.000157386
4 *1544:RN *1377:A1 2.11364e-05
5 *1544:RN *1539:CLK 2.55497e-05
6 *1544:RN *1541:CLK 5.84505e-05
7 *1544:RN *1629:I 0.000225314
8 *1544:RN *141:10 0.000193942
9 *1541:RN *1544:RN 2.38459e-06
*RES
1 *1498:ZN *1544:RN 13.028 
*END

*D_NET *84 0.0012214
*CONN
*I *1545:SETN I *D gf180mcu_fd_sc_mcu7t5v0__dffsnq_1
*I *1499:ZN O *D gf180mcu_fd_sc_mcu7t5v0__clkinv_1
*CAP
1 *1545:SETN 0.000327354
2 *1499:ZN 0.000327354
3 *1545:SETN *1408:A1 0
4 *1545:SETN *1546:D 0.000544417
5 *1545:SETN *361:51 2.22758e-05
*RES
1 *1499:ZN *1545:SETN 11.66 
*END

*D_NET *85 0.000392863
*CONN
*I *1546:RN I *D gf180mcu_fd_sc_mcu7t5v0__dffrnq_1
*I *1500:ZN O *D gf180mcu_fd_sc_mcu7t5v0__clkinv_1
*CAP
1 *1546:RN 0.00014155
2 *1500:ZN 0.00014155
3 *1546:RN *1626:I 1.30476e-05
4 *1546:RN *1663:I 9.67157e-05
*RES
1 *1500:ZN *1546:RN 10.14 
*END

*D_NET *86 0.000357857
*CONN
*I *1547:RN I *D gf180mcu_fd_sc_mcu7t5v0__dffrnq_1
*I *1501:ZN O *D gf180mcu_fd_sc_mcu7t5v0__clkinv_1
*CAP
1 *1547:RN 0.000120751
2 *1501:ZN 0.000120751
3 *1547:RN *1329:A2 0
4 *1547:RN *1548:CLK 0.000116355
*RES
1 *1501:ZN *1547:RN 9.988 
*END

*D_NET *87 0.000335004
*CONN
*I *1548:RN I *D gf180mcu_fd_sc_mcu7t5v0__dffrnq_1
*I *1502:ZN O *D gf180mcu_fd_sc_mcu7t5v0__clkinv_1
*CAP
1 *1548:RN 0.000167502
2 *1502:ZN 0.000167502
3 *1548:RN *391:10 0
*RES
1 *1502:ZN *1548:RN 9.988 
*END

*D_NET *88 0.000914885
*CONN
*I *1549:RN I *D gf180mcu_fd_sc_mcu7t5v0__dffrnq_1
*I *1503:ZN O *D gf180mcu_fd_sc_mcu7t5v0__clkinv_1
*CAP
1 *1549:RN 0.00021128
2 *1503:ZN 0.00021128
3 *1549:RN *1502:I 5.48085e-05
4 *1549:RN *1549:D 0.000172349
5 *1549:RN *1578:I 0.000265167
*RES
1 *1503:ZN *1549:RN 20.584 
*END

*D_NET *89 0.000365131
*CONN
*I *1550:RN I *D gf180mcu_fd_sc_mcu7t5v0__dffrnq_1
*I *1504:ZN O *D gf180mcu_fd_sc_mcu7t5v0__clkinv_1
*CAP
1 *1550:RN 0.000154189
2 *1504:ZN 0.000154189
3 *1550:RN *1502:I 0
4 *1550:RN *1503:I 2.30549e-05
5 *1550:RN *367:47 3.36987e-05
*RES
1 *1504:ZN *1550:RN 9.988 
*END

*D_NET *90 0.000409615
*CONN
*I *1551:RN I *D gf180mcu_fd_sc_mcu7t5v0__dffrnq_1
*I *1505:ZN O *D gf180mcu_fd_sc_mcu7t5v0__clkinv_1
*CAP
1 *1551:RN 6.20802e-05
2 *1505:ZN 6.20802e-05
3 *1551:RN *1505:I 3.00299e-05
4 *1551:RN *1552:CLK 1.9339e-05
5 *1551:RN *1558:CLK 2.87391e-05
6 *1551:RN *365:23 0.000207346
*RES
1 *1505:ZN *1551:RN 9.76 
*END

*D_NET *91 0.00164351
*CONN
*I *1552:RN I *D gf180mcu_fd_sc_mcu7t5v0__dffrnq_1
*I *1506:ZN O *D gf180mcu_fd_sc_mcu7t5v0__clkinv_1
*CAP
1 *1552:RN 0.00042965
2 *1506:ZN 0.00042965
3 *1552:RN *1609:I 0.000177718
4 *1552:RN *1621:I 6.44359e-05
5 *1552:RN *1649:I 1.12495e-05
6 *1552:RN *336:6 0
7 *1552:RN *365:10 0.000530811
*RES
1 *1506:ZN *1552:RN 22.104 
*END

*D_NET *92 0.000313891
*CONN
*I *1553:RN I *D gf180mcu_fd_sc_mcu7t5v0__dffrnq_1
*I *1507:ZN O *D gf180mcu_fd_sc_mcu7t5v0__clkinv_1
*CAP
1 *1553:RN 5.64058e-05
2 *1507:ZN 5.64058e-05
3 *1553:RN *1227:I 0
4 *1553:RN *1269:A1 0
5 *1553:RN *364:20 0.00020108
*RES
1 *1507:ZN *1553:RN 9.532 
*END

*D_NET *93 0.00242324
*CONN
*I *1554:D I *D gf180mcu_fd_sc_mcu7t5v0__dffrnq_1
*I *1404:ZN O *D gf180mcu_fd_sc_mcu7t5v0__nor4_1
*CAP
1 *1554:D 0.000780038
2 *1404:ZN 0.000780038
3 *1554:D *1391:A2 1.11891e-05
4 *1554:D *1401:A2 2.44693e-05
5 *1554:D *1404:A2 6.48288e-05
6 *1554:D *1404:A4 3.99555e-05
7 *1554:D *1444:I1 0.000186318
8 *1554:D *1650:I 0.00015172
9 *1554:D *312:16 7.74495e-05
10 *1554:D *418:6 2.60662e-05
11 *1444:S *1554:D 7.09389e-05
12 *1554:RN *1554:D 0.000210233
*RES
1 *1404:ZN *1554:D 24.308 
*END

*D_NET *94 0.00180813
*CONN
*I *1555:D I *D gf180mcu_fd_sc_mcu7t5v0__dffrnq_1
*I *1402:ZN O *D gf180mcu_fd_sc_mcu7t5v0__nor3_1
*CAP
1 *1555:D 0.000295431
2 *1402:ZN 0.000295431
3 *1555:D *1401:A1 0
4 *1555:D *1402:A1 0.00101602
5 *1555:D *1402:A3 9.34825e-05
6 *1555:D *1445:I 4.64596e-05
7 *1555:D *420:14 0
8 *1555:RN *1555:D 6.13012e-05
*RES
1 *1402:ZN *1555:D 21.496 
*END

*D_NET *95 0.000447786
*CONN
*I *1556:D I *D gf180mcu_fd_sc_mcu7t5v0__dffrnq_1
*I *1400:ZN O *D gf180mcu_fd_sc_mcu7t5v0__nor3_1
*CAP
1 *1556:D 0.000195095
2 *1400:ZN 0.000195095
3 *1556:D *1557:CLK 2.7935e-05
4 *1556:D *419:10 2.96621e-05
*RES
1 *1400:ZN *1556:D 10.216 
*END

*D_NET *96 0.00119571
*CONN
*I *1557:D I *D gf180mcu_fd_sc_mcu7t5v0__dffrnq_1
*I *1398:ZN O *D gf180mcu_fd_sc_mcu7t5v0__nor3_1
*CAP
1 *1557:D 0.000145224
2 *1398:ZN 0.000145224
3 *1557:D *1400:A1 0.000424388
4 *1557:D *1400:A2 7.83779e-05
5 *1557:D *315:34 0.000362608
6 *1557:D *316:57 2.6126e-05
7 *1557:D *318:36 1.3758e-05
*RES
1 *1398:ZN *1557:D 10.824 
*END

*D_NET *97 0.00135678
*CONN
*I *1558:D I *D gf180mcu_fd_sc_mcu7t5v0__dffrnq_1
*I *1396:ZN O *D gf180mcu_fd_sc_mcu7t5v0__nor3_1
*CAP
1 *1558:D 0.000187422
2 *1396:ZN 0.000187422
3 *1558:D *1294:A2 2.69281e-06
4 *1558:D *316:42 2.20893e-05
5 *1558:D *318:19 0.000376901
6 *1558:D *415:12 0
7 *1558:D *415:29 0.000467288
8 *1558:RN *1558:D 0.000112968
*RES
1 *1396:ZN *1558:D 20.432 
*END

*D_NET *98 0.00102784
*CONN
*I *1516:D I *D gf180mcu_fd_sc_mcu7t5v0__dffsnq_1
*I *1390:Z O *D gf180mcu_fd_sc_mcu7t5v0__mux2_2
*CAP
1 *1516:D 0.000216668
2 *1390:Z 0.000216668
3 *1516:D *1355:I0 9.88736e-06
4 *1516:D *1489:I 7.53241e-05
5 *1516:D *1516:CLK 0.000317494
6 *1516:D *334:27 0.000144931
7 *1516:D *406:10 1.90005e-05
8 *1535:RN *1516:D 2.78679e-05
*RES
1 *1390:Z *1516:D 11.356 
*END

*D_NET *99 0.00255894
*CONN
*I *1517:D I *D gf180mcu_fd_sc_mcu7t5v0__dffrnq_1
*I *1389:ZN O *D gf180mcu_fd_sc_mcu7t5v0__oai21_1
*CAP
1 *1517:D 0.000538618
2 *1389:ZN 0.000538618
3 *1517:D *1263:A1 0.000502835
4 *1517:D *1388:A1 1.83267e-05
5 *1517:D *1389:A1 0.000502835
6 *1517:D *1521:CLK 8.08741e-05
7 *1517:D *1611:I 0
8 *1517:D *323:38 7.59985e-05
9 *1517:D *374:19 0.000173891
10 *1517:D *374:27 0.000126947
*RES
1 *1389:ZN *1517:D 23.244 
*END

*D_NET *100 0.00155497
*CONN
*I *1518:D I *D gf180mcu_fd_sc_mcu7t5v0__dffsnq_1
*I *1387:Z O *D gf180mcu_fd_sc_mcu7t5v0__mux2_2
*CAP
1 *1518:D 0.000451845
2 *1387:Z 0.000451845
3 *1518:D *1517:CLK 0.00011703
4 *1518:D *1521:CLK 1.47056e-05
5 *1518:D *1587:I 6.54978e-05
6 *1518:D *1610:I 0.000105022
7 *1518:D *294:99 0.00034326
8 *1518:D *359:26 5.76749e-06
9 *1518:D *363:52 0
*RES
1 *1387:Z *1518:D 21.952 
*END

*D_NET *101 0.0005632
*CONN
*I *1519:D I *D gf180mcu_fd_sc_mcu7t5v0__dffrnq_1
*I *1386:ZN O *D gf180mcu_fd_sc_mcu7t5v0__oai21_1
*CAP
1 *1519:D 0.000220802
2 *1386:ZN 0.000220802
3 *1519:D *1388:A1 7.43568e-05
4 *1519:D *294:7 0
5 *1519:D *325:10 0
6 *1520:RN *1519:D 4.724e-05
*RES
1 *1386:ZN *1519:D 19.52 
*END

*D_NET *102 0.00111897
*CONN
*I *1520:D I *D gf180mcu_fd_sc_mcu7t5v0__dffrnq_1
*I *1384:Z O *D gf180mcu_fd_sc_mcu7t5v0__mux2_2
*CAP
1 *1520:D 0.000348604
2 *1384:Z 0.000348604
3 *1520:D *1343:A1 0
4 *1520:D *1384:I0 1.5961e-05
5 *1520:D *1384:I1 4.09047e-05
6 *1520:D *1520:CLK 7.54771e-06
7 *1520:D *144:8 0
8 *1520:D *144:25 0.000141888
9 *1520:D *233:18 0.000193933
10 *1520:D *324:26 8.64281e-06
11 *1520:D *398:44 1.28891e-05
*RES
1 *1384:Z *1520:D 20.432 
*END

*D_NET *103 0.00102946
*CONN
*I *1521:D I *D gf180mcu_fd_sc_mcu7t5v0__dffrnq_1
*I *1383:ZN O *D gf180mcu_fd_sc_mcu7t5v0__oai21_1
*CAP
1 *1521:D 0.000111699
2 *1383:ZN 0.000111699
3 *1521:D *1384:I0 0.000180841
4 *1521:D *1387:I1 3.73535e-05
5 *1521:D *1521:CLK 5.76373e-06
6 *1521:D *1612:I 3.35593e-05
7 *1521:D *324:26 0.000517099
8 *1521:D *325:10 3.14479e-05
*RES
1 *1383:ZN *1521:D 19.9 
*END

*D_NET *104 0.000401013
*CONN
*I *1522:D I *D gf180mcu_fd_sc_mcu7t5v0__dffrnq_1
*I *1381:ZN O *D gf180mcu_fd_sc_mcu7t5v0__oai21_1
*CAP
1 *1522:D 0.000125717
2 *1381:ZN 0.000125717
3 *1522:D *1381:A1 0.000149579
*RES
1 *1381:ZN *1522:D 10.064 
*END

*D_NET *105 0.000425917
*CONN
*I *1523:D I *D gf180mcu_fd_sc_mcu7t5v0__dffrnq_1
*I *1379:ZN O *D gf180mcu_fd_sc_mcu7t5v0__aoi21_1
*CAP
1 *1523:D 0.000181939
2 *1379:ZN 0.000181939
3 *1523:D *1381:A2 7.45328e-07
4 *1523:D *325:23 6.12935e-05
*RES
1 *1379:ZN *1523:D 10.216 
*END

*D_NET *106 0.00176509
*CONN
*I *1524:D I *D gf180mcu_fd_sc_mcu7t5v0__dffrnq_1
*I *1376:ZN O *D gf180mcu_fd_sc_mcu7t5v0__aoi21_1
*CAP
1 *1524:D 0.000148197
2 *1376:ZN 0.000148197
3 *1524:D *1358:S 0.000614973
4 *1524:D *1641:I 0
5 *1524:D *326:41 8.04139e-05
6 *1524:D *345:56 5.14323e-05
7 *1524:D *348:33 8.04139e-05
8 *1524:D *358:14 0.000244556
9 *1532:RN *1524:D 0.000396904
*RES
1 *1376:ZN *1524:D 20.508 
*END

*D_NET *107 0.00113725
*CONN
*I *1525:D I *D gf180mcu_fd_sc_mcu7t5v0__dffrnq_1
*I *1374:ZN O *D gf180mcu_fd_sc_mcu7t5v0__aoi21_1
*CAP
1 *1525:D 0.0001851
2 *1374:ZN 0.0001851
3 *1525:D *1243:I 0.000283208
4 *1525:D *1278:B2 6.57222e-06
5 *1525:D *1358:I0 1.47007e-05
6 *1525:D *1358:S 9.58465e-05
7 *1525:D *1373:A1 5.23776e-05
8 *1525:D *1374:A1 0.000209892
9 *1525:D *1376:A1 0.000104457
*RES
1 *1374:ZN *1525:D 20.28 
*END

*D_NET *108 0.00116665
*CONN
*I *1526:D I *D gf180mcu_fd_sc_mcu7t5v0__dffrnq_1
*I *1372:ZN O *D gf180mcu_fd_sc_mcu7t5v0__aoi21_1
*CAP
1 *1526:D 0.000335752
2 *1372:ZN 0.000335752
3 *1526:D *1372:A1 0.000100212
4 *1526:D *311:30 8.49277e-05
5 *1526:D *326:8 0.000203975
6 *1526:D *348:55 9.14686e-05
7 *1526:D *396:14 1.45682e-05
*RES
1 *1372:ZN *1526:D 20.508 
*END

*D_NET *109 0.00234919
*CONN
*I *1527:D I *D gf180mcu_fd_sc_mcu7t5v0__dffrnq_1
*I *1370:ZN O *D gf180mcu_fd_sc_mcu7t5v0__aoi21_1
*CAP
1 *1527:D 0.000333509
2 *1370:ZN 0.000333509
3 *1527:D *1368:A1 0.000632712
4 *1527:D *1482:I 4.97712e-06
5 *1527:D *1614:I 0.000310626
6 *1527:D *294:9 0
7 *1527:D *294:19 0
8 *1527:D *342:50 0.000724279
9 *1527:D *347:43 0
10 *1528:RN *1527:D 9.57609e-06
*RES
1 *1370:ZN *1527:D 21.648 
*END

*D_NET *110 0.000505867
*CONN
*I *1528:D I *D gf180mcu_fd_sc_mcu7t5v0__dffrnq_1
*I *1368:ZN O *D gf180mcu_fd_sc_mcu7t5v0__aoi21_1
*CAP
1 *1528:D 5.31204e-05
2 *1368:ZN 5.31204e-05
3 *1528:D *1368:A2 0.00031512
4 *1528:D *1368:B 8.45062e-05
*RES
1 *1368:ZN *1528:D 9.836 
*END

*D_NET *111 0.000590966
*CONN
*I *1529:D I *D gf180mcu_fd_sc_mcu7t5v0__dffsnq_1
*I *1366:ZN O *D gf180mcu_fd_sc_mcu7t5v0__oai21_1
*CAP
1 *1529:D 8.64269e-05
2 *1366:ZN 8.64269e-05
3 *1529:D *1330:A4 3.32172e-05
4 *1529:D *1347:A1 6.73926e-05
5 *1529:D *345:35 0.000317503
*RES
1 *1366:ZN *1529:D 10.064 
*END

*D_NET *112 0.000408974
*CONN
*I *1530:D I *D gf180mcu_fd_sc_mcu7t5v0__dffrnq_1
*I *1364:ZN O *D gf180mcu_fd_sc_mcu7t5v0__aoi21_1
*CAP
1 *1530:D 0.000170612
2 *1364:ZN 0.000170612
3 *1530:D *1364:B 6.77492e-05
4 *1530:D *1530:CLK 0
*RES
1 *1364:ZN *1530:D 10.216 
*END

*D_NET *113 0.00148967
*CONN
*I *1531:D I *D gf180mcu_fd_sc_mcu7t5v0__dffsnq_1
*I *1362:ZN O *D gf180mcu_fd_sc_mcu7t5v0__oai21_1
*CAP
1 *1531:D 0.000335207
2 *1362:ZN 0.000335207
3 *1531:D *1361:A1 2.58957e-05
4 *1531:D *1361:A2 0.000196417
5 *1531:D *1362:A2 7.83779e-05
6 *1531:D *1616:I 0.000148104
7 *1531:D *294:7 4.70049e-06
8 *1531:D *329:16 0.000125927
9 *1531:D *350:8 0.000213015
10 *1542:RN *1531:D 2.68222e-05
*RES
1 *1362:ZN *1531:D 12.268 
*END

*D_NET *114 0.000590796
*CONN
*I *1532:D I *D gf180mcu_fd_sc_mcu7t5v0__dffrnq_1
*I *1359:Z O *D gf180mcu_fd_sc_mcu7t5v0__mux2_2
*CAP
1 *1532:D 0.000131793
2 *1359:Z 0.000131793
3 *1532:D *1357:I0 0.00032464
4 *1532:D *1532:CLK 2.57058e-06
*RES
1 *1359:Z *1532:D 10.216 
*END

*D_NET *115 0.00377986
*CONN
*I *1533:D I *D gf180mcu_fd_sc_mcu7t5v0__dffrnq_1
*I *1358:Z O *D gf180mcu_fd_sc_mcu7t5v0__mux2_2
*CAP
1 *1533:D 0.000637696
2 *1358:Z 0.000637696
3 *1533:D *1358:I1 8.70206e-05
4 *1533:D *1425:A3 8.57291e-05
5 *1533:D *1479:I 5.64973e-05
6 *1533:D *1509:CLK 0.000714785
7 *1533:D *1637:I 0.000106772
8 *1533:D *1641:I 0.000493324
9 *1533:D *1653:I 0.00064872
10 *1533:D *1661:I 0.000189311
11 *1533:D *1662:I 0
12 *1533:D *347:34 4.4998e-05
13 *1533:D *352:8 3.86561e-05
14 *1533:D *352:30 3.86561e-05
*RES
1 *1358:Z *1533:D 25.676 
*END

*D_NET *116 0.00139733
*CONN
*I *1534:D I *D gf180mcu_fd_sc_mcu7t5v0__dffrnq_1
*I *1357:Z O *D gf180mcu_fd_sc_mcu7t5v0__mux2_2
*CAP
1 *1534:D 0.00020614
2 *1357:Z 0.00020614
3 *1534:D *1357:I0 0
4 *1534:D *1357:S 1.81888e-05
5 *1534:D *1359:I0 0.000585188
6 *1534:D *1359:I1 0.000129342
7 *1534:D *1359:S 1.5015e-05
8 *1534:D *1653:I 5.94709e-06
9 *1534:D *1660:I 6.12935e-05
10 *1534:D *355:10 0.000170075
*RES
1 *1357:Z *1534:D 20.66 
*END

*D_NET *117 0.000732297
*CONN
*I *1535:D I *D gf180mcu_fd_sc_mcu7t5v0__dffrnq_1
*I *1355:Z O *D gf180mcu_fd_sc_mcu7t5v0__mux2_2
*CAP
1 *1535:D 0.000105312
2 *1355:Z 0.000105312
3 *1535:D *1355:I0 0
4 *1535:D *1355:S 0.000521672
*RES
1 *1355:Z *1535:D 19.292 
*END

*D_NET *118 0.0022782
*CONN
*I *1536:D I *D gf180mcu_fd_sc_mcu7t5v0__dffrnq_1
*I *1354:Z O *D gf180mcu_fd_sc_mcu7t5v0__mux2_2
*CAP
1 *1536:D 0.000482681
2 *1354:Z 0.000482681
3 *1536:D *1353:I1 4.60244e-05
4 *1536:D *1353:S 0.000456406
5 *1536:D *1492:I 0
6 *1536:D *1589:I 0
7 *1536:D *295:22 0
8 *1536:D *331:20 0.000720891
9 *1536:D *349:23 0
10 *1536:RN *1536:D 8.95196e-05
*RES
1 *1354:Z *1536:D 22.104 
*END

*D_NET *119 0.000559373
*CONN
*I *1537:D I *D gf180mcu_fd_sc_mcu7t5v0__dffrnq_1
*I *1353:Z O *D gf180mcu_fd_sc_mcu7t5v0__mux2_2
*CAP
1 *1537:D 9.09121e-05
2 *1353:Z 9.09121e-05
3 *1537:D *1532:CLK 5.29084e-05
4 *1537:D *1537:CLK 0.00032464
*RES
1 *1353:Z *1537:D 10.064 
*END

*D_NET *120 0.001168
*CONN
*I *1538:D I *D gf180mcu_fd_sc_mcu7t5v0__dffrnq_1
*I *1352:Z O *D gf180mcu_fd_sc_mcu7t5v0__mux2_2
*CAP
1 *1538:D 0.000322927
2 *1352:Z 0.000322927
3 *1538:D *1532:CLK 1.18004e-05
4 *1538:D *1652:I 0.000157257
5 *1538:D *295:18 0.000353088
*RES
1 *1352:Z *1538:D 11.508 
*END

*D_NET *121 0.00123916
*CONN
*I *1539:D I *D gf180mcu_fd_sc_mcu7t5v0__dffrnq_1
*I *1351:Z O *D gf180mcu_fd_sc_mcu7t5v0__mux2_2
*CAP
1 *1539:D 0.00021766
2 *1351:Z 0.00021766
3 *1539:D *1539:CLK 7.45328e-07
4 *1539:D *1652:I 6.74908e-05
5 *1539:D *331:18 0.000206333
6 *1539:D *331:20 0.000396904
7 *1539:D *342:10 0.000132369
*RES
1 *1351:Z *1539:D 20.28 
*END

*D_NET *122 0.000500756
*CONN
*I *1540:D I *D gf180mcu_fd_sc_mcu7t5v0__dffrnq_1
*I *1350:ZN O *D gf180mcu_fd_sc_mcu7t5v0__oai21_1
*CAP
1 *1540:D 6.7777e-05
2 *1350:ZN 6.7777e-05
3 *1540:D *1630:I 5.48455e-05
4 *1540:D *334:27 0.000310356
*RES
1 *1350:ZN *1540:D 9.836 
*END

*D_NET *123 0.000843341
*CONN
*I *1541:D I *D gf180mcu_fd_sc_mcu7t5v0__dffrnq_1
*I *1348:ZN O *D gf180mcu_fd_sc_mcu7t5v0__aoi21_1
*CAP
1 *1541:D 0.000219356
2 *1348:ZN 0.000219356
3 *1541:D *1652:I 2.2086e-05
4 *1541:RN *1541:D 0.000382544
*RES
1 *1348:ZN *1541:D 10.824 
*END

*D_NET *124 0.00348884
*CONN
*I *1542:D I *D gf180mcu_fd_sc_mcu7t5v0__dffrnq_1
*I *1346:ZN O *D gf180mcu_fd_sc_mcu7t5v0__oai21_1
*CAP
1 *1542:D 0.00058599
2 *1346:ZN 0.00058599
3 *1542:D *1346:A1 0.00011651
4 *1542:D *1346:B 0.000535065
5 *1542:D *1385:A1 0.00026436
6 *1542:D *1387:I1 0.000205231
7 *1542:D *1388:A1 0.000142801
8 *1542:D *1494:I 0.000324966
9 *1542:D *1581:I 0.000630121
10 *1542:D *1596:I 4.50449e-05
11 *1542:D *143:12 0
12 *1542:D *332:16 5.276e-05
*RES
1 *1346:ZN *1542:D 33.992 
*END

*D_NET *125 0.000394298
*CONN
*I *1543:D I *D gf180mcu_fd_sc_mcu7t5v0__dffrnq_1
*I *1344:ZN O *D gf180mcu_fd_sc_mcu7t5v0__aoi21_1
*CAP
1 *1543:D 0.000151104
2 *1344:ZN 0.000151104
3 *1543:D *1568:CLK 7.70742e-05
4 *1543:D *303:13 1.5015e-05
5 *1543:D *349:43 0
*RES
1 *1344:ZN *1543:D 10.064 
*END

*D_NET *126 0.000786704
*CONN
*I *1544:D I *D gf180mcu_fd_sc_mcu7t5v0__dffrnq_1
*I *1342:ZN O *D gf180mcu_fd_sc_mcu7t5v0__aoi21_1
*CAP
1 *1544:D 0.000234089
2 *1342:ZN 0.000234089
3 *1544:D *1342:A2 0.000141187
4 *1544:D *303:6 0.000116355
5 *1544:D *303:13 1.02578e-05
6 *1544:D *349:43 5.07244e-05
*RES
1 *1342:ZN *1544:D 10.9 
*END

*D_NET *127 0.000483351
*CONN
*I *1545:D I *D gf180mcu_fd_sc_mcu7t5v0__dffsnq_1
*I *1339:ZN O *D gf180mcu_fd_sc_mcu7t5v0__nor2_1
*CAP
1 *1545:D 8.00426e-05
2 *1339:ZN 8.00426e-05
3 *1545:D *1339:A2 0.000317503
4 *1545:D *296:38 5.76373e-06
*RES
1 *1339:ZN *1545:D 9.836 
*END

*D_NET *128 0.00290704
*CONN
*I *1546:D I *D gf180mcu_fd_sc_mcu7t5v0__dffrnq_1
*I *1337:ZN O *D gf180mcu_fd_sc_mcu7t5v0__nor2_1
*CAP
1 *1546:D 0.000596414
2 *1337:ZN 0.000596414
3 *1546:D *1408:A1 0
4 *1546:D *1500:I 0.000134564
5 *1546:D *1546:CLK 0.000204835
6 *1546:D *361:51 0.000830398
7 *1545:SETN *1546:D 0.000544417
*RES
1 *1337:ZN *1546:D 15.232 
*END

*D_NET *129 0.000948948
*CONN
*I *1547:D I *D gf180mcu_fd_sc_mcu7t5v0__dffrnq_1
*I *1329:ZN O *D gf180mcu_fd_sc_mcu7t5v0__nor2_1
*CAP
1 *1547:D 0.000262286
2 *1329:ZN 0.000262286
3 *1547:D *1329:A1 0.000317503
4 *1547:D *1646:I 4.13816e-05
5 *1547:D *413:12 6.54913e-05
*RES
1 *1329:ZN *1547:D 20.28 
*END

*D_NET *130 0.000592542
*CONN
*I *1548:D I *D gf180mcu_fd_sc_mcu7t5v0__dffrnq_1
*I *1327:ZN O *D gf180mcu_fd_sc_mcu7t5v0__aoi21_1
*CAP
1 *1548:D 0.000296271
2 *1327:ZN 0.000296271
3 *1548:D *1548:CLK 0
*RES
1 *1327:ZN *1548:D 19.824 
*END

*D_NET *131 0.0016851
*CONN
*I *1549:D I *D gf180mcu_fd_sc_mcu7t5v0__dffrnq_1
*I *1325:ZN O *D gf180mcu_fd_sc_mcu7t5v0__nor2_1
*CAP
1 *1549:D 0.000572662
2 *1325:ZN 0.000572662
3 *1549:D *1318:A1 0.000151949
4 *1549:D *1578:I 0
5 *1549:D *391:10 0
6 *1549:D *391:12 0
7 *1549:D *392:8 0.00021548
8 *1549:RN *1549:D 0.000172349
*RES
1 *1325:ZN *1549:D 22.94 
*END

*D_NET *132 0.000590595
*CONN
*I *1550:D I *D gf180mcu_fd_sc_mcu7t5v0__dffrnq_1
*I *1322:ZN O *D gf180mcu_fd_sc_mcu7t5v0__oai22_1
*CAP
1 *1550:D 0.000132977
2 *1322:ZN 0.000132977
3 *1550:D *1322:A1 0.00032464
*RES
1 *1322:ZN *1550:D 10.216 
*END

*D_NET *133 0.00127859
*CONN
*I *1551:D I *D gf180mcu_fd_sc_mcu7t5v0__dffrnq_1
*I *1302:ZN O *D gf180mcu_fd_sc_mcu7t5v0__nor3_1
*CAP
1 *1551:D 0.000291028
2 *1302:ZN 0.000291028
3 *1551:D *1395:A1 4.00328e-06
4 *1551:D *1608:I 0.000184971
5 *1551:D *1621:I 0.000109625
6 *1551:D *201:14 0.000196853
7 *1558:RN *1551:D 0.00020108
*RES
1 *1302:ZN *1551:D 11.964 
*END

*D_NET *134 0.000561314
*CONN
*I *1552:D I *D gf180mcu_fd_sc_mcu7t5v0__dffrnq_1
*I *1300:ZN O *D gf180mcu_fd_sc_mcu7t5v0__nor3_1
*CAP
1 *1552:D 7.23844e-05
2 *1300:ZN 7.23844e-05
3 *1552:D *1552:CLK 0.000165338
4 *1552:D *365:23 0.000251207
*RES
1 *1300:ZN *1552:D 10.292 
*END

*D_NET *135 0.00225736
*CONN
*I *1553:D I *D gf180mcu_fd_sc_mcu7t5v0__dffrnq_1
*I *1298:ZN O *D gf180mcu_fd_sc_mcu7t5v0__nor4_1
*CAP
1 *1553:D 0.000762959
2 *1298:ZN 0.000762959
3 *1553:D *1257:I 6.04444e-06
4 *1553:D *1269:A2 0
5 *1553:D *1297:A2 0.000317503
6 *1553:D *1298:A4 0.00020108
7 *1553:D *1444:I0 0
8 *1553:D *1447:I 1.72827e-05
9 *1553:D *1455:I 0
10 *1553:D *364:24 6.02616e-05
11 *1553:D *376:10 0
12 *1553:D *418:12 3.25336e-05
13 *1553:D *423:12 9.67349e-05
*RES
1 *1298:ZN *1553:D 24.08 
*END

*D_NET *136 0.00362194
*CONN
*I *1391:A1 I *D gf180mcu_fd_sc_mcu7t5v0__nor3_1
*I *1297:A1 I *D gf180mcu_fd_sc_mcu7t5v0__and2_1
*I *1296:A1 I *D gf180mcu_fd_sc_mcu7t5v0__nor2_1
*I *1227:ZN O *D gf180mcu_fd_sc_mcu7t5v0__clkinv_1
*CAP
1 *1391:A1 1.82066e-05
2 *1297:A1 0.000102342
3 *1296:A1 0.000175255
4 *1227:ZN 0
5 *136:19 0.000175642
6 *136:6 0.000230348
7 *1296:A1 *1260:I 0
8 *1296:A1 *1447:I 3.17618e-05
9 *1296:A1 *204:10 0.000406509
10 *1296:A1 *364:24 0.000340241
11 *1296:A1 *418:12 1.783e-05
12 *1297:A1 *1297:A2 0.000431526
13 *1297:A1 *1579:I 5.92062e-05
14 *1297:A1 *294:171 0
15 *1297:A1 *316:57 5.71282e-05
16 *1391:A1 *1447:I 0.000479869
17 *1391:A1 *203:26 0.000507057
18 *136:19 *1298:A3 9.0262e-05
19 *136:19 *1447:I 0.000346856
20 *136:19 *203:26 0.000135941
21 *136:19 *204:10 1.5961e-05
*RES
1 *1227:ZN *136:6 9 
2 *136:6 *1296:A1 11.128 
3 *136:6 *136:19 0.988 
4 *136:19 *1297:A1 10.368 
5 *136:19 *1391:A1 10.292 
*END

*D_NET *137 0.00717676
*CONN
*I *1301:A1 I *D gf180mcu_fd_sc_mcu7t5v0__xor2_1
*I *1267:B2 I *D gf180mcu_fd_sc_mcu7t5v0__oai221_1
*I *1270:A1 I *D gf180mcu_fd_sc_mcu7t5v0__aoi221_1
*I *1228:ZN O *D gf180mcu_fd_sc_mcu7t5v0__clkinv_1
*CAP
1 *1301:A1 0
2 *1267:B2 0
3 *1270:A1 0.000432947
4 *1228:ZN 0.000340575
5 *137:20 0.000508062
6 *137:14 0.00041569
7 *1270:A1 *1267:A2 0.000269865
8 *1270:A1 *1267:B1 0.00161551
9 *1270:A1 *1270:C 1.15275e-05
10 *1270:A1 *1272:C2 0
11 *1270:A1 *1651:I 8.81341e-06
12 *1270:A1 *294:161 4.1074e-05
13 *1270:A1 *374:27 9.88736e-06
14 *1270:A1 *375:8 0.000177992
15 *1270:A1 *416:28 2.9536e-05
16 *1270:A1 *418:12 1.99986e-05
17 *137:14 *1228:I 0.000441063
18 *137:14 *1257:I 1.93526e-05
19 *137:14 *1265:A2 0.000269914
20 *137:14 *1267:C 5.4634e-05
21 *137:14 *1295:A4 0.000135135
22 *137:14 *157:12 0.00032464
23 *137:14 *166:6 1.07012e-05
24 *137:14 *201:14 0.000594557
25 *137:14 *299:35 0.000167934
26 *137:14 *420:30 0
27 *137:20 *1264:A1 1.54006e-05
28 *137:20 *1265:A2 3.95494e-05
29 *137:20 *1267:A2 0.000269857
30 *137:20 *1267:B1 6.35236e-05
31 *137:20 *1267:C 0.000379283
32 *137:20 *157:12 0.000483787
33 *1517:RN *1270:A1 2.59502e-05
*RES
1 *1228:ZN *137:14 18.136 
2 *137:14 *137:20 6.476 
3 *137:20 *1270:A1 14.016 
4 *137:20 *1267:B2 9 
5 *137:14 *1301:A1 4.5 
*END

*D_NET *138 0.00144499
*CONN
*I *1322:A1 I *D gf180mcu_fd_sc_mcu7t5v0__oai22_1
*I *1229:ZN O *D gf180mcu_fd_sc_mcu7t5v0__clkinv_1
*CAP
1 *1322:A1 0.000150066
2 *1229:ZN 0.000150066
3 *1322:A1 *1554:CLK 0.000104569
4 *1322:A1 *300:10 0.00032464
5 *1322:A1 *300:12 0.000307983
6 *1322:A1 *393:10 8.30278e-05
7 *1550:D *1322:A1 0.00032464
*RES
1 *1229:ZN *1322:A1 20.28 
*END

*D_NET *139 0.000787079
*CONN
*I *1323:A1 I *D gf180mcu_fd_sc_mcu7t5v0__nor2_1
*I *1230:ZN O *D gf180mcu_fd_sc_mcu7t5v0__clkinv_1
*CAP
1 *1323:A1 9.84473e-05
2 *1230:ZN 9.84473e-05
3 *1323:A1 *1318:A3 1.02578e-05
4 *1323:A1 *1319:B 1.5015e-05
5 *1323:A1 *1328:A2 0.000377672
6 *1323:A1 *1548:CLK 0
7 *1323:A1 *227:8 0.000142194
8 *1323:A1 *321:25 4.50449e-05
*RES
1 *1230:ZN *1323:A1 10.368 
*END

*D_NET *140 0.000355508
*CONN
*I *1339:A1 I *D gf180mcu_fd_sc_mcu7t5v0__nor2_1
*I *1231:ZN O *D gf180mcu_fd_sc_mcu7t5v0__clkinv_1
*CAP
1 *1339:A1 0.000168961
2 *1231:ZN 0.000168961
3 *1339:A1 *1339:A2 1.5015e-05
4 *1339:A1 *1659:I 0
5 *1339:A1 *1664:I 2.57058e-06
*RES
1 *1231:ZN *1339:A1 10.216 
*END

*D_NET *141 0.00437228
*CONN
*I *1360:A1 I *D gf180mcu_fd_sc_mcu7t5v0__nand3_1
*I *1377:A1 I *D gf180mcu_fd_sc_mcu7t5v0__and3_1
*I *1342:A1 I *D gf180mcu_fd_sc_mcu7t5v0__aoi21_1
*I *1232:ZN O *D gf180mcu_fd_sc_mcu7t5v0__clkinv_1
*CAP
1 *1360:A1 8.27906e-05
2 *1377:A1 0.00023662
3 *1342:A1 0.000715883
4 *1232:ZN 6.2843e-05
5 *141:25 0.00035811
6 *141:10 0.000817425
7 *1342:A1 *1341:A1 8.24296e-05
8 *1342:A1 *1581:I 3.58116e-05
9 *1342:A1 *1634:I 0.000207562
10 *1360:A1 *1581:I 5.52776e-05
11 *1360:A1 *1596:I 8.18373e-05
12 *1360:A1 *1652:I 0.000193942
13 *1377:A1 *1232:I 0.000231978
14 *1377:A1 *1360:A3 0.000356305
15 *1377:A1 *1652:I 5.19077e-05
16 *141:25 *1581:I 4.89423e-05
17 *141:25 *1634:I 1.3575e-05
18 *1541:RN *1360:A1 0.000308479
19 *1541:RN *141:25 0.00021548
20 *1544:RN *1377:A1 2.11364e-05
21 *1544:RN *141:10 0.000193942
*RES
1 *1232:ZN *141:10 9.76 
2 *141:10 *1342:A1 13.18 
3 *141:10 *141:25 0.684 
4 *141:25 *1377:A1 11.812 
5 *141:25 *1360:A1 10.368 
*END

*D_NET *142 0.00557739
*CONN
*I *1356:A2 I *D gf180mcu_fd_sc_mcu7t5v0__nand3_1
*I *1377:A2 I *D gf180mcu_fd_sc_mcu7t5v0__and3_1
*I *1344:A1 I *D gf180mcu_fd_sc_mcu7t5v0__aoi21_1
*I *1233:ZN O *D gf180mcu_fd_sc_mcu7t5v0__clkinv_1
*CAP
1 *1356:A2 0.000108678
2 *1377:A2 0.000194217
3 *1344:A1 0.000131743
4 *1233:ZN 0
5 *142:8 0.000359216
6 *142:6 0.000141935
7 *1344:A1 *1343:A2 0.00140088
8 *1344:A1 *1344:B 0.00133736
9 *1344:A1 *1458:I 6.38438e-05
10 *1344:A1 *1497:I 6.95207e-05
11 *1356:A2 *1497:I 9.6996e-05
12 *1356:A2 *1630:I 1.20079e-05
13 *1356:A2 *334:31 0
14 *1356:A2 *414:8 0.000300836
15 *1377:A2 *1233:I 0.00020973
16 *1377:A2 *1360:A2 0.00027771
17 *1377:A2 *1360:A3 3.08902e-05
18 *1377:A2 *1652:I 0.000585539
19 *1377:A2 *414:8 8.02751e-06
20 *142:8 *1497:I 6.14664e-05
21 *1543:RN *1356:A2 0.000186796
*RES
1 *1233:ZN *142:6 9 
2 *142:6 *142:8 0.38 
3 *142:8 *1344:A1 13.18 
4 *142:8 *1377:A2 11.508 
5 *142:6 *1356:A2 10.368 
*END

*D_NET *143 0.00691684
*CONN
*I *1379:A1 I *D gf180mcu_fd_sc_mcu7t5v0__aoi21_1
*I *1362:A1 I *D gf180mcu_fd_sc_mcu7t5v0__oai21_1
*I *1331:A3 I *D gf180mcu_fd_sc_mcu7t5v0__nor4_1
*I *1346:A1 I *D gf180mcu_fd_sc_mcu7t5v0__oai21_1
*I *1234:ZN O *D gf180mcu_fd_sc_mcu7t5v0__clkinv_1
*CAP
1 *1379:A1 0.000277094
2 *1362:A1 0
3 *1331:A3 0
4 *1346:A1 0.000361311
5 *1234:ZN 5.01269e-05
6 *143:12 0.00103796
7 *143:10 0.000871259
8 *143:8 0.000521834
9 *1346:A1 *1331:A2 0.000142801
10 *1346:A1 *1346:B 2.14255e-05
11 *1346:A1 *1385:A1 1.33998e-05
12 *1346:A1 *1388:A1 0
13 *1346:A1 *1596:I 9.75999e-05
14 *1346:A1 *245:24 0.00018402
15 *1379:A1 *1378:A2 0.000222333
16 *1379:A1 *1585:I 0
17 *1379:A1 *325:10 0
18 *1379:A1 *325:19 0
19 *1379:A1 *329:10 0.000235816
20 *1379:A1 *354:29 2.94028e-05
21 *143:8 *1385:A1 0.000317503
22 *143:8 *294:7 8.58124e-05
23 *143:10 *1234:I 2.70198e-05
24 *143:10 *1385:A1 2.46507e-05
25 *143:10 *325:10 0
26 *143:10 *329:10 0.00063272
27 *143:12 *1331:A2 0.000235808
28 *143:12 *1385:A1 0.000306071
29 *143:12 *1388:A1 0
30 *143:12 *1494:I 0.000102192
31 *143:12 *325:10 0
32 *143:12 *331:10 0.000668794
33 *1531:SETN *1379:A1 0.00033338
34 *1542:D *1346:A1 0.00011651
35 *1542:D *143:12 0
*RES
1 *1234:ZN *143:8 9.836 
2 *143:8 *143:10 1.9 
3 *143:10 *143:12 5.396 
4 *143:12 *1346:A1 11.736 
5 *143:12 *1331:A3 9 
6 *143:10 *1362:A1 9 
7 *143:8 *1379:A1 11.508 
*END

*D_NET *144 0.010022
*CONN
*I *1330:A1 I *D gf180mcu_fd_sc_mcu7t5v0__nor4_1
*I *1348:A1 I *D gf180mcu_fd_sc_mcu7t5v0__aoi21_1
*I *1366:A1 I *D gf180mcu_fd_sc_mcu7t5v0__oai21_1
*I *1350:A1 I *D gf180mcu_fd_sc_mcu7t5v0__oai21_1
*I *1235:ZN O *D gf180mcu_fd_sc_mcu7t5v0__clkinv_1
*CAP
1 *1330:A1 0
2 *1348:A1 0
3 *1366:A1 0.000202345
4 *1350:A1 0.000187431
5 *1235:ZN 0.000135626
6 *144:41 0.000931272
7 *144:25 0.000977846
8 *144:8 0.000571977
9 *1350:A1 *1384:I1 5.59457e-05
10 *1350:A1 *1619:I 2.23783e-05
11 *1350:A1 *1630:I 2.22758e-05
12 *1350:A1 *1652:I 7.71175e-06
13 *1350:A1 *334:31 0.000196485
14 *1366:A1 *1347:A1 6.57222e-06
15 *1366:A1 *1367:A2 0.000102192
16 *1366:A1 *1368:B 0.000403764
17 *1366:A1 *1490:I 0.000668789
18 *1366:A1 *1623:I 0.000235582
19 *1366:A1 *1652:I 0.000369754
20 *1366:A1 *245:24 5.76109e-05
21 *1366:A1 *328:10 6.38438e-05
22 *1366:A1 *397:39 5.8775e-05
23 *144:8 *1384:I1 0.000138153
24 *144:8 *1619:I 0.0005581
25 *144:8 *324:26 0.000569188
26 *144:25 *1332:A1 0.000237356
27 *144:25 *1332:A2 0
28 *144:25 *1349:A2 0.000431535
29 *144:25 *1384:I1 3.00299e-05
30 *144:25 *1623:I 0.000144729
31 *144:25 *233:18 2.96977e-05
32 *144:25 *398:44 9.14686e-05
33 *144:41 *1332:A1 0.000261337
34 *144:41 *1346:A2 1.29702e-05
35 *144:41 *1348:A2 3.43325e-05
36 *144:41 *1623:I 0.000558033
37 *144:41 *1652:I 0.000293265
38 *144:41 *245:24 0
39 *144:41 *304:19 0.000394387
40 *144:41 *304:23 0.000146949
41 *144:41 *332:16 0.000372314
42 *144:41 *398:27 0.000298114
43 *1520:D *144:8 0
44 *1520:D *144:25 0.000141888
*RES
1 *1235:ZN *144:8 11.964 
2 *144:8 *1350:A1 10.52 
3 *144:8 *144:25 7.692 
4 *144:25 *144:41 24.384 
5 *144:41 *1366:A1 17.3 
6 *144:41 *1348:A1 4.5 
7 *144:25 *1330:A1 4.5 
*END

*D_NET *145 0.00345428
*CONN
*I *1281:A1 I *D gf180mcu_fd_sc_mcu7t5v0__aoi22_1
*I *1289:A1 I *D gf180mcu_fd_sc_mcu7t5v0__oai21_1
*I *1285:A1 I *D gf180mcu_fd_sc_mcu7t5v0__oai22_1
*I *1236:ZN O *D gf180mcu_fd_sc_mcu7t5v0__clkinv_1
*CAP
1 *1281:A1 0.000410467
2 *1289:A1 0.000159001
3 *1285:A1 2.73362e-05
4 *1236:ZN 0
5 *145:6 0.00052152
6 *145:4 0.00074565
7 *1281:A1 *1281:B2 0
8 *1281:A1 *1378:A1 0.000268218
9 *1281:A1 *1477:I 0.000639564
10 *1281:A1 *1586:I 2.8765e-05
11 *1281:A1 *354:23 0
12 *1281:A1 *354:53 1.33998e-05
13 *1281:A1 *431:29 0.000151957
14 *1285:A1 *1289:A2 0
15 *1289:A1 *1285:B2 3.04115e-05
16 *1289:A1 *1286:A2 5.3266e-05
17 *1289:A1 *1289:A2 2.88224e-05
18 *1289:A1 *148:25 5.69306e-05
19 *1289:A1 *192:10 0
20 *145:6 *1236:I 8.55242e-05
21 *145:6 *1281:B2 0
22 *145:6 *1284:B2 5.48455e-05
23 *145:6 *1289:A2 1.53689e-05
24 *145:6 *192:10 0
25 *145:6 *354:23 7.71175e-06
26 *145:6 *432:14 0.000155524
*RES
1 *1236:ZN *145:4 4.5 
2 *145:4 *145:6 2.508 
3 *145:6 *1285:A1 4.728 
4 *145:6 *1289:A1 5.868 
5 *145:4 *1281:A1 17.376 
*END

*D_NET *146 0.00566036
*CONN
*I *1281:B2 I *D gf180mcu_fd_sc_mcu7t5v0__aoi22_1
*I *1284:A1 I *D gf180mcu_fd_sc_mcu7t5v0__oai22_1
*I *1364:A1 I *D gf180mcu_fd_sc_mcu7t5v0__aoi21_1
*I *1237:ZN O *D gf180mcu_fd_sc_mcu7t5v0__clkinv_1
*CAP
1 *1281:B2 0.000357255
2 *1284:A1 0
3 *1364:A1 0.000312269
4 *1237:ZN 0
5 *146:19 0.000459585
6 *146:6 0.000414599
7 *1281:B2 *1284:A2 0.00122009
8 *1281:B2 *1284:B2 1.91917e-06
9 *1281:B2 *1586:I 5.63659e-05
10 *1281:B2 *192:10 7.71175e-06
11 *1364:A1 *1237:I 0.00063272
12 *1364:A1 *1238:I 8.64281e-06
13 *1364:A1 *1291:A2 0.000380912
14 *1364:A1 *1361:A1 0
15 *1364:A1 *1363:A2 0.000687096
16 *1364:A1 *1639:I 0.000130638
17 *1364:A1 *1640:I 0.000134089
18 *1364:A1 *147:8 1.31444e-05
19 *1364:A1 *387:12 0.000439956
20 *1364:A1 *389:8 0
21 *146:19 *1282:A1 5.40492e-05
22 *146:19 *1284:B1 0.000158809
23 *146:19 *1640:I 0.000136691
24 *146:19 *147:8 5.38123e-05
25 *1281:A1 *1281:B2 0
26 *145:6 *1281:B2 0
*RES
1 *1237:ZN *146:6 9 
2 *146:6 *1364:A1 14.244 
3 *146:6 *146:19 5.944 
4 *146:19 *1284:A1 4.5 
5 *146:19 *1281:B2 7.996 
*END

*D_NET *147 0.00233302
*CONN
*I *1282:A1 I *D gf180mcu_fd_sc_mcu7t5v0__aoi22_1
*I *1284:B2 I *D gf180mcu_fd_sc_mcu7t5v0__oai22_1
*I *1238:ZN O *D gf180mcu_fd_sc_mcu7t5v0__clkinv_1
*CAP
1 *1282:A1 0.000254049
2 *1284:B2 0.00012674
3 *1238:ZN 0.000257293
4 *147:8 0.000638082
5 *1282:A1 *1284:B1 4.07675e-05
6 *1282:A1 *1285:B1 0.0003473
7 *1282:A1 *1621:I 4.63109e-05
8 *1282:A1 *190:14 0.000193942
9 *1282:A1 *335:12 2.41778e-05
10 *1284:B2 *189:10 0
11 *1284:B2 *192:10 2.40935e-05
12 *147:8 *1237:I 9.0764e-05
13 *147:8 *1285:B1 0.000111727
14 *147:8 *148:25 0
15 *1281:B2 *1284:B2 1.91917e-06
16 *1364:A1 *147:8 1.31444e-05
17 *145:6 *1284:B2 5.48455e-05
18 *146:19 *1282:A1 5.40492e-05
19 *146:19 *147:8 5.38123e-05
*RES
1 *1238:ZN *147:8 11.052 
2 *147:8 *1284:B2 9.836 
3 *147:8 *1282:A1 11.736 
*END

*D_NET *148 0.00636238
*CONN
*I *1285:B2 I *D gf180mcu_fd_sc_mcu7t5v0__oai22_1
*I *1282:B2 I *D gf180mcu_fd_sc_mcu7t5v0__aoi22_1
*I *1368:A1 I *D gf180mcu_fd_sc_mcu7t5v0__aoi21_1
*I *1239:ZN O *D gf180mcu_fd_sc_mcu7t5v0__clkinv_1
*CAP
1 *1285:B2 4.74247e-05
2 *1282:B2 0.000335407
3 *1368:A1 0.000757626
4 *1239:ZN 0
5 *148:25 0.00105285
6 *148:4 0.00142764
7 *1282:B2 *1282:B1 0.000121764
8 *1282:B2 *1285:B1 7.01371e-05
9 *1282:B2 *1286:A1 4.06678e-05
10 *1282:B2 *1607:I 0
11 *1282:B2 *1621:I 0
12 *1282:B2 *189:10 0.000240057
13 *1282:B2 *190:14 0.000317948
14 *1282:B2 *429:29 8.82632e-05
15 *1285:B2 *192:10 2.14834e-05
16 *1368:A1 *1370:B 0.000172145
17 *1368:A1 *1573:I 0
18 *1368:A1 *1614:I 4.66935e-05
19 *1368:A1 *342:50 9.13149e-05
20 *1368:A1 *386:10 0
21 *148:25 *1238:I 0
22 *148:25 *1239:I 0.000171918
23 *148:25 *1285:B1 0
24 *148:25 *1286:A1 0.000284188
25 *148:25 *1289:B 9.88736e-06
26 *148:25 *1292:A2 3.55377e-05
27 *148:25 *1363:A1 1.2018e-05
28 *148:25 *1607:I 1.80144e-05
29 *148:25 *192:10 3.25219e-05
30 *1289:A1 *1285:B2 3.04115e-05
31 *1289:A1 *148:25 5.69306e-05
32 *1527:D *1368:A1 0.000632712
33 *1527:RN *148:25 0.000126956
34 *1529:SETN *1368:A1 0
35 *1530:RN *148:25 0.000119866
36 *147:8 *148:25 0
*RES
1 *1239:ZN *148:4 4.5 
2 *148:4 *1368:A1 19.352 
3 *148:4 *148:25 14.244 
4 *148:25 *1282:B2 16.844 
5 *148:25 *1285:B2 4.88 
*END

*D_NET *149 0.00645667
*CONN
*I *1279:A1 I *D gf180mcu_fd_sc_mcu7t5v0__oai22_1
*I *1370:A1 I *D gf180mcu_fd_sc_mcu7t5v0__aoi21_1
*I *1240:ZN O *D gf180mcu_fd_sc_mcu7t5v0__clkinv_1
*CAP
1 *1279:A1 0
2 *1370:A1 0.000439111
3 *1240:ZN 0.000257352
4 *149:8 0.000696462
5 *1370:A1 *1279:B2 0.000146051
6 *1370:A1 *1369:A1 0.00101787
7 *1370:A1 *1369:A2 0.00198453
8 *1370:A1 *1370:B 0.000310356
9 *1370:A1 *1387:I1 0.000165379
10 *1370:A1 *1484:I 5.13352e-06
11 *1370:A1 *1613:I 0.000197766
12 *1370:A1 *294:19 0
13 *1370:A1 *330:10 0.000203407
14 *1370:A1 *385:10 0.000142185
15 *1370:A1 *385:28 2.95445e-05
16 *149:8 *1240:I 0.000389679
17 *149:8 *1279:A2 0.000248352
18 *149:8 *1280:B 3.16049e-06
19 *149:8 *294:19 0
20 *149:8 *385:28 0.000220336
21 *1530:RN *1370:A1 0
*RES
1 *1240:ZN *149:8 12.268 
2 *149:8 *1370:A1 17.968 
3 *149:8 *1279:A1 9 
*END

*D_NET *150 0.00559771
*CONN
*I *1372:A1 I *D gf180mcu_fd_sc_mcu7t5v0__aoi21_1
*I *1279:B2 I *D gf180mcu_fd_sc_mcu7t5v0__oai22_1
*I *1241:ZN O *D gf180mcu_fd_sc_mcu7t5v0__clkinv_1
*CAP
1 *1372:A1 0.000591949
2 *1279:B2 0.000246715
3 *1241:ZN 0.000234351
4 *150:6 0.00107301
5 *1279:B2 *1369:A2 0.000144499
6 *1279:B2 *294:19 0.000100524
7 *1279:B2 *305:10 1.85312e-05
8 *1372:A1 *1369:A2 0.00205924
9 *1372:A1 *1371:A2 0.000158809
10 *1372:A1 *1597:I 2.33043e-05
11 *1372:A1 *294:19 3.19244e-05
12 *1372:A1 *305:10 9.07878e-05
13 *1372:A1 *326:10 0.000410371
14 *150:6 *1597:I 4.03623e-05
15 *150:6 *294:19 9.44117e-05
16 *150:6 *347:43 2.8001e-06
17 *150:6 *384:10 2.98535e-05
18 *1370:A1 *1279:B2 0.000146051
19 *1526:D *1372:A1 0.000100212
*RES
1 *1241:ZN *150:6 6.096 
2 *150:6 *1279:B2 16.16 
3 *150:6 *1372:A1 20.492 
*END

*D_NET *151 0.0101962
*CONN
*I *1277:A1 I *D gf180mcu_fd_sc_mcu7t5v0__nand2_1
*I *1278:A1 I *D gf180mcu_fd_sc_mcu7t5v0__oai22_1
*I *1374:A1 I *D gf180mcu_fd_sc_mcu7t5v0__aoi21_1
*I *1242:ZN O *D gf180mcu_fd_sc_mcu7t5v0__clkinv_1
*CAP
1 *1277:A1 0
2 *1278:A1 0.000119794
3 *1374:A1 0.000343686
4 *1242:ZN 0.000452813
5 *151:12 0.000632383
6 *151:10 0.000621716
7 *1278:A1 *1509:CLK 0.000784345
8 *1278:A1 *1637:I 0.000784345
9 *1278:A1 *294:19 7.46904e-05
10 *1278:A1 *384:19 0.000333372
11 *1374:A1 *1278:B2 0
12 *1374:A1 *1290:A4 0.000178927
13 *1374:A1 *1358:I0 0.000741465
14 *1374:A1 *1358:S 3.19219e-05
15 *1374:A1 *1373:A1 8.04139e-05
16 *1374:A1 *1641:I 0
17 *1374:A1 *1653:I 5.87561e-06
18 *1374:A1 *342:50 0.000170917
19 *1374:A1 *425:18 0.000216477
20 *151:10 *1279:B1 0.000687088
21 *151:10 *1432:A1 7.88136e-05
22 *151:10 *425:10 0.000330422
23 *151:10 *426:12 0.000215472
24 *151:10 *426:14 0.000394625
25 *151:10 *426:18 0.000553434
26 *151:10 *427:12 0.000613141
27 *151:10 *427:14 0.000117908
28 *151:12 *1279:B1 0.000376331
29 *151:12 *1290:A4 3.80391e-05
30 *151:12 *425:14 2.47727e-05
31 *151:12 *425:18 0.000286747
32 *151:12 *426:18 8.84331e-05
33 *151:12 *426:29 3.87347e-05
34 *1510:D *151:10 0
35 *1525:D *1374:A1 0.000209892
36 *1525:RN *1374:A1 0.00056918
*RES
1 *1242:ZN *151:10 15.84 
2 *151:10 *151:12 2.052 
3 *151:12 *1374:A1 13.56 
4 *151:12 *1278:A1 21.04 
5 *151:10 *1277:A1 9 
*END

*D_NET *152 0.00445433
*CONN
*I *1278:B2 I *D gf180mcu_fd_sc_mcu7t5v0__oai22_1
*I *1376:A1 I *D gf180mcu_fd_sc_mcu7t5v0__aoi21_1
*I *1243:ZN O *D gf180mcu_fd_sc_mcu7t5v0__clkinv_1
*CAP
1 *1278:B2 0.000515352
2 *1376:A1 0.000287285
3 *1243:ZN 0
4 *152:6 0.000802636
5 *1278:B2 *1278:B1 7.8255e-05
6 *1278:B2 *1358:I0 1.3493e-05
7 *1278:B2 *1358:S 0.000191263
8 *1278:B2 *1424:A1 0.000711643
9 *1278:B2 *1641:I 0.000386371
10 *1278:B2 *347:43 0
11 *1376:A1 *1358:S 0
12 *1376:A1 *1375:A2 0.000317503
13 *1376:A1 *1641:I 0.000670559
14 *1376:A1 *348:33 0.00032464
15 *1374:A1 *1278:B2 0
16 *1525:D *1278:B2 6.57222e-06
17 *1525:D *1376:A1 0.000104457
18 *1525:RN *1278:B2 4.42967e-05
*RES
1 *1243:ZN *152:6 9 
2 *152:6 *1376:A1 13.256 
3 *152:6 *1278:B2 14.092 
*END

*D_NET *153 0.00451565
*CONN
*I *1272:A1 I *D gf180mcu_fd_sc_mcu7t5v0__oai222_1
*I *1266:B2 I *D gf180mcu_fd_sc_mcu7t5v0__aoi22_1
*I *1381:A1 I *D gf180mcu_fd_sc_mcu7t5v0__oai21_1
*I *1244:ZN O *D gf180mcu_fd_sc_mcu7t5v0__clkinv_1
*CAP
1 *1272:A1 3.28034e-05
2 *1266:B2 4.59902e-05
3 *1381:A1 0.000224139
4 *1244:ZN 0
5 *153:23 0.000555649
6 *153:4 0.000700994
7 *1266:B2 *1266:A2 7.24161e-06
8 *1266:B2 *1266:B1 3.08902e-05
9 *1266:B2 *1272:A2 0.000417311
10 *1266:B2 *156:21 7.24161e-06
11 *1266:B2 *416:28 0.000106097
12 *1272:A1 *1272:A2 0
13 *1381:A1 *1244:I 5.83188e-05
14 *1381:A1 *1522:CLK 0.000422006
15 *1381:A1 *155:8 3.56141e-05
16 *1381:A1 *155:25 5.76749e-06
17 *153:23 *1263:A2 2.48822e-05
18 *153:23 *1265:A1 2.40654e-06
19 *153:23 *1271:A2 0.000464623
20 *153:23 *1272:A2 3.08902e-05
21 *153:23 *1273:A1 1.08881e-06
22 *153:23 *1273:A4 0.000453221
23 *153:23 *155:25 0
24 *153:23 *156:21 7.9075e-05
25 *153:23 *368:8 0.000627583
26 *153:23 *368:36 3.2235e-05
27 *1522:D *1381:A1 0.000149579
*RES
1 *1244:ZN *153:4 4.5 
2 *153:4 *1381:A1 6.78 
3 *153:4 *153:23 5.092 
4 *153:23 *1266:B2 5.64 
5 *153:23 *1272:A1 4.728 
*END

*D_NET *154 0.00668624
*CONN
*I *1268:B2 I *D gf180mcu_fd_sc_mcu7t5v0__aoi221_1
*I *1272:B2 I *D gf180mcu_fd_sc_mcu7t5v0__oai222_1
*I *1383:A1 I *D gf180mcu_fd_sc_mcu7t5v0__oai21_1
*I *1245:ZN O *D gf180mcu_fd_sc_mcu7t5v0__clkinv_1
*CAP
1 *1268:B2 0.000200761
2 *1272:B2 0.000162896
3 *1383:A1 0.000507419
4 *1245:ZN 0.000131169
5 *154:23 0.000965401
6 *154:6 0.00124033
7 *1268:B2 *1265:A2 8.84331e-05
8 *1268:B2 *1271:A1 0.000333388
9 *1268:B2 *1271:A2 0.0001091
10 *1268:B2 *1273:A4 2.85527e-05
11 *1268:B2 *1648:I 0
12 *1268:B2 *1649:I 0
13 *1272:B2 *1264:A2 0.000237437
14 *1272:B2 *368:8 0.000351478
15 *1272:B2 *368:36 0.00032536
16 *1383:A1 *1263:A1 5.43145e-05
17 *1383:A1 *1385:A2 0.000151728
18 *1383:A1 *1611:I 0
19 *1383:A1 *323:21 3.40956e-05
20 *1383:A1 *323:38 1.77835e-05
21 *1383:A1 *324:26 0.00047187
22 *1383:A1 *324:37 0.000193185
23 *1383:A1 *378:25 2.64841e-05
24 *154:6 *1245:I 0.000193942
25 *154:6 *1265:A1 0
26 *154:6 *1385:A2 2.98542e-05
27 *154:6 *294:7 0
28 *154:23 *1263:A1 0
29 *154:23 *1271:A2 0.000425941
30 *154:23 *1389:A1 4.02664e-05
31 *154:23 *1648:I 0
32 *154:23 *294:7 0
33 *154:23 *364:13 7.59633e-05
34 *154:23 *374:27 4.84492e-05
35 *1521:RN *154:23 8.95196e-05
36 *1572:I *1272:B2 0.000151116
*RES
1 *1245:ZN *154:6 5.488 
2 *154:6 *1383:A1 18.44 
3 *154:6 *154:23 9.668 
4 *154:23 *1272:B2 20.128 
5 *154:23 *1268:B2 10.748 
*END

*D_NET *155 0.00662679
*CONN
*I *1272:C2 I *D gf180mcu_fd_sc_mcu7t5v0__oai222_1
*I *1270:B2 I *D gf180mcu_fd_sc_mcu7t5v0__aoi221_1
*I *1386:A1 I *D gf180mcu_fd_sc_mcu7t5v0__oai21_1
*I *1246:ZN O *D gf180mcu_fd_sc_mcu7t5v0__clkinv_1
*CAP
1 *1272:C2 0.000179187
2 *1270:B2 3.76735e-05
3 *1386:A1 0.000185452
4 *1246:ZN 0.000107241
5 *155:25 0.000881877
6 *155:8 0.000957711
7 *1270:B2 *1247:I 0.000149731
8 *1270:B2 *1389:A1 0.000468562
9 *1270:B2 *1651:I 0.000759767
10 *1272:C2 *1272:B1 1.03353e-05
11 *1272:C2 *1272:C1 2.49387e-05
12 *1272:C2 *1651:I 9.17202e-06
13 *1272:C2 *418:12 1.23587e-05
14 *1386:A1 *1262:A2 7.82924e-06
15 *1386:A1 *1265:A1 0
16 *1386:A1 *1381:B 4.43253e-05
17 *1386:A1 *1386:B 0.000530811
18 *1386:A1 *378:25 0.000319277
19 *155:8 *1262:A4 0.000111858
20 *155:25 *1262:A1 0.00020108
21 *155:25 *1262:A4 6.91409e-05
22 *155:25 *1263:A1 5.87561e-06
23 *155:25 *1263:A2 0.000141888
24 *155:25 *1264:A2 2.75618e-05
25 *155:25 *1265:A1 1.3758e-05
26 *155:25 *1271:A2 4.22111e-06
27 *155:25 *1522:CLK 4.9333e-05
28 *155:25 *1651:I 2.22657e-05
29 *155:25 *374:27 0
30 *155:25 *378:25 2.79106e-05
31 *1270:A1 *1272:C2 0
32 *1381:A1 *155:8 3.56141e-05
33 *1381:A1 *155:25 5.76749e-06
34 *1520:RN *1386:A1 0.00114777
35 *1572:I *1272:C2 2.13118e-05
36 *1572:I *155:25 5.51838e-05
37 *153:23 *155:25 0
*RES
1 *1246:ZN *155:8 5.412 
2 *155:8 *1386:A1 17.528 
3 *155:8 *155:25 4.788 
4 *155:25 *1270:B2 15.856 
5 *155:25 *1272:C2 5.488 
*END

*D_NET *156 0.0066065
*CONN
*I *1266:A2 I *D gf180mcu_fd_sc_mcu7t5v0__aoi22_1
*I *1267:A2 I *D gf180mcu_fd_sc_mcu7t5v0__oai221_1
*I *1389:A1 I *D gf180mcu_fd_sc_mcu7t5v0__oai21_1
*I *1247:ZN O *D gf180mcu_fd_sc_mcu7t5v0__clkinv_1
*CAP
1 *1266:A2 6.22689e-05
2 *1267:A2 5.4926e-05
3 *1389:A1 0.000371513
4 *1247:ZN 0
5 *156:21 0.000376391
6 *156:4 0.000630709
7 *1266:A2 *416:28 0.000255722
8 *1266:A2 *420:30 7.59985e-05
9 *1267:A2 *1264:B 0
10 *1267:A2 *416:28 0.000623581
11 *1389:A1 *1247:I 0.000130647
12 *1389:A1 *1261:A3 4.58601e-06
13 *1389:A1 *1263:A1 8.55356e-05
14 *1389:A1 *1264:A2 0.000369462
15 *1389:A1 *1271:A2 0.00042292
16 *1389:A1 *1273:A4 0.000201325
17 *1389:A1 *1387:I0 8.84331e-05
18 *1389:A1 *1389:B 0.00010774
19 *1389:A1 *1651:I 0.000115041
20 *1389:A1 *374:27 0.000851356
21 *156:21 *1268:B1 7.98102e-05
22 *156:21 *1273:A1 1.5015e-05
23 *156:21 *420:30 3.85754e-05
24 *1266:B2 *1266:A2 7.24161e-06
25 *1266:B2 *156:21 7.24161e-06
26 *1270:A1 *1267:A2 0.000269865
27 *1270:B2 *1389:A1 0.000468562
28 *1517:D *1389:A1 0.000502835
29 *137:20 *1267:A2 0.000269857
30 *153:23 *156:21 7.9075e-05
31 *154:23 *1389:A1 4.02664e-05
*RES
1 *1247:ZN *156:4 4.5 
2 *156:4 *1389:A1 20.948 
3 *156:4 *156:21 1.824 
4 *156:21 *1267:A2 15.096 
5 *156:21 *1266:A2 5.336 
*END

*D_NET *157 0.00355381
*CONN
*I *1268:A2 I *D gf180mcu_fd_sc_mcu7t5v0__aoi221_1
*I *1264:A1 I *D gf180mcu_fd_sc_mcu7t5v0__aoi21_1
*I *1248:ZN O *D gf180mcu_fd_sc_mcu7t5v0__clkinv_1
*CAP
1 *1268:A2 8.32749e-05
2 *1264:A1 7.43719e-05
3 *1248:ZN 0.000199999
4 *157:12 0.000357646
5 *1264:A1 *1264:B 0.000213194
6 *1264:A1 *1267:B1 1.97166e-05
7 *1264:A1 *1273:A4 3.45906e-05
8 *1268:A2 *1264:B 0.000236987
9 *1268:A2 *1265:A2 5.81364e-05
10 *1268:A2 *1273:A2 7.43203e-06
11 *1268:A2 *1273:A4 0.000258182
12 *1268:A2 *381:27 1.5015e-05
13 *1268:A2 *416:20 1.5015e-05
14 *157:12 *1265:A2 0.00028343
15 *157:12 *1551:CLK 0
16 *157:12 *299:35 0.000551359
17 *157:12 *415:29 0.000197186
18 *157:12 *416:20 0.000124452
19 *137:14 *157:12 0.00032464
20 *137:20 *1264:A1 1.54006e-05
21 *137:20 *157:12 0.000483787
*RES
1 *1248:ZN *157:12 16.996 
2 *157:12 *1264:A1 14.336 
3 *157:12 *1268:A2 5.868 
*END

*D_NET *158 0.00245609
*CONN
*I *1391:A2 I *D gf180mcu_fd_sc_mcu7t5v0__nor3_1
*I *1249:ZN O *D gf180mcu_fd_sc_mcu7t5v0__clkinv_1
*CAP
1 *1391:A2 0.000396065
2 *1249:ZN 0.000396065
3 *1391:A2 *1394:A4 0
4 *1391:A2 *1401:A1 0.000324241
5 *1391:A2 *1402:A1 0.000362617
6 *1391:A2 *1446:I 2.77032e-05
7 *1391:A2 *1579:I 9.84322e-05
8 *1391:A2 *1650:I 0.00010503
9 *1391:A2 *261:8 0.000656367
10 *1391:A2 *261:19 7.83779e-05
11 *1391:A2 *367:47 0
12 *1554:D *1391:A2 1.11891e-05
*RES
1 *1249:ZN *1391:A2 22.256 
*END

*D_NET *159 0.00267578
*CONN
*I *1335:A2 I *D gf180mcu_fd_sc_mcu7t5v0__xor2_1
*I *1312:A2 I *D gf180mcu_fd_sc_mcu7t5v0__nor3_1
*I *1410:A2 I *D gf180mcu_fd_sc_mcu7t5v0__oai32_1
*I *1250:ZN O *D gf180mcu_fd_sc_mcu7t5v0__clkinv_1
*CAP
1 *1335:A2 0
2 *1312:A2 0
3 *1410:A2 0.000167093
4 *1250:ZN 0.000340542
5 *159:12 0.000337107
6 *159:6 0.000510557
7 *1410:A2 *1312:A1 1.97747e-05
8 *1410:A2 *1410:A3 0.000139333
9 *1410:A2 *216:24 0.000191693
10 *1410:A2 *406:45 0.000285981
11 *159:6 *1335:A1 1.75557e-05
12 *159:6 *1336:A2 3.94593e-05
13 *159:6 *1410:A3 0
14 *159:6 *1645:I 0
15 *159:6 *216:24 0
16 *159:6 *237:6 1.49066e-06
17 *159:12 *1312:A3 4.07251e-05
18 *159:12 *1335:A1 0.000584467
19 *159:12 *1413:A1 0
20 *159:12 *1415:A1 0
21 *159:12 *410:8 0
22 *1559:RN *159:6 0
*RES
1 *1250:ZN *159:6 6.4 
2 *159:6 *159:12 10.596 
3 *159:12 *1410:A2 6.628 
4 *159:12 *1312:A2 4.5 
5 *159:6 *1335:A2 4.5 
*END

*D_NET *160 0.00359073
*CONN
*I *1305:A2 I *D gf180mcu_fd_sc_mcu7t5v0__or3_1
*I *1304:A2 I *D gf180mcu_fd_sc_mcu7t5v0__nor3_1
*I *1303:A1 I *D gf180mcu_fd_sc_mcu7t5v0__nor2_1
*I *1251:ZN O *D gf180mcu_fd_sc_mcu7t5v0__clkinv_1
*CAP
1 *1305:A2 0
2 *1304:A2 0
3 *1303:A1 0.000391594
4 *1251:ZN 0.000122708
5 *160:16 0.000502187
6 *160:12 0.000233301
7 *1303:A1 *1409:B2 0
8 *1303:A1 *1564:CLK 0.000194367
9 *1303:A1 *1663:I 9.88736e-06
10 *1303:A1 *213:16 0
11 *1303:A1 *272:31 0.000770579
12 *160:12 *1305:A3 0.000378617
13 *160:12 *1316:B 5.10924e-05
14 *160:12 *1417:A1 0.000370756
15 *160:12 *210:8 2.49331e-05
16 *160:12 *233:18 2.49331e-05
17 *160:12 *312:16 1.80144e-05
18 *160:16 *1304:A1 0.000324233
19 *160:16 *1304:A3 1.81048e-05
20 *160:16 *1417:A1 0.000123838
21 *160:16 *297:29 1.77775e-05
22 *160:16 *312:16 1.38028e-05
*RES
1 *1251:ZN *160:12 10.748 
2 *160:12 *160:16 5.64 
3 *160:16 *1303:A1 8.072 
4 *160:16 *1304:A2 4.5 
5 *160:12 *1305:A2 9 
*END

*D_NET *161 0.000482028
*CONN
*I *1310:A2 I *D gf180mcu_fd_sc_mcu7t5v0__and4_1
*I *1252:ZN O *D gf180mcu_fd_sc_mcu7t5v0__clkinv_1
*CAP
1 *1310:A2 0.000126407
2 *1252:ZN 0.000126407
3 *1310:A2 *1310:A1 0.000144931
4 *1310:A2 *1310:A3 3.08902e-05
5 *1310:A2 *1547:CLK 0
6 *1310:A2 *1646:I 5.09899e-05
7 *1310:A2 *233:18 2.40328e-06
*RES
1 *1252:ZN *1310:A2 9.988 
*END

*D_NET *162 0.00130073
*CONN
*I *1408:A1 I *D gf180mcu_fd_sc_mcu7t5v0__oai22_1
*I *1253:ZN O *D gf180mcu_fd_sc_mcu7t5v0__clkinv_1
*CAP
1 *1408:A1 0.000449138
2 *1253:ZN 0.000449138
3 *1408:A1 *1408:B1 0.000124318
4 *1408:A1 *1409:A1 3.10495e-05
5 *1408:A1 *1409:A2 2.1182e-05
6 *1408:A1 *1663:I 7.88344e-05
7 *1408:A1 *270:10 6.97958e-05
8 *1408:A1 *272:31 9.88736e-06
9 *1408:A1 *373:10 6.73849e-05
10 *1545:SETN *1408:A1 0
11 *1546:D *1408:A1 0
*RES
1 *1253:ZN *1408:A1 21.116 
*END

*D_NET *163 0.00223306
*CONN
*I *1410:B2 I *D gf180mcu_fd_sc_mcu7t5v0__oai32_1
*I *1254:ZN O *D gf180mcu_fd_sc_mcu7t5v0__clkinv_1
*CAP
1 *1410:B2 0.000416922
2 *1254:ZN 0.000416922
3 *1410:B2 *1250:I 8.30371e-05
4 *1410:B2 *1410:B1 3.00299e-05
5 *1410:B2 *1569:D 0.000778325
6 *1410:B2 *1569:CLK 5.29053e-05
7 *1410:B2 *1620:I 0.000147305
8 *1410:B2 *1623:I 0.000175376
9 *1410:B2 *1631:I 0
10 *1410:B2 *337:19 3.95687e-05
11 *1562:D *1410:B2 9.26705e-05
*RES
1 *1254:ZN *1410:B2 22.332 
*END

*D_NET *164 0.000300626
*CONN
*I *1409:B2 I *D gf180mcu_fd_sc_mcu7t5v0__oai22_1
*I *1255:ZN O *D gf180mcu_fd_sc_mcu7t5v0__clkinv_1
*CAP
1 *1409:B2 7.8149e-05
2 *1255:ZN 7.8149e-05
3 *1409:B2 *1663:I 5.48085e-05
4 *1409:B2 *272:31 8.95196e-05
5 *1303:A1 *1409:B2 0
*RES
1 *1255:ZN *1409:B2 9.76 
*END

*D_NET *165 0.000740351
*CONN
*I *1408:B2 I *D gf180mcu_fd_sc_mcu7t5v0__oai22_1
*I *1256:ZN O *D gf180mcu_fd_sc_mcu7t5v0__clkinv_1
*CAP
1 *1408:B2 0.000224012
2 *1256:ZN 0.000224012
3 *1408:B2 *1255:I 0
4 *1408:B2 *1408:B1 0.000139333
5 *1408:B2 *1409:A2 0.000114788
6 *1408:B2 *1626:I 3.82054e-05
7 *1408:B2 *339:30 0
*RES
1 *1256:ZN *1408:B2 19.824 
*END

*D_NET *166 0.00172755
*CONN
*I *1295:A4 I *D gf180mcu_fd_sc_mcu7t5v0__nand4_1
*I *1293:A2 I *D gf180mcu_fd_sc_mcu7t5v0__and2_1
*I *1257:ZN O *D gf180mcu_fd_sc_mcu7t5v0__clkinv_1
*CAP
1 *1295:A4 0.000216205
2 *1293:A2 9.10402e-05
3 *1257:ZN 5.74234e-05
4 *166:6 0.000364668
5 *1293:A2 *1257:I 0.000206527
6 *1293:A2 *1295:A3 1.93308e-05
7 *1293:A2 *1577:I 0.000118643
8 *1295:A4 *1228:I 9.51114e-05
9 *1295:A4 *1272:A2 2.17248e-05
10 *1295:A4 *1295:A3 8.04139e-05
11 *1295:A4 *261:8 0
12 *1295:A4 *415:29 8.55242e-05
13 *166:6 *1257:I 8.04285e-05
14 *1572:I *1295:A4 7.15683e-05
15 *1572:I *166:6 7.31112e-05
16 *137:14 *1295:A4 0.000135135
17 *137:14 *166:6 1.07012e-05
*RES
1 *1257:ZN *166:6 5.032 
2 *166:6 *1293:A2 14.64 
3 *166:6 *1295:A4 7.084 
*END

*D_NET *167 0.00704327
*CONN
*I *1430:A1 I *D gf180mcu_fd_sc_mcu7t5v0__nor2_1
*I *1275:A2 I *D gf180mcu_fd_sc_mcu7t5v0__nand2_1
*I *1274:A2 I *D gf180mcu_fd_sc_mcu7t5v0__oai22_1
*I *1431:A1 I *D gf180mcu_fd_sc_mcu7t5v0__and2_1
*I *1258:ZN O *D gf180mcu_fd_sc_mcu7t5v0__clkinv_1
*CAP
1 *1430:A1 0.000242002
2 *1275:A2 0.000120483
3 *1274:A2 0
4 *1431:A1 8.00136e-05
5 *1258:ZN 0.000170677
6 *167:31 0.000460919
7 *167:10 0.000589777
8 *167:8 0.000582006
9 *1275:A2 *1240:I 2.39679e-05
10 *1275:A2 *1274:B1 5.76063e-06
11 *1275:A2 *1276:A2 0.000185122
12 *1275:A2 *1287:A2 7.83779e-05
13 *1275:A2 *182:12 8.8425e-05
14 *1275:A2 *385:28 0.000197892
15 *1430:A1 *1430:A2 6.85351e-05
16 *1430:A1 *1432:A3 0.000316029
17 *1430:A1 *1432:A4 1.97992e-05
18 *1430:A1 *313:27 0
19 *1431:A1 *282:8 4.39988e-05
20 *1431:A1 *306:6 0.000474992
21 *1431:A1 *335:20 0.000209093
22 *167:8 *1279:A2 0.000128852
23 *167:8 *1432:A2 5.96894e-05
24 *167:8 *1638:I 6.53153e-05
25 *167:10 *1279:A2 8.05328e-06
26 *167:10 *1430:A2 7.69927e-05
27 *167:10 *1432:A2 2.59502e-05
28 *167:10 *282:21 2.41778e-05
29 *167:10 *335:44 0.000179003
30 *167:31 *1274:A1 3.2657e-05
31 *167:31 *1274:B1 1.56844e-05
32 *167:31 *1280:B 0.000507943
33 *167:31 *1287:A2 0.000220473
34 *167:31 *1428:A1 0.000332881
35 *167:31 *1428:A2 4.15887e-05
36 *167:31 *1429:A3 0.000290354
37 *167:31 *282:21 0.000115775
38 *167:31 *335:26 0.000190361
39 *167:31 *335:44 8.59272e-06
40 *1511:D *1430:A1 7.60086e-05
41 *1511:D *167:8 0.000406051
42 *1511:D *167:10 0.000278996
*RES
1 *1258:ZN *167:8 11.204 
2 *167:8 *167:10 1.748 
3 *167:10 *1431:A1 10.292 
4 *167:10 *167:31 8.984 
5 *167:31 *1274:A2 4.5 
6 *167:31 *1275:A2 15.172 
7 *167:8 *1430:A1 11.356 
*END

*D_NET *168 0.00512555
*CONN
*I *1427:A1 I *D gf180mcu_fd_sc_mcu7t5v0__nand2_1
*I *1274:B1 I *D gf180mcu_fd_sc_mcu7t5v0__oai22_1
*I *1259:ZN O *D gf180mcu_fd_sc_mcu7t5v0__clkinv_1
*CAP
1 *1427:A1 2.18627e-05
2 *1274:B1 0.000307375
3 *1259:ZN 0.000543902
4 *168:14 0.00087314
5 *1274:B1 *1274:A1 1.93526e-05
6 *1274:B1 *1274:B2 0.00114006
7 *1274:B1 *1287:A2 4.2318e-06
8 *1274:B1 *1428:A1 2.05156e-05
9 *1274:B1 *1428:A2 0.00052013
10 *1274:B1 *1481:I 1.97747e-05
11 *1427:A1 *1280:B 0
12 *1427:A1 *1427:A2 1.91917e-06
13 *168:14 *1242:I 0.000368173
14 *168:14 *1259:I 0.000238526
15 *168:14 *1280:A1 6.42261e-05
16 *168:14 *1427:A2 0.000569392
17 *168:14 *1481:I 1.1425e-05
18 *168:14 *282:8 1.60094e-05
19 *168:14 *313:35 0.000364085
20 *1275:A2 *1274:B1 5.76063e-06
21 *1508:D *168:14 0
22 *167:31 *1274:B1 1.56844e-05
*RES
1 *1259:ZN *168:14 18.592 
2 *168:14 *1274:B1 8.528 
3 *168:14 *1427:A1 4.728 
*END

*D_NET *169 0.00282185
*CONN
*I *1263:A1 I *D gf180mcu_fd_sc_mcu7t5v0__nand2_1
*I *1261:ZN O *D gf180mcu_fd_sc_mcu7t5v0__nor3_1
*CAP
1 *1263:A1 0.000790708
2 *1261:ZN 0.000790708
3 *1263:A1 *1245:I 0
4 *1263:A1 *1261:A3 1.91917e-06
5 *1263:A1 *1262:A2 0
6 *1263:A1 *1263:A2 9.88736e-06
7 *1263:A1 *1264:A2 9.88736e-06
8 *1263:A1 *1265:A1 0
9 *1263:A1 *1387:I0 2.6126e-05
10 *1263:A1 *1648:I 0.000324241
11 *1263:A1 *294:7 0.000136175
12 *1263:A1 *294:97 7.77575e-05
13 *1263:A1 *368:8 5.87561e-06
14 *1383:A1 *1263:A1 5.43145e-05
15 *1389:A1 *1263:A1 8.55356e-05
16 *1517:D *1263:A1 0.000502835
17 *154:23 *1263:A1 0
18 *155:25 *1263:A1 5.87561e-06
*RES
1 *1261:ZN *1263:A1 24.308 
*END

*D_NET *170 0.000418056
*CONN
*I *1263:A2 I *D gf180mcu_fd_sc_mcu7t5v0__nand2_1
*I *1262:ZN O *D gf180mcu_fd_sc_mcu7t5v0__nor4_1
*CAP
1 *1263:A2 0.000120699
2 *1262:ZN 0.000120699
3 *1263:A1 *1263:A2 9.88736e-06
4 *153:23 *1263:A2 2.48822e-05
5 *155:25 *1263:A2 0.000141888
*RES
1 *1262:ZN *1263:A2 10.064 
*END

*D_NET *171 0.00185315
*CONN
*I *1264:A2 I *D gf180mcu_fd_sc_mcu7t5v0__aoi21_1
*I *1263:ZN O *D gf180mcu_fd_sc_mcu7t5v0__nand2_1
*CAP
1 *1264:A2 0.000270349
2 *1263:ZN 0.000270349
3 *1264:A2 *1247:I 0.000130247
4 *1264:A2 *1272:B1 5.69191e-05
5 *1264:A2 *1273:A4 8.61081e-05
6 *1264:A2 *368:8 0.000244438
7 *1263:A1 *1264:A2 9.88736e-06
8 *1272:B2 *1264:A2 0.000237437
9 *1389:A1 *1264:A2 0.000369462
10 *1572:I *1264:A2 0.000150391
11 *155:25 *1264:A2 2.75618e-05
*RES
1 *1263:ZN *1264:A2 21.496 
*END

*D_NET *172 0.00217433
*CONN
*I *1273:A1 I *D gf180mcu_fd_sc_mcu7t5v0__nor4_1
*I *1264:ZN O *D gf180mcu_fd_sc_mcu7t5v0__aoi21_1
*CAP
1 *1273:A1 0.000345746
2 *1264:ZN 0.000345746
3 *1273:A1 *1265:A1 1.5015e-05
4 *1273:A1 *1265:A2 0.000442721
5 *1273:A1 *1268:B1 0.000144867
6 *1273:A1 *1271:A1 0.000147793
7 *1273:A1 *1271:A2 4.10278e-06
8 *1273:A1 *1649:I 0.000712235
9 *153:23 *1273:A1 1.08881e-06
10 *156:21 *1273:A1 1.5015e-05
*RES
1 *1264:ZN *1273:A1 21.648 
*END

*D_NET *173 0.00060239
*CONN
*I *1268:C I *D gf180mcu_fd_sc_mcu7t5v0__aoi221_1
*I *1265:Z O *D gf180mcu_fd_sc_mcu7t5v0__xor2_1
*CAP
1 *1268:C 0.000132729
2 *1265:Z 0.000132729
3 *1268:C *1265:A2 0.00026286
4 *1268:C *1268:B1 2.88187e-05
5 *1268:C *1273:A4 4.01113e-05
6 *1268:C *381:27 5.14116e-06
*RES
1 *1265:Z *1268:C 10.368 
*END

*D_NET *174 0.00133046
*CONN
*I *1267:C I *D gf180mcu_fd_sc_mcu7t5v0__oai221_1
*I *1266:ZN O *D gf180mcu_fd_sc_mcu7t5v0__aoi22_1
*CAP
1 *1267:C 0.000177297
2 *1266:ZN 0.000177297
3 *1267:C *1265:A2 0.000433917
4 *1267:C *415:29 6.01476e-05
5 *1267:C *416:28 0
6 *1267:C *421:37 4.78829e-05
7 *137:14 *1267:C 5.4634e-05
8 *137:20 *1267:C 0.000379283
*RES
1 *1266:ZN *1267:C 20.28 
*END

*D_NET *175 0.00185324
*CONN
*I *1273:A2 I *D gf180mcu_fd_sc_mcu7t5v0__nor4_1
*I *1267:ZN O *D gf180mcu_fd_sc_mcu7t5v0__oai221_1
*CAP
1 *1273:A2 0.000186031
2 *1267:ZN 0.000186031
3 *1273:A2 *1264:B 0.000315174
4 *1273:A2 *1299:A1 0.00032464
5 *1273:A2 *1621:I 0.000161509
6 *1273:A2 *381:27 0.000286002
7 *1273:A2 *416:20 0.000386421
8 *1268:A2 *1273:A2 7.43203e-06
*RES
1 *1267:ZN *1273:A2 12.192 
*END

*D_NET *176 0.00199782
*CONN
*I *1271:A1 I *D gf180mcu_fd_sc_mcu7t5v0__nand2_1
*I *1268:ZN O *D gf180mcu_fd_sc_mcu7t5v0__aoi221_1
*CAP
1 *1271:A1 0.000177064
2 *1268:ZN 0.000177064
3 *1271:A1 *1265:A1 0.000326292
4 *1271:A1 *1265:A2 9.57657e-05
5 *1271:A1 *1271:A2 0.000495332
6 *1271:A1 *1273:A4 0.000245117
7 *1268:B2 *1271:A1 0.000333388
8 *1273:A1 *1271:A1 0.000147793
*RES
1 *1268:ZN *1271:A1 21.8 
*END

*D_NET *177 0.00160532
*CONN
*I *1270:C I *D gf180mcu_fd_sc_mcu7t5v0__aoi221_1
*I *1269:Z O *D gf180mcu_fd_sc_mcu7t5v0__xor2_1
*CAP
1 *1270:C 0.000571571
2 *1269:Z 0.000571571
3 *1270:C *1267:B1 3.95805e-05
4 *1270:C *1270:B1 0.000127484
5 *1270:C *1471:I 0
6 *1270:C *298:10 3.73627e-05
7 *1270:C *364:13 0.000246228
8 *1270:C *418:12 0
9 *1270:A1 *1270:C 1.15275e-05
*RES
1 *1269:Z *1270:C 13.104 
*END

*D_NET *178 0.00285116
*CONN
*I *1271:A2 I *D gf180mcu_fd_sc_mcu7t5v0__nand2_1
*I *1270:ZN O *D gf180mcu_fd_sc_mcu7t5v0__aoi221_1
*CAP
1 *1271:A2 0.000371705
2 *1270:ZN 0.000371705
3 *1271:A2 *1265:A1 3.00299e-05
4 *1271:A2 *1273:A4 0.000140658
5 *1271:A2 *364:13 0
6 *1271:A2 *374:27 1.08266e-05
7 *1268:B2 *1271:A2 0.0001091
8 *1271:A1 *1271:A2 0.000495332
9 *1273:A1 *1271:A2 4.10278e-06
10 *1389:A1 *1271:A2 0.00042292
11 *153:23 *1271:A2 0.000464623
12 *154:23 *1271:A2 0.000425941
13 *155:25 *1271:A2 4.22111e-06
*RES
1 *1270:ZN *1271:A2 23.7 
*END

*D_NET *179 0.00103371
*CONN
*I *1273:A3 I *D gf180mcu_fd_sc_mcu7t5v0__nor4_1
*I *1271:ZN O *D gf180mcu_fd_sc_mcu7t5v0__nand2_1
*CAP
1 *1273:A3 0.000140749
2 *1271:ZN 0.000140749
3 *1273:A3 *1265:A1 0
4 *1273:A3 *1265:A2 7.45328e-07
5 *1273:A3 *1522:CLK 0.000303258
6 *1273:A3 *1649:I 0.000147377
7 *1273:A3 *381:27 0.000300828
*RES
1 *1271:ZN *1273:A3 20.28 
*END

*D_NET *180 0.00318199
*CONN
*I *1273:A4 I *D gf180mcu_fd_sc_mcu7t5v0__nor4_1
*I *1272:ZN O *D gf180mcu_fd_sc_mcu7t5v0__oai222_1
*CAP
1 *1273:A4 0.000327117
2 *1272:ZN 0.000327117
3 *1273:A4 *1264:B 8.93946e-05
4 *1273:A4 *1265:A2 0.000268315
5 *1273:A4 *1267:B1 0
6 *1273:A4 *1272:B1 5.85165e-06
7 *1273:A4 *368:8 0.000246139
8 *1273:A4 *368:36 0.000239827
9 *1273:A4 *381:27 0.000190359
10 *1264:A1 *1273:A4 3.45906e-05
11 *1264:A2 *1273:A4 8.61081e-05
12 *1268:A2 *1273:A4 0.000258182
13 *1268:B2 *1273:A4 2.85527e-05
14 *1268:C *1273:A4 4.01113e-05
15 *1271:A1 *1273:A4 0.000245117
16 *1271:A2 *1273:A4 0.000140658
17 *1389:A1 *1273:A4 0.000201325
18 *153:23 *1273:A4 0.000453221
*RES
1 *1272:ZN *1273:A4 23.168 
*END

*D_NET *181 0.00606977
*CONN
*I *1609:I I *D gf180mcu_fd_sc_mcu7t5v0__dlyb_1
*I *1273:ZN O *D gf180mcu_fd_sc_mcu7t5v0__nor4_1
*CAP
1 *1609:I 0.00144272
2 *1273:ZN 0.00144272
3 *1609:I *1448:I 7.49908e-05
4 *1609:I *1522:CLK 4.60055e-05
5 *1609:I *1552:CLK 0.0010386
6 *1609:I *1558:CLK 0.000665988
7 *1609:I *1649:I 0.000657859
8 *1609:I *316:25 0
9 *1609:I *316:42 0
10 *1609:I *365:10 0.00020334
11 *1609:I *365:23 6.41092e-05
12 *1609:I *380:8 0
13 *1609:I *415:12 0.000255714
14 *1552:RN *1609:I 0.000177718
*RES
1 *1273:ZN *1609:I 31.604 
*END

*D_NET *182 0.00265839
*CONN
*I *1276:A1 I *D gf180mcu_fd_sc_mcu7t5v0__and2_1
*I *1280:C I *D gf180mcu_fd_sc_mcu7t5v0__aoi211_1
*I *1274:ZN O *D gf180mcu_fd_sc_mcu7t5v0__oai22_1
*CAP
1 *1276:A1 0
2 *1280:C 0.000180679
3 *1274:ZN 0.000171756
4 *182:12 0.000352435
5 *1280:C *1276:A2 1.5015e-05
6 *1280:C *1280:B 0.000247809
7 *1280:C *1287:A2 0
8 *1280:C *282:8 0.00063813
9 *1280:C *335:20 2.44238e-05
10 *182:12 *1240:I 0.000634485
11 *182:12 *1276:A2 0.000163461
12 *182:12 *1598:I 0.000126956
13 *182:12 *335:20 1.48117e-05
14 *1275:A2 *182:12 8.8425e-05
*RES
1 *1274:ZN *182:12 15.932 
2 *182:12 *1280:C 6.704 
3 *182:12 *1276:A1 4.5 
*END

*D_NET *183 0.00185597
*CONN
*I *1276:A2 I *D gf180mcu_fd_sc_mcu7t5v0__and2_1
*I *1275:ZN O *D gf180mcu_fd_sc_mcu7t5v0__nand2_1
*CAP
1 *1276:A2 0.000356614
2 *1275:ZN 0.000356614
3 *1276:A2 *1287:A1 0.000562211
4 *1276:A2 *1287:A2 9.3697e-06
5 *1276:A2 *1287:B 8.10997e-06
6 *1276:A2 *1292:A1 0.000104693
7 *1276:A2 *1598:I 7.2647e-05
8 *1276:A2 *1607:I 0
9 *1276:A2 *335:20 0
10 *1276:A2 *385:10 3.16765e-06
11 *1276:A2 *385:28 7.33934e-06
12 *1276:A2 *429:18 4.97386e-06
13 *1276:A2 *429:29 6.63508e-06
14 *1275:A2 *1276:A2 0.000185122
15 *1280:C *1276:A2 1.5015e-05
16 *182:12 *1276:A2 0.000163461
*RES
1 *1275:ZN *1276:A2 22.104 
*END

*D_NET *184 0.00157988
*CONN
*I *1287:A1 I *D gf180mcu_fd_sc_mcu7t5v0__oai211_1
*I *1276:Z O *D gf180mcu_fd_sc_mcu7t5v0__and2_1
*CAP
1 *1287:A1 0.000391997
2 *1276:Z 0.000391997
3 *1287:A1 *1283:A2 0
4 *1287:A1 *1287:A2 0.00015847
5 *1287:A1 *1287:B 6.74911e-05
6 *1287:A1 *1287:C 7.71175e-06
7 *1287:A1 *1484:I 0
8 *1276:A2 *1287:A1 0.000562211
*RES
1 *1276:Z *1287:A1 21.268 
*END

*D_NET *185 0.0018688
*CONN
*I *1280:A1 I *D gf180mcu_fd_sc_mcu7t5v0__aoi211_1
*I *1277:ZN O *D gf180mcu_fd_sc_mcu7t5v0__nand2_1
*CAP
1 *1280:A1 0.000319475
2 *1277:ZN 0.000319475
3 *1280:A1 *1280:B 3.08902e-05
4 *1280:A1 *1427:A2 6.23053e-05
5 *1280:A1 *1481:I 9.69896e-06
6 *1280:A1 *1508:CLK 0.000520688
7 *1280:A1 *282:8 3.49925e-05
8 *1280:A1 *313:35 0.000204693
9 *1508:D *1280:A1 0.00030236
10 *168:14 *1280:A1 6.42261e-05
*RES
1 *1277:ZN *1280:A1 21.268 
*END

*D_NET *186 0.00284463
*CONN
*I *1280:A2 I *D gf180mcu_fd_sc_mcu7t5v0__aoi211_1
*I *1278:ZN O *D gf180mcu_fd_sc_mcu7t5v0__oai22_1
*CAP
1 *1280:A2 0.000254004
2 *1278:ZN 0.000254004
3 *1280:A2 *1242:I 0.00105611
4 *1280:A2 *1274:B2 0.000342282
5 *1280:A2 *1429:A3 0.000134113
6 *1280:A2 *1638:I 0.000102943
7 *1280:A2 *383:14 0.000150279
8 *1280:A2 *384:19 0.000550894
*RES
1 *1278:ZN *1280:A2 21.876 
*END

*D_NET *187 0.00261035
*CONN
*I *1280:B I *D gf180mcu_fd_sc_mcu7t5v0__aoi211_1
*I *1279:ZN O *D gf180mcu_fd_sc_mcu7t5v0__oai22_1
*CAP
1 *1280:B 0.000387309
2 *1279:ZN 0.000387309
3 *1280:B *1274:B2 3.98828e-05
4 *1280:B *1279:A2 0.000217233
5 *1280:B *1287:A2 2.31998e-05
6 *1280:B *1290:A1 9.14686e-05
7 *1280:B *1428:A1 0.000552731
8 *1280:B *1584:I 0.000104777
9 *1280:B *294:19 1.00624e-05
10 *1280:B *335:26 6.57222e-06
11 *1280:A1 *1280:B 3.08902e-05
12 *1280:C *1280:B 0.000247809
13 *1427:A1 *1280:B 0
14 *149:8 *1280:B 3.16049e-06
15 *167:31 *1280:B 0.000507943
*RES
1 *1279:ZN *1280:B 22.712 
*END

*D_NET *188 0.00248393
*CONN
*I *1287:A2 I *D gf180mcu_fd_sc_mcu7t5v0__oai211_1
*I *1280:ZN O *D gf180mcu_fd_sc_mcu7t5v0__aoi211_1
*CAP
1 *1287:A2 0.000611042
2 *1280:ZN 0.000611042
3 *1287:A2 *1283:A2 2.57058e-06
4 *1287:A2 *1289:B 1.02578e-05
5 *1287:A2 *1427:A2 7.50749e-05
6 *1287:A2 *1429:A3 0.000679821
7 *1274:B1 *1287:A2 4.2318e-06
8 *1275:A2 *1287:A2 7.83779e-05
9 *1276:A2 *1287:A2 9.3697e-06
10 *1280:B *1287:A2 2.31998e-05
11 *1280:C *1287:A2 0
12 *1287:A1 *1287:A2 0.00015847
13 *167:31 *1287:A2 0.000220473
*RES
1 *1280:ZN *1287:A2 14.092 
*END

*D_NET *189 0.00334275
*CONN
*I *1283:A1 I *D gf180mcu_fd_sc_mcu7t5v0__and2_1
*I *1288:B I *D gf180mcu_fd_sc_mcu7t5v0__oai21_1
*I *1281:ZN O *D gf180mcu_fd_sc_mcu7t5v0__aoi22_1
*CAP
1 *1283:A1 0.000135301
2 *1288:B 0
3 *1281:ZN 0.000458264
4 *189:10 0.000593565
5 *1283:A1 *1283:A2 0.00011528
6 *1283:A1 *1435:A1 0.000169363
7 *1283:A1 *429:29 2.05156e-05
8 *189:10 *1281:A2 0.000396056
9 *189:10 *1282:A2 0
10 *189:10 *1283:A2 3.08902e-05
11 *189:10 *1284:A2 0.000880222
12 *189:10 *1442:A2 3.81285e-05
13 *189:10 *1621:I 0
14 *189:10 *190:14 5.53822e-05
15 *189:10 *192:10 9.5347e-05
16 *189:10 *429:29 2.88466e-05
17 *189:10 *432:34 8.55327e-05
18 *1282:B2 *189:10 0.000240057
19 *1284:B2 *189:10 0
*RES
1 *1281:ZN *189:10 10.048 
2 *189:10 *1288:B 4.5 
3 *189:10 *1283:A1 6.02 
*END

*D_NET *190 0.00259959
*CONN
*I *1283:A2 I *D gf180mcu_fd_sc_mcu7t5v0__and2_1
*I *1288:A1 I *D gf180mcu_fd_sc_mcu7t5v0__oai21_1
*I *1282:ZN O *D gf180mcu_fd_sc_mcu7t5v0__aoi22_1
*CAP
1 *1283:A2 0.000207505
2 *1288:A1 0
3 *1282:ZN 0.000213612
4 *190:14 0.000421117
5 *1283:A2 *1289:B 3.64183e-05
6 *1283:A2 *192:10 1.95806e-05
7 *190:14 *1282:B1 0.000307983
8 *190:14 *1285:B1 3.06951e-05
9 *190:14 *1607:I 0
10 *190:14 *1621:I 1.23313e-05
11 *190:14 *192:10 0.000112765
12 *190:14 *287:27 1.53758e-05
13 *190:14 *335:12 0.000297939
14 *190:14 *429:29 0.000187314
15 *1282:A1 *190:14 0.000193942
16 *1282:B2 *190:14 0.000317948
17 *1283:A1 *1283:A2 0.00011528
18 *1287:A1 *1283:A2 0
19 *1287:A2 *1283:A2 2.57058e-06
20 *1512:D *190:14 2.09451e-05
21 *189:10 *1283:A2 3.08902e-05
22 *189:10 *190:14 5.53822e-05
*RES
1 *1282:ZN *190:14 16.768 
2 *190:14 *1288:A1 4.5 
3 *190:14 *1283:A2 6.248 
*END

*D_NET *191 0.000926136
*CONN
*I *1287:B I *D gf180mcu_fd_sc_mcu7t5v0__oai211_1
*I *1283:Z O *D gf180mcu_fd_sc_mcu7t5v0__and2_1
*CAP
1 *1287:B 0.000120119
2 *1283:Z 0.000120119
3 *1287:B *1292:A1 1.5961e-05
4 *1287:B *1607:I 0.000594335
5 *1276:A2 *1287:B 8.10997e-06
6 *1287:A1 *1287:B 6.74911e-05
*RES
1 *1283:Z *1287:B 19.444 
*END

*D_NET *192 0.00187667
*CONN
*I *1288:A2 I *D gf180mcu_fd_sc_mcu7t5v0__oai21_1
*I *1286:A1 I *D gf180mcu_fd_sc_mcu7t5v0__nor2_1
*I *1284:ZN O *D gf180mcu_fd_sc_mcu7t5v0__oai22_1
*CAP
1 *1288:A2 0
2 *1286:A1 8.9741e-05
3 *1284:ZN 0.000316154
4 *192:10 0.000405895
5 *1286:A1 *1292:A2 0.000175514
6 *1286:A1 *1607:I 0.000157493
7 *192:10 *1289:B 9.35186e-05
8 *1281:B2 *192:10 7.71175e-06
9 *1282:B2 *1286:A1 4.06678e-05
10 *1283:A2 *192:10 1.95806e-05
11 *1284:B2 *192:10 2.40935e-05
12 *1285:B2 *192:10 2.14834e-05
13 *1289:A1 *192:10 0
14 *145:6 *192:10 0
15 *148:25 *1286:A1 0.000284188
16 *148:25 *192:10 3.25219e-05
17 *189:10 *192:10 9.5347e-05
18 *190:14 *192:10 0.000112765
*RES
1 *1284:ZN *192:10 7.16 
2 *192:10 *1286:A1 15.552 
3 *192:10 *1288:A2 4.5 
*END

*D_NET *193 0.000520767
*CONN
*I *1286:A2 I *D gf180mcu_fd_sc_mcu7t5v0__nor2_1
*I *1285:ZN O *D gf180mcu_fd_sc_mcu7t5v0__oai22_1
*CAP
1 *1286:A2 8.05076e-05
2 *1285:ZN 8.05076e-05
3 *1286:A2 *1289:A2 0.000306486
4 *1289:A1 *1286:A2 5.3266e-05
*RES
1 *1285:ZN *1286:A2 10.064 
*END

*D_NET *194 0.000438587
*CONN
*I *1287:C I *D gf180mcu_fd_sc_mcu7t5v0__oai211_1
*I *1286:ZN O *D gf180mcu_fd_sc_mcu7t5v0__nor2_1
*CAP
1 *1287:C 0.000144951
2 *1286:ZN 0.000144951
3 *1287:C *1289:A2 0
4 *1287:C *1292:A2 1.0392e-05
5 *1287:C *1484:I 0.00013058
6 *1287:A1 *1287:C 7.71175e-06
*RES
1 *1286:ZN *1287:C 10.064 
*END

*D_NET *195 0.000764566
*CONN
*I *1292:A1 I *D gf180mcu_fd_sc_mcu7t5v0__aoi22_1
*I *1287:ZN O *D gf180mcu_fd_sc_mcu7t5v0__oai211_1
*CAP
1 *1292:A1 0.000163441
2 *1287:ZN 0.000163441
3 *1292:A1 *1292:B1 3.07734e-05
4 *1292:A1 *1481:I 3.73627e-05
5 *1292:A1 *1484:I 4.04248e-05
6 *1292:A1 *1607:I 0.00020847
7 *1292:A1 *385:10 0
8 *1276:A2 *1292:A1 0.000104693
9 *1287:B *1292:A1 1.5961e-05
*RES
1 *1287:ZN *1292:A1 19.976 
*END

*D_NET *196 0.000628154
*CONN
*I *1289:B I *D gf180mcu_fd_sc_mcu7t5v0__oai21_1
*I *1288:ZN O *D gf180mcu_fd_sc_mcu7t5v0__oai21_1
*CAP
1 *1289:B 0.00023384
2 *1288:ZN 0.00023384
3 *1289:B *1292:A2 1.0392e-05
4 *1283:A2 *1289:B 3.64183e-05
5 *1287:A2 *1289:B 1.02578e-05
6 *148:25 *1289:B 9.88736e-06
7 *192:10 *1289:B 9.35186e-05
*RES
1 *1288:ZN *1289:B 10.596 
*END

*D_NET *197 0.00132614
*CONN
*I *1292:A2 I *D gf180mcu_fd_sc_mcu7t5v0__aoi22_1
*I *1289:ZN O *D gf180mcu_fd_sc_mcu7t5v0__oai21_1
*CAP
1 *1292:A2 0.000192084
2 *1289:ZN 0.000192084
3 *1292:A2 *1292:B2 1.33547e-05
4 *1292:A2 *1481:I 7.32209e-05
5 *1292:A2 *1607:I 0.000623565
6 *1286:A1 *1292:A2 0.000175514
7 *1287:C *1292:A2 1.0392e-05
8 *1289:B *1292:A2 1.0392e-05
9 *148:25 *1292:A2 3.55377e-05
*RES
1 *1289:ZN *1292:A2 20.204 
*END

*D_NET *198 0.00214935
*CONN
*I *1292:B1 I *D gf180mcu_fd_sc_mcu7t5v0__aoi22_1
*I *1290:ZN O *D gf180mcu_fd_sc_mcu7t5v0__nor4_1
*CAP
1 *1292:B1 0.000513709
2 *1290:ZN 0.000513709
3 *1292:B1 *1369:A2 3.83835e-06
4 *1292:B1 *1481:I 0.000572096
5 *1292:B1 *1509:CLK 8.06248e-05
6 *1292:B1 *1597:I 0
7 *1292:B1 *1637:I 8.04139e-05
8 *1292:B1 *385:10 2.79132e-05
9 *1292:A1 *1292:B1 3.07734e-05
10 *1527:RN *1292:B1 0.000326276
*RES
1 *1290:ZN *1292:B1 14.016 
*END

*D_NET *199 0.000464795
*CONN
*I *1292:B2 I *D gf180mcu_fd_sc_mcu7t5v0__aoi22_1
*I *1291:ZN O *D gf180mcu_fd_sc_mcu7t5v0__nor4_1
*CAP
1 *1292:B2 7.59351e-05
2 *1291:ZN 7.59351e-05
3 *1292:B2 *1481:I 1.38267e-05
4 *1292:A2 *1292:B2 1.33547e-05
5 *1527:RN *1292:B2 0.000255714
6 *1530:RN *1292:B2 3.00299e-05
*RES
1 *1291:ZN *1292:B2 9.836 
*END

*D_NET *200 0.00408399
*CONN
*I *1607:I I *D gf180mcu_fd_sc_mcu7t5v0__dlyb_1
*I *1292:ZN O *D gf180mcu_fd_sc_mcu7t5v0__aoi22_1
*CAP
1 *1607:I 0.000661141
2 *1292:ZN 0.000661141
3 *1607:I *1433:A2 0
4 *1607:I *1435:A1 0.000317373
5 *1607:I *1435:A4 1.26706e-05
6 *1607:I *1484:I 0
7 *1607:I *1598:I 0
8 *1607:I *1603:I 0
9 *1607:I *287:27 7.7589e-05
10 *1607:I *313:10 0.000623612
11 *1607:I *317:13 0
12 *1276:A2 *1607:I 0
13 *1282:B2 *1607:I 0
14 *1286:A1 *1607:I 0.000157493
15 *1287:B *1607:I 0.000594335
16 *1292:A1 *1607:I 0.00020847
17 *1292:A2 *1607:I 0.000623565
18 *1512:D *1607:I 0.000117335
19 *1527:RN *1607:I 1.12495e-05
20 *148:25 *1607:I 1.80144e-05
21 *190:14 *1607:I 0
*RES
1 *1292:ZN *1607:I 25.904 
*END

*D_NET *201 0.0111051
*CONN
*I *1622:I I *D gf180mcu_fd_sc_mcu7t5v0__dlyb_1
*I *1621:I I *D gf180mcu_fd_sc_mcu7t5v0__dlyb_1
*I *1293:Z O *D gf180mcu_fd_sc_mcu7t5v0__and2_1
*CAP
1 *1622:I 0
2 *1621:I 0.00118323
3 *1293:Z 0.000686428
4 *201:14 0.00186966
5 *1621:I *1282:A2 8.55242e-05
6 *1621:I *1299:A1 9.58397e-05
7 *1621:I *1442:A2 2.90501e-05
8 *1621:I *1515:CLK 0.000431535
9 *1621:I *1551:CLK 0.000203975
10 *1621:I *1608:I 0
11 *1621:I *1640:I 0.00194239
12 *1621:I *287:27 0.000386421
13 *1621:I *299:35 0
14 *1621:I *308:6 8.55327e-05
15 *1621:I *308:26 0.000368152
16 *1621:I *308:35 0.00168109
17 *1621:I *381:27 0
18 *1621:I *416:20 2.57058e-06
19 *201:14 *1248:I 1.15275e-05
20 *201:14 *1257:I 0
21 *201:14 *1295:A3 0.000313511
22 *201:14 *1301:A2 9.60518e-06
23 *201:14 *1302:A3 0.000142019
24 *201:14 *1395:A1 3.13603e-05
25 *201:14 *1566:CLK 9.4254e-05
26 *201:14 *1577:I 6.21314e-05
27 *201:14 *294:171 1.93526e-05
28 *201:14 *299:35 0
29 *201:14 *415:29 0.000151697
30 *201:14 *420:30 0
31 *1273:A2 *1621:I 0.000161509
32 *1282:A1 *1621:I 4.63109e-05
33 *1282:B2 *1621:I 0
34 *1514:D *1621:I 0
35 *1551:D *1621:I 0.000109625
36 *1551:D *201:14 0.000196853
37 *1552:RN *1621:I 6.44359e-05
38 *1572:I *201:14 3.2657e-05
39 *137:14 *201:14 0.000594557
40 *189:10 *1621:I 0
41 *190:14 *1621:I 1.23313e-05
*RES
1 *1293:Z *201:14 19.96 
2 *201:14 *1621:I 18.408 
3 *201:14 *1622:I 4.5 
*END

*D_NET *202 0.00305242
*CONN
*I *1299:A2 I *D gf180mcu_fd_sc_mcu7t5v0__xor2_1
*I *1294:ZN O *D gf180mcu_fd_sc_mcu7t5v0__nand2_1
*CAP
1 *1299:A2 0.000462814
2 *1294:ZN 0.000462814
3 *1299:A2 *1300:A1 0.000399191
4 *1299:A2 *1300:A3 0.00128396
5 *1299:A2 *299:35 0
6 *1299:A2 *299:48 0
7 *1299:A2 *316:25 1.3758e-05
8 *1299:A2 *316:42 0.00038839
9 *1299:A2 *318:6 2.23598e-06
10 *1299:A2 *318:19 3.92653e-05
*RES
1 *1294:ZN *1299:A2 23.32 
*END

*D_NET *203 0.00527211
*CONN
*I *1296:A2 I *D gf180mcu_fd_sc_mcu7t5v0__nor2_1
*I *1297:A2 I *D gf180mcu_fd_sc_mcu7t5v0__and2_1
*I *1391:A3 I *D gf180mcu_fd_sc_mcu7t5v0__nor3_1
*I *1295:ZN O *D gf180mcu_fd_sc_mcu7t5v0__nand4_1
*CAP
1 *1296:A2 0.000246981
2 *1297:A2 8.75807e-05
3 *1391:A3 0.000333649
4 *1295:ZN 0.000262467
5 *203:26 0.000405744
6 *1296:A2 *1298:A2 3.78032e-05
7 *1296:A2 *1298:A3 7.52295e-05
8 *1296:A2 *1444:I1 0
9 *1296:A2 *204:10 7.09389e-05
10 *1296:A2 *316:57 5.87561e-06
11 *1296:A2 *418:12 4.52251e-05
12 *1297:A2 *1298:A4 5.83518e-05
13 *1297:A2 *316:57 5.87561e-06
14 *1297:A2 *418:12 1.76898e-05
15 *1391:A3 *1228:I 0.000630043
16 *1391:A3 *1579:I 0
17 *1391:A3 *261:8 3.14479e-05
18 *1391:A3 *421:37 0.000857495
19 *203:26 *1298:A2 1.94858e-05
20 *203:26 *1298:A3 8.84331e-05
21 *203:26 *1447:I 8.34666e-05
22 *203:26 *319:29 0.000511331
23 *1297:A1 *1297:A2 0.000431526
24 *1391:A1 *203:26 0.000507057
25 *1553:D *1297:A2 0.000317503
26 *1572:I *1391:A3 4.97386e-06
27 *136:19 *203:26 0.000135941
*RES
1 *1295:ZN *1391:A3 12.42 
2 *1391:A3 *203:26 15.552 
3 *203:26 *1297:A2 6.096 
4 *203:26 *1296:A2 15.324 
*END

*D_NET *204 0.00125851
*CONN
*I *1298:A3 I *D gf180mcu_fd_sc_mcu7t5v0__nor4_1
*I *1403:A2 I *D gf180mcu_fd_sc_mcu7t5v0__nor2_1
*I *1296:ZN O *D gf180mcu_fd_sc_mcu7t5v0__nor2_1
*CAP
1 *1298:A3 6.42889e-05
2 *1403:A2 2.89816e-05
3 *1296:ZN 6.31579e-05
4 *204:10 0.000156428
5 *1403:A2 *418:12 0.000186796
6 *204:10 *418:12 1.15275e-05
7 *1296:A1 *204:10 0.000406509
8 *1296:A2 *1298:A3 7.52295e-05
9 *1296:A2 *204:10 7.09389e-05
10 *136:19 *1298:A3 9.0262e-05
11 *136:19 *204:10 1.5961e-05
12 *203:26 *1298:A3 8.84331e-05
*RES
1 *1296:ZN *204:10 10.368 
2 *204:10 *1403:A2 9.532 
3 *204:10 *1298:A3 9.836 
*END

*D_NET *205 0.000560849
*CONN
*I *1298:A4 I *D gf180mcu_fd_sc_mcu7t5v0__nor4_1
*I *1297:Z O *D gf180mcu_fd_sc_mcu7t5v0__and2_1
*CAP
1 *1298:A4 8.48923e-05
2 *1297:Z 8.48923e-05
3 *1298:A4 *418:12 0.000131633
4 *1297:A2 *1298:A4 5.83518e-05
5 *1553:D *1298:A4 0.00020108
*RES
1 *1297:Z *1298:A4 10.064 
*END

*D_NET *206 0.00179899
*CONN
*I *1300:A3 I *D gf180mcu_fd_sc_mcu7t5v0__nor3_1
*I *1299:Z O *D gf180mcu_fd_sc_mcu7t5v0__xor2_1
*CAP
1 *1300:A3 0.000241554
2 *1299:Z 0.000241554
3 *1300:A3 *1300:A1 3.19219e-05
4 *1299:A2 *1300:A3 0.00128396
*RES
1 *1299:Z *1300:A3 21.268 
*END

*D_NET *207 0.00191675
*CONN
*I *1302:A3 I *D gf180mcu_fd_sc_mcu7t5v0__nor3_1
*I *1301:Z O *D gf180mcu_fd_sc_mcu7t5v0__xor2_1
*CAP
1 *1302:A3 0.00048956
2 *1301:Z 0.00048956
3 *1302:A3 *1248:I 4.90452e-05
4 *1302:A3 *1265:A2 1.15275e-05
5 *1302:A3 *1301:A2 2.6126e-05
6 *1302:A3 *1395:A1 4.83079e-05
7 *1302:A3 *1396:A3 4.78829e-05
8 *1302:A3 *299:35 0.000612724
9 *1302:A3 *415:29 0
10 *1572:I *1302:A3 0
11 *201:14 *1302:A3 0.000142019
*RES
1 *1301:Z *1302:A3 22.104 
*END

*D_NET *208 0.00183402
*CONN
*I *1405:A2 I *D gf180mcu_fd_sc_mcu7t5v0__nand2_1
*I *1411:A1 I *D gf180mcu_fd_sc_mcu7t5v0__nor2_1
*I *1309:A1 I *D gf180mcu_fd_sc_mcu7t5v0__nand2_1
*I *1303:ZN O *D gf180mcu_fd_sc_mcu7t5v0__nor2_1
*CAP
1 *1405:A2 2.07967e-05
2 *1411:A1 4.35233e-05
3 *1309:A1 0.000158357
4 *1303:ZN 9.22012e-05
5 *208:10 0.000287398
6 *208:8 0.000198515
7 *1309:A1 *1253:I 0
8 *1309:A1 *1309:A2 2.13331e-05
9 *1309:A1 *1337:A2 8.66359e-05
10 *1309:A1 *233:24 2.01893e-05
11 *1405:A2 *1309:A2 8.25154e-05
12 *1405:A2 *1564:CLK 1.19438e-05
13 *1411:A1 *1309:A2 0.000329336
14 *1411:A1 *1337:A2 0.000260416
15 *1411:A1 *213:16 3.08902e-05
16 *1411:A1 *237:29 1.29652e-05
17 *208:8 *1405:A1 0.000114706
18 *208:8 *233:24 5.22256e-05
19 *208:10 *233:24 1.00695e-05
20 *208:10 *339:30 0
*RES
1 *1303:ZN *208:8 9.836 
2 *208:8 *208:10 0.38 
3 *208:10 *1309:A1 9.836 
4 *208:10 *1411:A1 9.988 
5 *208:8 *1405:A2 9.228 
*END

*D_NET *209 0.00535725
*CONN
*I *1340:A2 I *D gf180mcu_fd_sc_mcu7t5v0__nand2_1
*I *1412:A2 I *D gf180mcu_fd_sc_mcu7t5v0__and2_1
*I *1414:A1 I *D gf180mcu_fd_sc_mcu7t5v0__oai21_1
*I *1304:ZN O *D gf180mcu_fd_sc_mcu7t5v0__nor3_1
*CAP
1 *1340:A2 8.38913e-05
2 *1412:A2 0.000246945
3 *1414:A1 0
4 *1304:ZN 0.00066982
5 *209:16 0.000406562
6 *209:12 0.000913329
7 *1340:A2 *1645:I 0.000316011
8 *1340:A2 *408:21 0.000715757
9 *1412:A2 *1307:A2 3.08902e-05
10 *1412:A2 *1412:A1 0.000379274
11 *1412:A2 *1414:A2 1.02578e-05
12 *1412:A2 *1414:B 4.69752e-05
13 *1412:A2 *408:21 0
14 *209:12 *1415:A1 0.000236501
15 *209:12 *1419:A1 0.000161424
16 *209:12 *237:6 8.55327e-05
17 *209:12 *237:29 0.000576466
18 *209:12 *272:31 0
19 *209:12 *361:10 9.03605e-05
20 *209:16 *1415:A1 0.00019722
21 *209:16 *1419:A1 0.000140955
22 *1559:D *1412:A2 0
23 *1561:D *1412:A2 2.21712e-05
24 *1561:RN *209:12 2.69032e-05
*RES
1 *1304:ZN *209:12 14.244 
2 *209:12 *209:16 6.096 
3 *209:16 *1414:A1 4.5 
4 *209:16 *1412:A2 6.552 
5 *209:12 *1340:A2 10.9 
*END

*D_NET *210 0.0030762
*CONN
*I *1316:B I *D gf180mcu_fd_sc_mcu7t5v0__oai31_1
*I *1417:A1 I *D gf180mcu_fd_sc_mcu7t5v0__nor2_1
*I *1305:Z O *D gf180mcu_fd_sc_mcu7t5v0__or3_1
*CAP
1 *1316:B 0.000397642
2 *1417:A1 0.000258229
3 *1305:Z 5.00361e-05
4 *210:8 0.000705907
5 *1316:B *1251:I 5.69191e-05
6 *1316:B *1305:A3 4.66861e-05
7 *1316:B *1453:I 0
8 *1316:B *405:39 0.000119227
9 *1417:A1 *1418:A2 7.98466e-05
10 *1417:A1 *1420:B1 7.51381e-05
11 *1417:A1 *1453:I 0
12 *1417:A1 *1563:CLK 0.000310356
13 *1417:A1 *272:31 0.000200362
14 *1417:A1 *297:25 6.17507e-05
15 *1417:A1 *297:29 2.20475e-05
16 *210:8 *233:18 2.77184e-06
17 *210:8 *412:21 0.000118659
18 *160:12 *1316:B 5.10924e-05
19 *160:12 *1417:A1 0.000370756
20 *160:12 *210:8 2.49331e-05
21 *160:16 *1417:A1 0.000123838
*RES
1 *1305:Z *210:8 9.38 
2 *210:8 *1417:A1 12.04 
3 *210:8 *1316:B 12.04 
*END

*D_NET *211 0.00295542
*CONN
*I *1310:A3 I *D gf180mcu_fd_sc_mcu7t5v0__and4_1
*I *1306:ZN O *D gf180mcu_fd_sc_mcu7t5v0__nor3_1
*CAP
1 *1310:A3 0.000302993
2 *1306:ZN 0.000302993
3 *1310:A3 *1251:I 0.000394617
4 *1310:A3 *1305:A3 0.000142917
5 *1310:A3 *1306:A3 7.32209e-05
6 *1310:A3 *1310:A1 0.000301014
7 *1310:A3 *1313:B 1.49066e-06
8 *1310:A3 *1575:I 0.000181456
9 *1310:A3 *1646:I 6.63909e-05
10 *1310:A3 *218:10 0.00021548
11 *1310:A3 *312:16 0.000281062
12 *1310:A3 *405:39 0.000120187
13 *1310:A3 *412:21 0.000292033
14 *1310:A3 *413:18 0.000248677
15 *1310:A2 *1310:A3 3.08902e-05
*RES
1 *1306:ZN *1310:A3 23.168 
*END

*D_NET *212 0.00693655
*CONN
*I *1409:A1 I *D gf180mcu_fd_sc_mcu7t5v0__oai22_1
*I *1333:A1 I *D gf180mcu_fd_sc_mcu7t5v0__aoi211_1
*I *1307:ZN O *D gf180mcu_fd_sc_mcu7t5v0__nor2_1
*CAP
1 *1409:A1 0.000598126
2 *1333:A1 0
3 *1307:ZN 0.000654783
4 *212:12 0.00125291
5 *1409:A1 *1333:A2 2.96621e-05
6 *1409:A1 *1333:B 1.28252e-05
7 *1409:A1 *1334:A1 7.83779e-05
8 *1409:A1 *1338:C 8.15645e-05
9 *1409:A1 *1408:B1 1.5015e-05
10 *1409:A1 *1626:I 2.05156e-05
11 *1409:A1 *272:31 0.000171927
12 *1409:A1 *312:16 2.9378e-06
13 *1409:A1 *339:30 0.00147307
14 *1409:A1 *339:32 0.000151957
15 *1409:A1 *373:10 0
16 *212:12 *1307:A2 1.02578e-05
17 *212:12 *1334:A1 0.000171182
18 *212:12 *1334:B 9.60518e-06
19 *212:12 *1414:A2 2.84711e-05
20 *212:12 *296:8 0.000228925
21 *212:12 *312:16 0.00160061
22 *212:12 *361:51 0
23 *212:12 *408:21 1.15275e-05
24 *1408:A1 *1409:A1 3.10495e-05
25 *1563:D *1409:A1 0.000301264
*RES
1 *1307:ZN *212:12 10.884 
2 *212:12 *1333:A1 4.5 
3 *212:12 *1409:A1 19.2 
*END

*D_NET *213 0.00708467
*CONN
*I *1309:A2 I *D gf180mcu_fd_sc_mcu7t5v0__nand2_1
*I *1317:A1 I *D gf180mcu_fd_sc_mcu7t5v0__nor2_1
*I *1315:A2 I *D gf180mcu_fd_sc_mcu7t5v0__nor3_1
*I *1310:A4 I *D gf180mcu_fd_sc_mcu7t5v0__and4_1
*I *1308:Z O *D gf180mcu_fd_sc_mcu7t5v0__or3_1
*CAP
1 *1309:A2 0.000175681
2 *1317:A1 0
3 *1315:A2 0.000171492
4 *1310:A4 0
5 *1308:Z 0.000437598
6 *213:33 0.000333667
7 *213:20 0.000520871
8 *213:16 0.000971974
9 *1309:A2 *1337:A2 1.52774e-05
10 *1309:A2 *1564:CLK 3.18815e-05
11 *1315:A2 *1315:A1 0.00026757
12 *1315:A2 *1317:A2 0.00022009
13 *1315:A2 *1328:A2 0.000134564
14 *1315:A2 *1646:I 0
15 *1315:A2 *1665:I 2.97354e-06
16 *1315:A2 *217:16 0.000186796
17 *1315:A2 *220:8 5.75052e-05
18 *213:16 *1564:CLK 2.57954e-05
19 *213:16 *237:29 0.000283052
20 *213:16 *361:22 7.78223e-05
21 *213:16 *409:8 0
22 *213:20 *1252:I 2.64841e-05
23 *213:20 *1418:A2 0.000587169
24 *213:20 *1420:B1 0.000759154
25 *213:20 *1453:I 0.000709837
26 *213:20 *233:18 0.000424522
27 *213:33 *1317:A2 5.23685e-05
28 *213:33 *1328:A2 6.73834e-05
29 *213:33 *1453:I 7.90644e-05
30 *1303:A1 *213:16 0
31 *1309:A1 *1309:A2 2.13331e-05
32 *1405:A2 *1309:A2 8.25154e-05
33 *1411:A1 *1309:A2 0.000329336
34 *1411:A1 *213:16 3.08902e-05
*RES
1 *1308:Z *213:16 16.236 
2 *213:16 *213:20 10.352 
3 *213:20 *1310:A4 9 
4 *213:20 *213:33 5.868 
5 *213:33 *1315:A2 15.78 
6 *213:33 *1317:A1 4.5 
7 *213:16 *1309:A2 6.172 
*END

*D_NET *214 0.00261051
*CONN
*I *1333:B I *D gf180mcu_fd_sc_mcu7t5v0__aoi211_1
*I *1334:A2 I *D gf180mcu_fd_sc_mcu7t5v0__aoi21_1
*I *1338:B I *D gf180mcu_fd_sc_mcu7t5v0__aoi211_1
*I *1309:ZN O *D gf180mcu_fd_sc_mcu7t5v0__nand2_1
*CAP
1 *1333:B 0.000193687
2 *1334:A2 0
3 *1338:B 0.000295514
4 *1309:ZN 9.10505e-05
5 *214:10 0.000357343
6 *214:8 0.000346566
7 *1333:B *1334:A1 2.11799e-05
8 *1333:B *1334:B 0.000101612
9 *1333:B *1659:I 3.84832e-06
10 *1333:B *361:51 0.00017596
11 *1338:B *1253:I 3.99571e-05
12 *1338:B *1338:C 8.64281e-06
13 *1338:B *1339:A2 0.000147305
14 *1338:B *1418:A2 0
15 *1338:B *233:24 1.18685e-05
16 *1338:B *296:38 2.84711e-05
17 *1338:B *409:21 9.68523e-05
18 *214:8 *1253:I 4.41053e-06
19 *214:8 *1337:A1 0.000325626
20 *214:8 *233:24 2.51084e-05
21 *214:10 *1253:I 2.62889e-05
22 *214:10 *1337:A1 0.000260709
23 *214:10 *233:24 3.56825e-05
24 *1409:A1 *1333:B 1.28252e-05
*RES
1 *1309:ZN *214:8 9.988 
2 *214:8 *214:10 0.988 
3 *214:10 *1338:B 11.128 
4 *214:10 *1334:A2 9 
5 *214:8 *1333:B 10.748 
*END

*D_NET *215 0.000440597
*CONN
*I *1316:A1 I *D gf180mcu_fd_sc_mcu7t5v0__oai31_1
*I *1310:Z O *D gf180mcu_fd_sc_mcu7t5v0__and4_1
*CAP
1 *1316:A1 9.62839e-05
2 *1310:Z 9.62839e-05
3 *1316:A1 *1317:A2 0.000132001
4 *1316:A1 *1453:I 2.6126e-05
5 *1316:A1 *1646:I 8.99026e-05
*RES
1 *1310:Z *1316:A1 10.064 
*END

*D_NET *216 0.00171998
*CONN
*I *1336:A1 I *D gf180mcu_fd_sc_mcu7t5v0__nor2_1
*I *1410:A3 I *D gf180mcu_fd_sc_mcu7t5v0__oai32_1
*I *1312:A3 I *D gf180mcu_fd_sc_mcu7t5v0__nor3_1
*I *1311:ZN O *D gf180mcu_fd_sc_mcu7t5v0__nand2_1
*CAP
1 *1336:A1 0
2 *1410:A3 0.000139697
3 *1312:A3 0.000229809
4 *1311:ZN 0.000151929
5 *216:24 0.000217577
6 *1312:A3 *1311:A1 3.16765e-06
7 *1312:A3 *1335:A1 3.45972e-05
8 *1312:A3 *1413:A1 0
9 *1312:A3 *1421:A2 0.000193942
10 *1312:A3 *1620:I 0.000193942
11 *1312:A3 *217:16 3.14203e-05
12 *216:24 *1336:A2 2.05156e-05
13 *216:24 *237:6 0.000131633
14 *1410:A2 *1410:A3 0.000139333
15 *1410:A2 *216:24 0.000191693
16 *159:6 *1410:A3 0
17 *159:6 *216:24 0
18 *159:12 *1312:A3 4.07251e-05
*RES
1 *1311:ZN *1312:A3 19.52 
2 *1312:A3 *216:24 5.64 
3 *216:24 *1410:A3 5.564 
4 *216:24 *1336:A1 4.5 
*END

*D_NET *217 0.00708422
*CONN
*I *1316:A2 I *D gf180mcu_fd_sc_mcu7t5v0__oai31_1
*I *1317:A2 I *D gf180mcu_fd_sc_mcu7t5v0__nor2_1
*I *1312:ZN O *D gf180mcu_fd_sc_mcu7t5v0__nor3_1
*CAP
1 *1316:A2 0
2 *1317:A2 0.000169113
3 *1312:ZN 0.000953498
4 *217:16 0.00112261
5 *1317:A2 *1315:A1 3.22131e-05
6 *1317:A2 *1328:A2 1.2339e-05
7 *1317:A2 *1453:I 0.000199573
8 *1317:A2 *1646:I 1.7295e-05
9 *217:16 *1311:A1 0
10 *217:16 *1314:A2 0.00113307
11 *217:16 *1335:A1 0.000206333
12 *217:16 *1406:A1 2.07594e-05
13 *217:16 *1406:A2 3.75402e-05
14 *217:16 *1421:A2 2.05084e-05
15 *217:16 *1444:I0 2.47642e-05
16 *217:16 *1562:CLK 0
17 *217:16 *1565:CLK 5.97012e-05
18 *217:16 *1620:I 0
19 *217:16 *1646:I 0
20 *217:16 *220:8 0.000340568
21 *217:16 *311:36 0.000331347
22 *217:16 *405:37 2.57173e-05
23 *1312:A3 *217:16 3.14203e-05
24 *1315:A2 *1317:A2 0.00022009
25 *1315:A2 *217:16 0.000186796
26 *1316:A1 *1317:A2 0.000132001
27 *1562:D *217:16 0.00175459
28 *213:33 *1317:A2 5.23685e-05
*RES
1 *1312:ZN *217:16 24.748 
2 *217:16 *1317:A2 15.628 
3 *217:16 *1316:A2 4.5 
*END

*D_NET *218 0.00412631
*CONN
*I *1315:A3 I *D gf180mcu_fd_sc_mcu7t5v0__nor3_1
*I *1314:A2 I *D gf180mcu_fd_sc_mcu7t5v0__nor2_1
*I *1313:ZN O *D gf180mcu_fd_sc_mcu7t5v0__oai31_1
*CAP
1 *1315:A3 6.7269e-05
2 *1314:A2 0.000118726
3 *1313:ZN 0.000189773
4 *218:10 0.000375768
5 *1314:A2 *1646:I 5.14116e-06
6 *1314:A2 *405:37 0.000480606
7 *1315:A3 *1315:A1 0.000117421
8 *1315:A3 *312:16 0.000233529
9 *218:10 *1313:A3 2.85028e-05
10 *218:10 *1313:B 6.64241e-05
11 *218:10 *1315:A1 5.43087e-05
12 *218:10 *1575:I 1.34164e-05
13 *218:10 *312:16 0.000807283
14 *218:10 *405:39 0.000219595
15 *1310:A3 *218:10 0.00021548
16 *217:16 *1314:A2 0.00113307
*RES
1 *1313:ZN *218:10 11.888 
2 *218:10 *1314:A2 11.964 
3 *218:10 *1315:A3 9.912 
*END

*D_NET *219 0.00622258
*CONN
*I *1406:A1 I *D gf180mcu_fd_sc_mcu7t5v0__and2_1
*I *1620:I I *D gf180mcu_fd_sc_mcu7t5v0__dlyb_1
*I *1314:ZN O *D gf180mcu_fd_sc_mcu7t5v0__nor2_1
*CAP
1 *1406:A1 0.000393425
2 *1620:I 0.000729778
3 *1314:ZN 0
4 *219:6 0.0011232
5 *1406:A1 *1311:A1 1.5961e-05
6 *1406:A1 *1406:A2 1.5015e-05
7 *1406:A1 *1444:I0 8.49711e-05
8 *1406:A1 *1562:CLK 0.00044686
9 *1406:A1 *311:36 3.26302e-05
10 *1406:A1 *405:10 0.000433149
11 *1620:I *1250:I 6.68164e-05
12 *1620:I *1311:A1 0.000730544
13 *1620:I *1421:A2 0.000142617
14 *1620:I *1569:CLK 0.000330001
15 *1620:I *1623:I 1.2339e-05
16 *1620:I *1624:I 0.000379274
17 *1620:I *1631:I 0.000269699
18 *1620:I *311:36 9.30208e-05
19 *1620:I *334:8 0
20 *1620:I *406:36 5.67574e-05
21 *1312:A3 *1620:I 0.000193942
22 *1410:B2 *1620:I 0.000147305
23 *1562:D *1406:A1 8.5576e-05
24 *1562:D *1620:I 0.000418938
25 *217:16 *1406:A1 2.07594e-05
26 *217:16 *1620:I 0
*RES
1 *1314:ZN *219:6 9 
2 *219:6 *1620:I 18.12 
3 *219:6 *1406:A1 13.408 
*END

*D_NET *220 0.00285735
*CONN
*I *1316:A3 I *D gf180mcu_fd_sc_mcu7t5v0__oai31_1
*I *1328:A2 I *D gf180mcu_fd_sc_mcu7t5v0__nor2_1
*I *1315:ZN O *D gf180mcu_fd_sc_mcu7t5v0__nor3_1
*CAP
1 *1316:A3 1.64017e-05
2 *1328:A2 0.000336077
3 *1315:ZN 0.000152526
4 *220:8 0.000505004
5 *1328:A2 *1319:B 6.50663e-05
6 *1328:A2 *1321:A1 0.000111985
7 *1328:A2 *1321:A2 5.09271e-05
8 *1328:A2 *1329:A1 1.61588e-05
9 *1328:A2 *1406:A2 3.46548e-05
10 *1328:A2 *1453:I 5.76373e-06
11 *1328:A2 *1548:CLK 0
12 *1328:A2 *1646:I 0
13 *1328:A2 *1665:I 4.50449e-05
14 *1328:A2 *222:10 0.000379274
15 *220:8 *1406:A2 0.000135384
16 *1315:A2 *1328:A2 0.000134564
17 *1315:A2 *220:8 5.75052e-05
18 *1317:A2 *1328:A2 1.2339e-05
19 *1323:A1 *1328:A2 0.000377672
20 *1563:RN *1328:A2 1.30476e-05
21 *213:33 *1328:A2 6.73834e-05
22 *217:16 *220:8 0.000340568
*RES
1 *1315:ZN *220:8 6.172 
2 *220:8 *1328:A2 8.528 
3 *220:8 *1316:A3 4.728 
*END

*D_NET *221 0.000694081
*CONN
*I *1665:I I *D gf180mcu_fd_sc_mcu7t5v0__clkbuf_1
*I *1316:ZN O *D gf180mcu_fd_sc_mcu7t5v0__oai31_1
*CAP
1 *1665:I 0.000257158
2 *1316:ZN 0.000257158
3 *1665:I *1315:A1 0
4 *1665:I *1320:A1 4.02664e-05
5 *1665:I *1322:B1 0
6 *1665:I *1406:A2 8.55327e-05
7 *1665:I *1548:CLK 5.94709e-06
8 *1665:I *312:16 0
9 *1315:A2 *1665:I 2.97354e-06
10 *1328:A2 *1665:I 4.50449e-05
*RES
1 *1316:ZN *1665:I 19.672 
*END

*D_NET *222 0.003543
*CONN
*I *1319:A1 I *D gf180mcu_fd_sc_mcu7t5v0__aoi21_1
*I *1326:A2 I *D gf180mcu_fd_sc_mcu7t5v0__oai22_1
*I *1321:A1 I *D gf180mcu_fd_sc_mcu7t5v0__nand2_1
*I *1317:ZN O *D gf180mcu_fd_sc_mcu7t5v0__nor2_1
*CAP
1 *1319:A1 2.78852e-05
2 *1326:A2 0.000181016
3 *1321:A1 0.000137909
4 *1317:ZN 0.000197845
5 *222:23 0.000324286
6 *222:10 0.000451139
7 *1319:A1 *1318:A3 5.14116e-06
8 *1321:A1 *1321:A2 3.08902e-05
9 *1321:A1 *1322:B1 4.50449e-05
10 *1321:A1 *1548:CLK 8.30183e-05
11 *1321:A1 *321:6 0
12 *1326:A2 *1318:A3 0.000330116
13 *1326:A2 *1319:B 7.83779e-05
14 *1326:A2 *1326:A1 2.68222e-05
15 *1326:A2 *1548:CLK 0.000569158
16 *1326:A2 *321:17 9.48791e-05
17 *222:10 *1319:B 8.8425e-05
18 *222:10 *1329:A1 0
19 *222:10 *1453:I 5.3266e-05
20 *222:10 *1646:I 0
21 *222:10 *227:21 0
22 *222:23 *1319:B 0.00032652
23 *222:23 *1322:B1 0
24 *1328:A2 *1321:A1 0.000111985
25 *1328:A2 *222:10 0.000379274
*RES
1 *1317:ZN *222:10 10.824 
2 *222:10 *1321:A1 10.444 
3 *222:10 *222:23 5.488 
4 *222:23 *1326:A2 7.236 
5 *222:23 *1319:A1 4.728 
*END

*D_NET *223 0.00160826
*CONN
*I *1319:A2 I *D gf180mcu_fd_sc_mcu7t5v0__aoi21_1
*I *1320:A2 I *D gf180mcu_fd_sc_mcu7t5v0__nor2_1
*I *1318:ZN O *D gf180mcu_fd_sc_mcu7t5v0__nand3_1
*CAP
1 *1319:A2 0
2 *1320:A2 0.000101613
3 *1318:ZN 0.000115284
4 *223:6 0.000216896
5 *1320:A2 *1322:A2 1.15275e-05
6 *1320:A2 *1322:B1 0.000276717
7 *1320:A2 *224:8 0
8 *1320:A2 *300:8 0.000111867
9 *1320:A2 *321:6 2.6126e-05
10 *1320:A2 *321:17 0.000317503
11 *223:6 *1318:A2 9.26705e-05
12 *223:6 *1322:A2 2.30518e-05
13 *223:6 *1324:B 0
14 *223:6 *1325:A1 0
15 *223:6 *321:17 0.000315004
*RES
1 *1318:ZN *223:6 5.792 
2 *223:6 *1320:A2 15.02 
3 *223:6 *1319:A2 4.5 
*END

*D_NET *224 0.00131671
*CONN
*I *1325:A1 I *D gf180mcu_fd_sc_mcu7t5v0__nor2_1
*I *1322:A2 I *D gf180mcu_fd_sc_mcu7t5v0__oai22_1
*I *1319:ZN O *D gf180mcu_fd_sc_mcu7t5v0__aoi21_1
*CAP
1 *1325:A1 0.000164286
2 *1322:A2 0.000193634
3 *1319:ZN 0.000179
4 *224:8 0.00053692
5 *1322:A2 *300:8 0.000107858
6 *1322:A2 *300:10 4.58601e-06
7 *1325:A1 *1318:A1 2.90023e-05
8 *1325:A1 *1502:I 0
9 *224:8 *1318:A1 6.68441e-05
10 *224:8 *1322:B1 0
11 *224:8 *1548:CLK 0
12 *224:8 *227:21 0
13 *224:8 *227:36 0
14 *1320:A2 *1322:A2 1.15275e-05
15 *1320:A2 *224:8 0
16 *223:6 *1322:A2 2.30518e-05
17 *223:6 *1325:A1 0
*RES
1 *1319:ZN *224:8 10.14 
2 *224:8 *1322:A2 10.444 
3 *224:8 *1325:A1 9.912 
*END

*D_NET *225 0.00197661
*CONN
*I *1321:A2 I *D gf180mcu_fd_sc_mcu7t5v0__nand2_1
*I *1406:A2 I *D gf180mcu_fd_sc_mcu7t5v0__and2_1
*I *1320:ZN O *D gf180mcu_fd_sc_mcu7t5v0__nor2_1
*CAP
1 *1321:A2 4.86915e-05
2 *1406:A2 0.000418234
3 *1320:ZN 0.00030883
4 *225:8 0.000775755
5 *1406:A2 *1229:I 0
6 *1406:A2 *1320:A1 0
7 *1406:A2 *1554:CLK 0
8 *1406:A2 *1562:CLK 7.24161e-06
9 *225:8 *1320:A1 2.79106e-05
10 *1321:A1 *1321:A2 3.08902e-05
11 *1328:A2 *1321:A2 5.09271e-05
12 *1328:A2 *1406:A2 3.46548e-05
13 *1406:A1 *1406:A2 1.5015e-05
14 *1665:I *1406:A2 8.55327e-05
15 *217:16 *1406:A2 3.75402e-05
16 *220:8 *1406:A2 0.000135384
*RES
1 *1320:ZN *225:8 6.02 
2 *225:8 *1406:A2 7.388 
3 *225:8 *1321:A2 5.032 
*END

*D_NET *226 0.00110678
*CONN
*I *1322:B1 I *D gf180mcu_fd_sc_mcu7t5v0__oai22_1
*I *1321:ZN O *D gf180mcu_fd_sc_mcu7t5v0__nand2_1
*CAP
1 *1322:B1 0.000111852
2 *1321:ZN 0.000111852
3 *1322:B1 *1548:CLK 0.000561313
4 *1320:A2 *1322:B1 0.000276717
5 *1321:A1 *1322:B1 4.50449e-05
6 *1665:I *1322:B1 0
7 *222:23 *1322:B1 0
8 *224:8 *1322:B1 0
*RES
1 *1321:ZN *1322:B1 19.824 
*END

*D_NET *227 0.00402695
*CONN
*I *1324:A2 I *D gf180mcu_fd_sc_mcu7t5v0__aoi21_1
*I *1327:A2 I *D gf180mcu_fd_sc_mcu7t5v0__aoi21_1
*I *1326:B1 I *D gf180mcu_fd_sc_mcu7t5v0__oai22_1
*I *1329:A1 I *D gf180mcu_fd_sc_mcu7t5v0__nor2_1
*I *1323:ZN O *D gf180mcu_fd_sc_mcu7t5v0__nor2_1
*CAP
1 *1324:A2 3.28034e-05
2 *1327:A2 0.000110859
3 *1326:B1 2.98786e-05
4 *1329:A1 0.000465441
5 *1323:ZN 3.09472e-05
6 *227:36 0.000267446
7 *227:21 0.000381252
8 *227:8 0.000723978
9 *1326:B1 *1318:A2 0.000196417
10 *1327:A2 *1325:A2 2.76081e-05
11 *1327:A2 *1326:B2 2.23385e-05
12 *1327:A2 *1327:A1 0.000141897
13 *1329:A1 *1318:A3 0
14 *1329:A1 *1328:A1 0
15 *1329:A1 *1329:A2 0.000374234
16 *1329:A1 *1501:I 0
17 *1329:A1 *1646:I 6.088e-05
18 *1329:A1 *412:8 4.02664e-05
19 *227:8 *1548:CLK 6.85645e-06
20 *227:8 *321:25 3.08902e-05
21 *227:21 *1318:A2 9.50296e-06
22 *227:21 *1318:A3 0.000169178
23 *227:21 *1328:A1 0
24 *227:21 *321:25 0.000260329
25 *227:21 *390:8 0
26 *227:36 *1318:A1 5.63729e-05
27 *227:36 *1318:A2 2.85938e-05
28 *227:36 *1325:A2 5.04498e-05
29 *227:36 *1326:B2 1.5015e-05
30 *227:36 *391:12 1.76629e-05
31 *1323:A1 *227:8 0.000142194
32 *1328:A2 *1329:A1 1.61588e-05
33 *1547:D *1329:A1 0.000317503
34 *222:10 *1329:A1 0
35 *222:10 *227:21 0
36 *224:8 *227:21 0
37 *224:8 *227:36 0
*RES
1 *1323:ZN *227:8 9.38 
2 *227:8 *1329:A1 13.104 
3 *227:8 *227:21 2.052 
4 *227:21 *1326:B1 9.532 
5 *227:21 *227:36 5.868 
6 *227:36 *1327:A2 5.488 
7 *227:36 *1324:A2 4.728 
*END

*D_NET *228 0.000541086
*CONN
*I *1325:A2 I *D gf180mcu_fd_sc_mcu7t5v0__nor2_1
*I *1324:ZN O *D gf180mcu_fd_sc_mcu7t5v0__aoi21_1
*CAP
1 *1325:A2 0.000156724
2 *1324:ZN 0.000156724
3 *1325:A2 *1318:A2 0
4 *1325:A2 *1324:B 0.000149579
5 *1325:A2 *1502:I 0
6 *1327:A2 *1325:A2 2.76081e-05
7 *227:36 *1325:A2 5.04498e-05
*RES
1 *1324:ZN *1325:A2 10.368 
*END

*D_NET *229 0.000382284
*CONN
*I *1327:B I *D gf180mcu_fd_sc_mcu7t5v0__aoi21_1
*I *1326:ZN O *D gf180mcu_fd_sc_mcu7t5v0__oai22_1
*CAP
1 *1327:B 0.00014766
2 *1326:ZN 0.00014766
3 *1327:B *1326:A1 0
4 *1327:B *1327:A1 5.3266e-05
5 *1327:B *1548:CLK 3.36987e-05
*RES
1 *1326:ZN *1327:B 10.14 
*END

*D_NET *230 0.000917277
*CONN
*I *1329:A2 I *D gf180mcu_fd_sc_mcu7t5v0__nor2_1
*I *1328:ZN O *D gf180mcu_fd_sc_mcu7t5v0__nor2_1
*CAP
1 *1329:A2 0.000170982
2 *1328:ZN 0.000170982
3 *1329:A2 *1318:A3 0
4 *1329:A2 *1328:A1 0.00020108
5 *1329:A2 *390:23 0
6 *1329:A1 *1329:A2 0.000374234
7 *1547:RN *1329:A2 0
*RES
1 *1328:ZN *1329:A2 11.052 
*END

*D_NET *231 0.00152196
*CONN
*I *1332:A1 I *D gf180mcu_fd_sc_mcu7t5v0__nand2_1
*I *1330:ZN O *D gf180mcu_fd_sc_mcu7t5v0__nor4_1
*CAP
1 *1332:A1 0.000145823
2 *1330:ZN 0.000145823
3 *1332:A1 *1332:A2 1.53449e-05
4 *1332:A1 *398:27 0.000261337
5 *1332:A1 *398:44 0.000454941
6 *144:25 *1332:A1 0.000237356
7 *144:41 *1332:A1 0.000261337
*RES
1 *1330:ZN *1332:A1 11.432 
*END

*D_NET *232 0.00149961
*CONN
*I *1332:A2 I *D gf180mcu_fd_sc_mcu7t5v0__nand2_1
*I *1331:ZN O *D gf180mcu_fd_sc_mcu7t5v0__nor4_1
*CAP
1 *1332:A2 0.000447785
2 *1331:ZN 0.000447785
3 *1332:A2 *1330:A4 0.000332737
4 *1332:A2 *1346:B 5.48085e-05
5 *1332:A2 *311:30 2.17248e-05
6 *1332:A2 *345:6 1.2339e-05
7 *1332:A2 *345:10 6.58108e-05
8 *1332:A2 *398:27 1.39031e-05
9 *1332:A2 *398:44 8.73674e-05
10 *1332:A1 *1332:A2 1.53449e-05
11 *144:25 *1332:A2 0
*RES
1 *1331:ZN *1332:A2 12.572 
*END

*D_NET *233 0.0144884
*CONN
*I *1417:A2 I *D gf180mcu_fd_sc_mcu7t5v0__nor2_1
*I *1333:A2 I *D gf180mcu_fd_sc_mcu7t5v0__aoi211_1
*I *1338:A2 I *D gf180mcu_fd_sc_mcu7t5v0__aoi211_1
*I *1332:ZN O *D gf180mcu_fd_sc_mcu7t5v0__nand2_1
*CAP
1 *1417:A2 0
2 *1333:A2 0.000111633
3 *1338:A2 0
4 *1332:ZN 0.00219342
5 *233:24 0.000536946
6 *233:18 0.00261873
7 *1333:A2 *1338:C 0.000199473
8 *1333:A2 *1546:CLK 1.2682e-05
9 *1333:A2 *1664:I 0.000111659
10 *1333:A2 *312:16 0.000160292
11 *233:18 *1252:I 0.000123517
12 *233:18 *1303:A2 9.26357e-05
13 *233:18 *1305:A3 5.22519e-05
14 *233:18 *1310:A1 0.00010391
15 *233:18 *1313:A1 5.97012e-05
16 *233:18 *1313:A2 4.57504e-06
17 *233:18 *1313:A3 0
18 *233:18 *1313:B 0.000403683
19 *233:18 *1349:A2 2.03665e-05
20 *233:18 *1418:A2 5.57607e-05
21 *233:18 *1518:CLK 0.000423065
22 *233:18 *1520:CLK 8.46862e-05
23 *233:18 *1547:CLK 0.000607356
24 *233:18 *1623:I 1.21383e-05
25 *233:18 *294:131 2.10839e-05
26 *233:18 *310:22 0.000444699
27 *233:18 *311:36 0.000326352
28 *233:18 *323:6 0.00020046
29 *233:18 *323:12 0.000129038
30 *233:18 *346:12 6.27911e-05
31 *233:18 *411:19 6.07375e-05
32 *233:18 *412:21 7.26983e-05
33 *233:18 *412:23 1.72881e-05
34 *233:24 *1303:A2 8.05328e-06
35 *233:24 *1418:A2 0.00171159
36 *233:24 *1664:I 0.000663505
37 *233:24 *312:16 0.000656367
38 *233:24 *340:17 1.16164e-05
39 *1309:A1 *233:24 2.01893e-05
40 *1310:A2 *233:18 2.40328e-06
41 *1338:B *233:24 1.18685e-05
42 *1409:A1 *1333:A2 2.96621e-05
43 *1520:D *233:18 0.000193933
44 *1562:RN *233:18 0.00125058
45 *144:25 *233:18 2.96977e-05
46 *160:12 *233:18 2.49331e-05
47 *208:8 *233:24 5.22256e-05
48 *208:10 *233:24 1.00695e-05
49 *210:8 *233:18 2.77184e-06
50 *213:20 *233:18 0.000424522
51 *214:8 *233:24 2.51084e-05
52 *214:10 *233:24 3.56825e-05
*RES
1 *1332:ZN *233:18 29.824 
2 *233:18 *233:24 10.732 
3 *233:24 *1338:A2 4.5 
4 *233:24 *1333:A2 14.64 
5 *233:18 *1417:A2 9 
*END

*D_NET *234 0.000488345
*CONN
*I *1334:B I *D gf180mcu_fd_sc_mcu7t5v0__aoi21_1
*I *1333:ZN O *D gf180mcu_fd_sc_mcu7t5v0__aoi211_1
*CAP
1 *1334:B 5.93012e-05
2 *1333:ZN 5.93012e-05
3 *1334:B *1334:A1 0.000246194
4 *1334:B *361:51 1.23313e-05
5 *1333:B *1334:B 0.000101612
6 *212:12 *1334:B 9.60518e-06
*RES
1 *1333:ZN *1334:B 9.836 
*END

*D_NET *235 0.00114111
*CONN
*I *1337:A1 I *D gf180mcu_fd_sc_mcu7t5v0__nor2_1
*I *1334:ZN O *D gf180mcu_fd_sc_mcu7t5v0__aoi21_1
*CAP
1 *1337:A1 0.00016283
2 *1334:ZN 0.00016283
3 *1337:A1 *1253:I 0.000112977
4 *1337:A1 *1337:A2 6.98246e-05
5 *1337:A1 *361:51 4.63109e-05
6 *214:8 *1337:A1 0.000325626
7 *214:10 *1337:A1 0.000260709
*RES
1 *1334:ZN *1337:A1 19.976 
*END

*D_NET *236 0.000705346
*CONN
*I *1336:A2 I *D gf180mcu_fd_sc_mcu7t5v0__nor2_1
*I *1335:Z O *D gf180mcu_fd_sc_mcu7t5v0__xor2_1
*CAP
1 *1336:A2 0.000194829
2 *1335:Z 0.000194829
3 *1336:A2 *237:6 0.000255714
4 *159:6 *1336:A2 3.94593e-05
5 *216:24 *1336:A2 2.05156e-05
*RES
1 *1335:Z *1336:A2 10.52 
*END

*D_NET *237 0.00561916
*CONN
*I *1337:A2 I *D gf180mcu_fd_sc_mcu7t5v0__nor2_1
*I *1411:A2 I *D gf180mcu_fd_sc_mcu7t5v0__nor2_1
*I *1407:A1 I *D gf180mcu_fd_sc_mcu7t5v0__or2_1
*I *1336:ZN O *D gf180mcu_fd_sc_mcu7t5v0__nor2_1
*CAP
1 *1337:A2 0.000306013
2 *1411:A2 0
3 *1407:A1 0
4 *1336:ZN 0.000338165
5 *237:29 0.0010707
6 *237:6 0.00110285
7 *1337:A2 *270:10 0
8 *1337:A2 *361:51 4.22591e-05
9 *237:6 *1410:B1 0
10 *237:6 *1413:A2 0.000149579
11 *237:29 *1308:A3 3.94624e-05
12 *237:29 *1410:B1 2.40328e-06
13 *237:29 *1413:A2 7.50749e-05
14 *237:29 *1420:B2 9.13083e-05
15 *237:29 *272:31 1.36289e-05
16 *237:29 *312:16 8.65686e-05
17 *237:29 *361:10 4.50736e-05
18 *237:29 *361:22 9.34475e-05
19 *237:29 *361:37 5.87561e-06
20 *237:29 *361:51 1.53727e-05
21 *1309:A1 *1337:A2 8.66359e-05
22 *1309:A2 *1337:A2 1.52774e-05
23 *1336:A2 *237:6 0.000255714
24 *1337:A1 *1337:A2 6.98246e-05
25 *1411:A1 *1337:A2 0.000260416
26 *1411:A1 *237:29 1.29652e-05
27 *1560:RN *237:29 0.000181183
28 *1561:RN *237:6 0
29 *1561:RN *237:29 0.000181183
30 *159:6 *237:6 1.49066e-06
31 *209:12 *237:6 8.55327e-05
32 *209:12 *237:29 0.000576466
33 *213:16 *237:29 0.000283052
34 *216:24 *237:6 0.000131633
*RES
1 *1336:ZN *237:6 7.312 
2 *237:6 *1407:A1 4.5 
3 *237:6 *237:29 15.764 
4 *237:29 *1411:A2 4.5 
5 *237:29 *1337:A2 7.236 
*END

*D_NET *238 0.00127078
*CONN
*I *1339:A2 I *D gf180mcu_fd_sc_mcu7t5v0__nor2_1
*I *1338:ZN O *D gf180mcu_fd_sc_mcu7t5v0__aoi211_1
*CAP
1 *1339:A2 0.000219285
2 *1338:ZN 0.000219285
3 *1339:A2 *1231:I 4.60244e-05
4 *1339:A2 *1664:I 0.000190366
5 *1339:A2 *296:38 2.333e-05
6 *1339:A2 *409:21 9.26705e-05
7 *1338:B *1339:A2 0.000147305
8 *1339:A1 *1339:A2 1.5015e-05
9 *1545:D *1339:A2 0.000317503
*RES
1 *1338:ZN *1339:A2 11.66 
*END

*D_NET *239 0.0104251
*CONN
*I *1421:A1 I *D gf180mcu_fd_sc_mcu7t5v0__nand2_1
*I *1343:A2 I *D gf180mcu_fd_sc_mcu7t5v0__nor2_1
*I *1341:A2 I *D gf180mcu_fd_sc_mcu7t5v0__nor2_1
*I *1342:A2 I *D gf180mcu_fd_sc_mcu7t5v0__aoi21_1
*I *1344:A2 I *D gf180mcu_fd_sc_mcu7t5v0__aoi21_1
*I *1340:ZN O *D gf180mcu_fd_sc_mcu7t5v0__nand2_1
*CAP
1 *1421:A1 0
2 *1343:A2 0.000377868
3 *1341:A2 0
4 *1342:A2 0.000403782
5 *1344:A2 6.16849e-05
6 *1340:ZN 0.000285188
7 *239:33 0.00111838
8 *239:27 0.00109247
9 *239:16 0.000894582
10 *239:12 0.00111808
11 *1342:A2 *1342:B 0.000375811
12 *1342:A2 *1571:D 2.57058e-06
13 *1342:A2 *303:6 1.72912e-05
14 *1342:A2 *349:43 0
15 *1343:A2 *1458:I 2.33477e-05
16 *1344:A2 *1568:CLK 3.73535e-05
17 *239:12 *1355:I1 4.724e-05
18 *239:12 *1421:A2 0
19 *239:12 *1645:I 9.51781e-05
20 *239:12 *408:12 8.95196e-05
21 *239:16 *1355:I0 0
22 *239:16 *1355:I1 0.0003776
23 *239:16 *1559:CLK 0
24 *239:16 *1568:CLK 0.00016204
25 *239:16 *1570:D 0.000493324
26 *239:16 *1570:CLK 0
27 *239:16 *360:8 0
28 *239:33 *1458:I 0.000198216
29 *239:33 *1568:CLK 8.30183e-05
30 *239:33 *303:6 5.29084e-05
31 *239:33 *303:13 0.000134635
32 *1344:A1 *1343:A2 0.00140088
33 *1544:D *1342:A2 0.000141187
34 *1568:D *239:12 0.000386335
35 *1568:D *239:16 0.000946619
36 *1568:RN *1343:A2 0
37 *1568:RN *239:16 8.02751e-06
38 *1568:RN *239:33 0
*RES
1 *1340:ZN *239:12 16.388 
2 *239:12 *239:16 8.36 
3 *239:16 *1344:A2 4.956 
4 *239:16 *239:27 4.5 
5 *239:27 *239:33 9.668 
6 *239:33 *1342:A2 7.54 
7 *239:33 *1341:A2 4.5 
8 *239:27 *1343:A2 12.876 
9 *239:12 *1421:A1 4.5 
*END

*D_NET *240 0.000767861
*CONN
*I *1342:B I *D gf180mcu_fd_sc_mcu7t5v0__aoi21_1
*I *1341:ZN O *D gf180mcu_fd_sc_mcu7t5v0__nor2_1
*CAP
1 *1342:B 0.000196025
2 *1341:ZN 0.000196025
3 *1342:B *1571:D 0
4 *1342:A2 *1342:B 0.000375811
*RES
1 *1341:ZN *1342:B 10.596 
*END

*D_NET *241 0.00281784
*CONN
*I *1344:B I *D gf180mcu_fd_sc_mcu7t5v0__aoi21_1
*I *1343:ZN O *D gf180mcu_fd_sc_mcu7t5v0__nor2_1
*CAP
1 *1344:B 5.79669e-05
2 *1343:ZN 5.79669e-05
3 *1344:B *1458:I 0.000278996
4 *1344:B *1497:I 0.00108555
5 *1344:A1 *1344:B 0.00133736
*RES
1 *1343:ZN *1344:B 21.42 
*END

*D_NET *242 0.0023708
*CONN
*I *1346:B I *D gf180mcu_fd_sc_mcu7t5v0__oai21_1
*I *1345:ZN O *D gf180mcu_fd_sc_mcu7t5v0__nand2_1
*CAP
1 *1346:B 0.000219885
2 *1345:ZN 0.000219885
3 *1346:B *1330:A4 3.58159e-05
4 *1346:B *1345:A1 4.83191e-05
5 *1346:B *1385:A1 0.000366028
6 *1346:B *1623:I 0.000193889
7 *1346:B *345:10 0.000369754
8 *1346:B *345:35 0.000118665
9 *1346:B *398:27 0.000187262
10 *1332:A2 *1346:B 5.48085e-05
11 *1346:A1 *1346:B 2.14255e-05
12 *1542:D *1346:B 0.000535065
*RES
1 *1345:ZN *1346:B 21.42 
*END

*D_NET *243 0.000248086
*CONN
*I *1348:B I *D gf180mcu_fd_sc_mcu7t5v0__aoi21_1
*I *1347:ZN O *D gf180mcu_fd_sc_mcu7t5v0__nor2_1
*CAP
1 *1348:B 0.000124043
2 *1347:ZN 0.000124043
*RES
1 *1347:ZN *1348:B 9.684 
*END

*D_NET *244 0.000914954
*CONN
*I *1350:B I *D gf180mcu_fd_sc_mcu7t5v0__oai21_1
*I *1349:ZN O *D gf180mcu_fd_sc_mcu7t5v0__nand2_1
*CAP
1 *1350:B 1.64224e-05
2 *1349:ZN 1.64224e-05
3 *1350:B *1623:I 0.000441055
4 *1350:B *1630:I 0.000441055
*RES
1 *1349:ZN *1350:B 10.14 
*END

*D_NET *245 0.0144006
*CONN
*I *1357:S I *D gf180mcu_fd_sc_mcu7t5v0__mux2_2
*I *1358:S I *D gf180mcu_fd_sc_mcu7t5v0__mux2_2
*I *1359:S I *D gf180mcu_fd_sc_mcu7t5v0__mux2_2
*I *1356:ZN O *D gf180mcu_fd_sc_mcu7t5v0__nand3_1
*CAP
1 *1357:S 0.000149462
2 *1358:S 0.0010048
3 *1359:S 0.00042608
4 *1356:ZN 0.00151804
5 *245:24 0.00279946
6 *1357:S *1357:I0 0.000141897
7 *1357:S *1660:I 0
8 *1358:S *1290:A4 0.000604811
9 *1358:S *1358:I0 0.000902835
10 *1358:S *1359:I1 0
11 *1358:S *1374:A2 2.07758e-05
12 *1358:S *1491:I 0.000177619
13 *1358:S *305:20 1.44096e-05
14 *1358:S *347:43 0
15 *1358:S *348:33 0.000146213
16 *1358:S *355:10 0
17 *1358:S *382:8 0.000347565
18 *1359:S *1357:I0 4.93678e-05
19 *1359:S *1660:I 7.54445e-06
20 *1359:S *351:6 0
21 *245:24 *1331:A1 0.000156138
22 *245:24 *1346:A2 7.29215e-05
23 *245:24 *1347:A1 1.5961e-05
24 *245:24 *1347:A2 5.20545e-05
25 *245:24 *1348:A2 9.96141e-05
26 *245:24 *1352:I0 0.000443114
27 *245:24 *1352:S 0.00128985
28 *245:24 *1356:A1 0.000199776
29 *245:24 *1357:I0 5.14074e-06
30 *245:24 *1596:I 1.34535e-05
31 *245:24 *1623:I 0.00185801
32 *245:24 *1642:I 7.04345e-05
33 *245:24 *1652:I 0.000209573
34 *245:24 *332:16 3.71904e-05
35 *245:24 *342:8 0.00018401
36 *245:24 *351:6 0
37 *245:24 *397:27 4.1381e-05
38 *245:24 *397:39 5.56314e-05
39 *1278:B2 *1358:S 0.000191263
40 *1346:A1 *245:24 0.00018402
41 *1366:A1 *245:24 5.76109e-05
42 *1374:A1 *1358:S 3.19219e-05
43 *1376:A1 *1358:S 0
44 *1524:D *1358:S 0.000614973
45 *1525:D *1358:S 9.58465e-05
46 *1532:RN *1358:S 7.6687e-05
47 *1534:D *1357:S 1.81888e-05
48 *1534:D *1359:S 1.5015e-05
49 *144:41 *245:24 0
*RES
1 *1356:ZN *245:24 29.308 
2 *245:24 *1359:S 6.248 
3 *245:24 *1358:S 23.228 
4 *1359:S *1357:S 10.216 
*END

*D_NET *246 0.0020447
*CONN
*I *1617:I I *D gf180mcu_fd_sc_mcu7t5v0__dlyb_1
*I *1360:ZN O *D gf180mcu_fd_sc_mcu7t5v0__nand3_1
*CAP
1 *1617:I 0.000489371
2 *1360:ZN 0.000489371
3 *1617:I *1387:I1 0
4 *1617:I *1581:I 0.000684584
5 *1617:I *1635:I 0.000122758
6 *1617:I *328:47 7.24161e-06
7 *1617:I *332:16 0.000111858
8 *1541:RN *1617:I 0.000139515
*RES
1 *1360:ZN *1617:I 22.712 
*END

*D_NET *247 0.00105103
*CONN
*I *1362:B I *D gf180mcu_fd_sc_mcu7t5v0__oai21_1
*I *1361:ZN O *D gf180mcu_fd_sc_mcu7t5v0__nand2_1
*CAP
1 *1362:B 0.000140554
2 *1361:ZN 0.000140554
3 *1362:B *1385:A1 0.000235573
4 *1362:B *1519:CLK 4.77221e-05
5 *1362:B *294:65 0.000233187
6 *1542:RN *1362:B 0.000253437
*RES
1 *1361:ZN *1362:B 20.128 
*END

*D_NET *248 0.00234534
*CONN
*I *1364:B I *D gf180mcu_fd_sc_mcu7t5v0__aoi21_1
*I *1363:ZN O *D gf180mcu_fd_sc_mcu7t5v0__nor2_1
*CAP
1 *1364:B 0.000351928
2 *1363:ZN 0.000351928
3 *1364:B *1363:A2 0.000542413
4 *1364:B *1483:I 0.000196402
5 *1364:B *1616:I 0.000552373
6 *1364:B *294:9 6.56265e-05
7 *1364:B *329:16 1.91917e-06
8 *1364:B *386:10 2.65777e-05
9 *1529:SETN *1364:B 0.000188422
10 *1530:D *1364:B 6.77492e-05
*RES
1 *1363:ZN *1364:B 22.18 
*END

*D_NET *249 0.00358368
*CONN
*I *1366:B I *D gf180mcu_fd_sc_mcu7t5v0__oai21_1
*I *1365:ZN O *D gf180mcu_fd_sc_mcu7t5v0__nand2_1
*CAP
1 *1366:B 0.000146059
2 *1365:ZN 0.000146059
3 *1366:B *1387:I1 1.65795e-06
4 *1366:B *1530:CLK 0.000147313
5 *1366:B *1635:I 0.000513687
6 *1366:B *311:30 0.000707712
7 *1366:B *328:47 3.71904e-05
8 *1366:B *330:6 2.22758e-05
9 *1366:B *331:16 0.000714913
10 *1366:B *400:36 0.00114682
*RES
1 *1365:ZN *1366:B 23.244 
*END

*D_NET *250 0.00227155
*CONN
*I *1368:B I *D gf180mcu_fd_sc_mcu7t5v0__aoi21_1
*I *1367:ZN O *D gf180mcu_fd_sc_mcu7t5v0__nor2_1
*CAP
1 *1368:B 0.000340799
2 *1367:ZN 0.000340799
3 *1368:B *1368:A2 8.00805e-05
4 *1368:B *1490:I 0.00033338
5 *1368:B *1528:CLK 0.000376901
6 *1368:B *311:30 4.94776e-05
7 *1368:B *328:6 2.6126e-05
8 *1368:B *328:10 0.000163481
9 *1368:B *342:50 0
10 *1368:B *398:10 7.22395e-05
11 *1366:A1 *1368:B 0.000403764
12 *1528:D *1368:B 8.45062e-05
*RES
1 *1367:ZN *1368:B 22.256 
*END

*D_NET *251 0.00283126
*CONN
*I *1370:B I *D gf180mcu_fd_sc_mcu7t5v0__aoi21_1
*I *1369:ZN O *D gf180mcu_fd_sc_mcu7t5v0__nor2_1
*CAP
1 *1370:B 0.000396925
2 *1369:ZN 0.000396925
3 *1370:B *1369:A1 0.000130952
4 *1370:B *1387:I1 0.000317494
5 *1370:B *1573:I 0.000447105
6 *1370:B *1614:I 0.000395183
7 *1370:B *294:41 0.000264178
8 *1368:A1 *1370:B 0.000172145
9 *1370:A1 *1370:B 0.000310356
*RES
1 *1369:ZN *1370:B 24.384 
*END

*D_NET *252 0.00270801
*CONN
*I *1372:B I *D gf180mcu_fd_sc_mcu7t5v0__aoi21_1
*I *1371:ZN O *D gf180mcu_fd_sc_mcu7t5v0__nor2_1
*CAP
1 *1372:B 0.000303626
2 *1371:ZN 0.000303626
3 *1372:B *1371:A2 0.000877721
4 *1372:B *341:18 0.00025189
5 *1372:B *341:42 0.000908052
6 *1372:B *348:55 3.73627e-05
7 *1372:B *396:14 0
8 *1538:RN *1372:B 2.5728e-05
*RES
1 *1371:ZN *1372:B 23.32 
*END

*D_NET *253 0.00108144
*CONN
*I *1374:B I *D gf180mcu_fd_sc_mcu7t5v0__aoi21_1
*I *1373:ZN O *D gf180mcu_fd_sc_mcu7t5v0__nor2_1
*CAP
1 *1374:B 0.000137401
2 *1373:ZN 0.000137401
3 *1374:B *1373:A1 0.000487639
4 *1374:B *1373:A2 0.000164013
5 *1374:B *327:20 4.58601e-06
6 *1374:B *342:50 0.000150396
*RES
1 *1373:ZN *1374:B 10.748 
*END

*D_NET *254 0.00159683
*CONN
*I *1376:B I *D gf180mcu_fd_sc_mcu7t5v0__aoi21_1
*I *1375:ZN O *D gf180mcu_fd_sc_mcu7t5v0__nor2_1
*CAP
1 *1376:B 8.2764e-05
2 *1375:ZN 8.2764e-05
3 *1376:B *1375:A1 0.000255714
4 *1376:B *348:33 0.000284006
5 *1532:RN *1376:B 0.000891586
*RES
1 *1375:ZN *1376:B 11.356 
*END

*D_NET *255 0.00530477
*CONN
*I *1612:I I *D gf180mcu_fd_sc_mcu7t5v0__dlyb_1
*I *1377:Z O *D gf180mcu_fd_sc_mcu7t5v0__and3_1
*CAP
1 *1612:I 0.000876276
2 *1377:Z 0.000876276
3 *1612:I *1343:A1 0.00032518
4 *1612:I *1383:A2 0.000178497
5 *1612:I *1387:I1 0.000356083
6 *1612:I *1388:A1 0.00219063
7 *1612:I *1521:CLK 7.14163e-05
8 *1612:I *1618:I 0.000379283
9 *1612:I *1619:I 1.75634e-05
10 *1612:I *325:10 0
11 *1521:D *1612:I 3.35593e-05
*RES
1 *1377:Z *1612:I 28.108 
*END

*D_NET *256 0.000216031
*CONN
*I *1379:B I *D gf180mcu_fd_sc_mcu7t5v0__aoi21_1
*I *1378:ZN O *D gf180mcu_fd_sc_mcu7t5v0__nor2_1
*CAP
1 *1379:B 0.000108015
2 *1378:ZN 0.000108015
*RES
1 *1378:ZN *1379:B 9.684 
*END

*D_NET *257 0.00122789
*CONN
*I *1381:B I *D gf180mcu_fd_sc_mcu7t5v0__oai21_1
*I *1380:ZN O *D gf180mcu_fd_sc_mcu7t5v0__nand2_1
*CAP
1 *1381:B 0.000322038
2 *1380:ZN 0.000322038
3 *1381:B *1262:A1 0
4 *1381:B *1381:A2 0
5 *1381:B *1473:I 8.38119e-05
6 *1381:B *1474:I 0.000441063
7 *1381:B *325:19 0
8 *1386:A1 *1381:B 4.43253e-05
9 *1520:RN *1381:B 1.46159e-05
*RES
1 *1380:ZN *1381:B 20.736 
*END

*D_NET *258 0.000595341
*CONN
*I *1383:B I *D gf180mcu_fd_sc_mcu7t5v0__oai21_1
*I *1382:ZN O *D gf180mcu_fd_sc_mcu7t5v0__nand2_1
*CAP
1 *1383:B 3.04828e-05
2 *1382:ZN 3.04828e-05
3 *1383:B *1387:I1 7.195e-05
4 *1383:B *1494:I 0.00031512
5 *1383:B *1619:I 0.000147305
*RES
1 *1382:ZN *1383:B 9.836 
*END

*D_NET *259 0.000821797
*CONN
*I *1386:B I *D gf180mcu_fd_sc_mcu7t5v0__oai21_1
*I *1385:ZN O *D gf180mcu_fd_sc_mcu7t5v0__nand2_1
*CAP
1 *1386:B 1.93597e-05
2 *1385:ZN 1.93597e-05
3 *1386:B *378:25 0.000252266
4 *1386:A1 *1386:B 0.000530811
*RES
1 *1385:ZN *1386:B 19.292 
*END

*D_NET *260 0.000859426
*CONN
*I *1389:B I *D gf180mcu_fd_sc_mcu7t5v0__oai21_1
*I *1388:ZN O *D gf180mcu_fd_sc_mcu7t5v0__nand2_1
*CAP
1 *1389:B 0.000207766
2 *1388:ZN 0.000207766
3 *1389:B *1261:A3 9.88736e-06
4 *1389:B *1388:A1 0.000326266
5 *1389:A1 *1389:B 0.00010774
*RES
1 *1388:ZN *1389:B 11.128 
*END

*D_NET *261 0.00334508
*CONN
*I *1401:A2 I *D gf180mcu_fd_sc_mcu7t5v0__xnor2_1
*I *1404:A3 I *D gf180mcu_fd_sc_mcu7t5v0__nor4_1
*I *1658:I I *D gf180mcu_fd_sc_mcu7t5v0__clkbuf_1
*I *1391:ZN O *D gf180mcu_fd_sc_mcu7t5v0__nor3_1
*CAP
1 *1401:A2 0.000206611
2 *1404:A3 2.46899e-05
3 *1658:I 0
4 *1391:ZN 0.000240804
5 *261:19 0.000269947
6 *261:8 0.00027945
7 *1401:A2 *1249:I 0
8 *1401:A2 *1401:A1 2.6126e-05
9 *1401:A2 *1404:A1 2.6126e-05
10 *1401:A2 *1404:A2 9.88736e-06
11 *1401:A2 *1579:I 0.000103053
12 *1401:A2 *418:6 0
13 *1404:A3 *1444:I1 0.000213194
14 *1404:A3 *1650:I 0.000206333
15 *261:8 *1394:A4 0
16 *261:8 *1579:I 0.000312057
17 *261:19 *1402:A1 0.000252663
18 *261:19 *1444:I1 5.66631e-05
19 *261:19 *1446:I 5.40848e-05
20 *261:19 *1579:I 1.97747e-05
21 *261:19 *1650:I 0.000252955
22 *1295:A4 *261:8 0
23 *1391:A2 *261:8 0.000656367
24 *1391:A2 *261:19 7.83779e-05
25 *1391:A3 *261:8 3.14479e-05
26 *1554:D *1401:A2 2.44693e-05
*RES
1 *1391:ZN *261:8 7.236 
2 *261:8 *1658:I 4.5 
3 *261:8 *261:19 5.564 
4 *261:19 *1404:A3 9.532 
5 *261:19 *1401:A2 10.596 
*END

*D_NET *262 0.000787786
*CONN
*I *1399:A2 I *D gf180mcu_fd_sc_mcu7t5v0__xor2_1
*I *1392:ZN O *D gf180mcu_fd_sc_mcu7t5v0__nand2_1
*CAP
1 *1399:A2 0.000192578
2 *1392:ZN 0.000192578
3 *1399:A2 *1392:A2 5.70161e-05
4 *1399:A2 *1400:A3 0.000255714
5 *1399:A2 *1557:CLK 2.62421e-05
6 *1399:A2 *420:16 6.36589e-05
*RES
1 *1392:ZN *1399:A2 10.672 
*END

*D_NET *263 0.000470623
*CONN
*I *1397:A2 I *D gf180mcu_fd_sc_mcu7t5v0__xor2_1
*I *1393:ZN O *D gf180mcu_fd_sc_mcu7t5v0__nand3_1
*CAP
1 *1397:A2 9.27263e-05
2 *1393:ZN 9.27263e-05
3 *1397:A2 *1557:CLK 1.985e-05
4 *1397:A2 *420:16 1.5015e-05
5 *1397:A2 *420:20 0.000171927
6 *1397:A2 *421:21 7.83779e-05
*RES
1 *1393:ZN *1397:A2 9.988 
*END

*D_NET *264 0.000408216
*CONN
*I *1395:A2 I *D gf180mcu_fd_sc_mcu7t5v0__xor2_1
*I *1394:ZN O *D gf180mcu_fd_sc_mcu7t5v0__nand4_1
*CAP
1 *1395:A2 0.000152856
2 *1394:ZN 0.000152856
3 *1395:A2 *1265:A2 4.22854e-06
4 *1395:A2 *1395:A1 3.07734e-05
5 *1395:A2 *316:57 0
6 *1395:A2 *420:30 6.7501e-05
*RES
1 *1394:ZN *1395:A2 9.988 
*END

*D_NET *265 0.00105804
*CONN
*I *1396:A3 I *D gf180mcu_fd_sc_mcu7t5v0__nor3_1
*I *1395:Z O *D gf180mcu_fd_sc_mcu7t5v0__xor2_1
*CAP
1 *1396:A3 0.000216569
2 *1395:Z 0.000216569
3 *1396:A3 *1395:A1 5.3266e-05
4 *1396:A3 *316:42 5.66946e-05
5 *1396:A3 *316:57 6.68265e-05
6 *1396:A3 *318:27 0.00033338
7 *1396:A3 *319:10 6.68508e-05
8 *1396:A3 *415:29 0
9 *1302:A3 *1396:A3 4.78829e-05
10 *1572:I *1396:A3 0
*RES
1 *1395:Z *1396:A3 20.28 
*END

*D_NET *266 0.000878388
*CONN
*I *1398:A3 I *D gf180mcu_fd_sc_mcu7t5v0__nor3_1
*I *1397:Z O *D gf180mcu_fd_sc_mcu7t5v0__xor2_1
*CAP
1 *1398:A3 0.000127281
2 *1397:Z 0.000127281
3 *1398:A3 *315:32 9.90639e-05
4 *1398:A3 *315:34 0
5 *1398:A3 *319:29 0.000412903
6 *1398:A3 *421:21 0.000111858
*RES
1 *1397:Z *1398:A3 19.672 
*END

*D_NET *267 0.00100384
*CONN
*I *1400:A3 I *D gf180mcu_fd_sc_mcu7t5v0__nor3_1
*I *1399:Z O *D gf180mcu_fd_sc_mcu7t5v0__xor2_1
*CAP
1 *1400:A3 9.72453e-05
2 *1399:Z 9.72453e-05
3 *1400:A3 *1446:I 0.000403764
4 *1400:A3 *1557:CLK 5.83188e-05
5 *1400:A3 *419:10 9.15568e-05
6 *1399:A2 *1400:A3 0.000255714
*RES
1 *1399:Z *1400:A3 19.672 
*END

*D_NET *268 0.00167185
*CONN
*I *1402:A3 I *D gf180mcu_fd_sc_mcu7t5v0__nor3_1
*I *1401:ZN O *D gf180mcu_fd_sc_mcu7t5v0__xnor2_1
*CAP
1 *1402:A3 0.000304242
2 *1401:ZN 0.000304242
3 *1402:A3 *1402:A1 0.000433917
4 *1402:A3 *1402:A2 0
5 *1402:A3 *1445:I 0.000469575
6 *1402:A3 *1579:I 6.63909e-05
7 *1555:D *1402:A3 9.34825e-05
*RES
1 *1401:ZN *1402:A3 21.192 
*END

*D_NET *269 0.000810837
*CONN
*I *1404:A4 I *D gf180mcu_fd_sc_mcu7t5v0__nor4_1
*I *1403:ZN O *D gf180mcu_fd_sc_mcu7t5v0__nor2_1
*CAP
1 *1404:A4 0.000122476
2 *1403:ZN 0.000122476
3 *1404:A4 *1249:I 2.88187e-05
4 *1404:A4 *1298:A2 7.24161e-06
5 *1404:A4 *1404:A2 2.98535e-05
6 *1404:A4 *316:57 2.30549e-05
7 *1404:A4 *418:6 0.000376901
8 *1404:A4 *418:12 6.00599e-05
9 *1554:D *1404:A4 3.99555e-05
*RES
1 *1403:ZN *1404:A4 10.672 
*END

*D_NET *270 0.00262411
*CONN
*I *1409:A2 I *D gf180mcu_fd_sc_mcu7t5v0__oai22_1
*I *1408:A2 I *D gf180mcu_fd_sc_mcu7t5v0__oai22_1
*I *1405:ZN O *D gf180mcu_fd_sc_mcu7t5v0__nand2_1
*CAP
1 *1409:A2 0.000235511
2 *1408:A2 0
3 *1405:ZN 0.00038027
4 *270:10 0.000615781
5 *1409:A2 *1626:I 0.000186796
6 *270:10 *1564:CLK 0.000999987
7 *1337:A2 *270:10 0
8 *1408:A1 *1409:A2 2.1182e-05
9 *1408:A1 *270:10 6.97958e-05
10 *1408:B2 *1409:A2 0.000114788
*RES
1 *1405:ZN *270:10 12.192 
2 *270:10 *1408:A2 9 
3 *270:10 *1409:A2 10.824 
*END

*D_NET *271 0.00478188
*CONN
*I *1420:A2 I *D gf180mcu_fd_sc_mcu7t5v0__aoi22_1
*I *1416:A2 I *D gf180mcu_fd_sc_mcu7t5v0__nand2_1
*I *1407:A2 I *D gf180mcu_fd_sc_mcu7t5v0__or2_1
*I *1413:A2 I *D gf180mcu_fd_sc_mcu7t5v0__nand2_1
*I *1406:Z O *D gf180mcu_fd_sc_mcu7t5v0__and2_1
*CAP
1 *1420:A2 0
2 *1416:A2 4.09135e-05
3 *1407:A2 0
4 *1413:A2 9.76247e-05
5 *1406:Z 0.000328665
6 *271:18 0.000259489
7 *271:12 0.000295235
8 *271:10 0.000421122
9 *1413:A2 *1410:B1 7.06927e-05
10 *1416:A2 *1421:A2 2.74661e-05
11 *1416:A2 *1569:CLK 9.26705e-05
12 *271:10 *1313:A3 0.000834471
13 *271:10 *1420:A1 0.000256307
14 *271:10 *1574:I 0.000640065
15 *271:10 *312:16 0.00024996
16 *271:12 *1420:A1 3.08902e-05
17 *271:12 *1421:A2 0.000317503
18 *271:12 *1569:CLK 0.000124462
19 *271:12 *272:31 2.76081e-05
20 *271:18 *1413:A1 3.78197e-05
21 *271:18 *1416:A1 1.04132e-05
22 *271:18 *1419:A1 0.000390052
23 *271:18 *1574:I 3.79907e-06
24 *237:6 *1413:A2 0.000149579
25 *237:29 *1413:A2 7.50749e-05
*RES
1 *1406:Z *271:10 18.44 
2 *271:10 *271:12 1.292 
3 *271:12 *271:18 10.292 
4 *271:18 *1413:A2 5.64 
5 *271:18 *1407:A2 4.5 
6 *271:12 *1416:A2 4.956 
7 *271:10 *1420:A2 4.5 
*END

*D_NET *272 0.00779716
*CONN
*I *1408:B1 I *D gf180mcu_fd_sc_mcu7t5v0__oai22_1
*I *1409:B1 I *D gf180mcu_fd_sc_mcu7t5v0__oai22_1
*I *1410:B1 I *D gf180mcu_fd_sc_mcu7t5v0__oai32_1
*I *1407:Z O *D gf180mcu_fd_sc_mcu7t5v0__or2_1
*CAP
1 *1408:B1 7.81554e-05
2 *1409:B1 0
3 *1410:B1 0.000299454
4 *1407:Z 2.73362e-05
5 *272:31 0.000827429
6 *272:6 0.00107606
7 *1408:B1 *1626:I 1.72912e-05
8 *1408:B1 *1663:I 2.11395e-05
9 *1410:B1 *1312:A1 8.55327e-05
10 *1410:B1 *1419:A1 5.71282e-05
11 *1410:B1 *1421:A2 0.00123675
12 *1410:B1 *406:45 0.000777537
13 *272:31 *1418:A2 7.98466e-05
14 *272:31 *1419:A1 9.88736e-06
15 *272:31 *1420:B1 0.000188512
16 *272:31 *1420:B2 0.000140167
17 *272:31 *1421:A2 6.22405e-05
18 *272:31 *1563:CLK 0.000826898
19 *272:31 *1663:I 7.40455e-05
20 *1303:A1 *272:31 0.000770579
21 *1408:A1 *1408:B1 0.000124318
22 *1408:A1 *272:31 9.88736e-06
23 *1408:B2 *1408:B1 0.000139333
24 *1409:A1 *1408:B1 1.5015e-05
25 *1409:A1 *272:31 0.000171927
26 *1409:B2 *272:31 8.95196e-05
27 *1410:B2 *1410:B1 3.00299e-05
28 *1413:A2 *1410:B1 7.06927e-05
29 *1417:A1 *272:31 0.000200362
30 *1562:D *1410:B1 0.000243507
31 *1563:D *272:31 2.9378e-06
32 *209:12 *272:31 0
33 *237:6 *1410:B1 0
34 *237:29 *1410:B1 2.40328e-06
35 *237:29 *272:31 1.36289e-05
36 *271:12 *272:31 2.76081e-05
*RES
1 *1407:Z *272:6 4.728 
2 *272:6 *1410:B1 9.44 
3 *272:6 *272:31 8.284 
4 *272:31 *1409:B1 4.5 
5 *272:31 *1408:B1 5.64 
*END

*D_NET *273 0.00803214
*CONN
*I *1420:B1 I *D gf180mcu_fd_sc_mcu7t5v0__aoi22_1
*I *1418:A1 I *D gf180mcu_fd_sc_mcu7t5v0__oai21_1
*I *1414:A2 I *D gf180mcu_fd_sc_mcu7t5v0__oai21_1
*I *1411:ZN O *D gf180mcu_fd_sc_mcu7t5v0__nor2_1
*CAP
1 *1420:B1 0.000298428
2 *1418:A1 0
3 *1414:A2 0.000285712
4 *1411:ZN 0
5 *273:12 0.000531215
6 *273:6 0.000543931
7 *1414:A2 *1307:A2 9.65242e-05
8 *1414:A2 *1414:B 1.65795e-06
9 *1414:A2 *1419:A1 0.000156912
10 *1414:A2 *1419:A2 0.00109034
11 *1414:A2 *1561:CLK 1.79941e-05
12 *1414:A2 *1664:I 0.00018816
13 *1414:A2 *312:16 1.15275e-05
14 *1414:A2 *409:14 8.18282e-05
15 *1420:B1 *1418:A2 8.28483e-05
16 *1420:B1 *1420:A1 8.69862e-05
17 *1420:B1 *1453:I 0.000884859
18 *1420:B1 *1563:CLK 0.000362608
19 *1420:B1 *1569:CLK 2.41855e-05
20 *1420:B1 *337:44 1.97747e-05
21 *1420:B1 *339:8 0.000690342
22 *273:12 *1418:A2 0.000572969
23 *273:12 *1453:I 0.000288172
24 *273:12 *296:14 0.000496526
25 *273:12 *296:38 4.2318e-06
26 *273:12 *409:8 5.69191e-05
27 *273:12 *409:14 8.09458e-05
28 *1412:A2 *1414:A2 1.02578e-05
29 *1417:A1 *1420:B1 7.51381e-05
30 *1561:D *1414:A2 1.5015e-05
31 *212:12 *1414:A2 2.84711e-05
32 *213:20 *1420:B1 0.000759154
33 *272:31 *1420:B1 0.000188512
*RES
1 *1411:ZN *273:6 9 
2 *273:6 *273:12 7.996 
3 *273:12 *1414:A2 8.832 
4 *273:12 *1418:A1 4.5 
5 *273:6 *1420:B1 14.548 
*END

*D_NET *274 0.00300649
*CONN
*I *1415:A1 I *D gf180mcu_fd_sc_mcu7t5v0__nand2_1
*I *1413:ZN O *D gf180mcu_fd_sc_mcu7t5v0__nand2_1
*CAP
1 *1415:A1 0.000423408
2 *1413:ZN 0.000423408
3 *1415:A1 *1412:A1 0.000262996
4 *1415:A1 *1415:A2 7.54503e-05
5 *1415:A1 *1419:A1 0
6 *1415:A1 *1561:CLK 8.95196e-05
7 *1415:A1 *410:8 0.000590289
8 *1415:A1 *410:10 0.00062586
9 *1561:D *1415:A1 8.18373e-05
10 *159:12 *1415:A1 0
11 *209:12 *1415:A1 0.000236501
12 *209:16 *1415:A1 0.00019722
*RES
1 *1413:ZN *1415:A1 23.472 
*END

*D_NET *275 0.000331375
*CONN
*I *1415:A2 I *D gf180mcu_fd_sc_mcu7t5v0__nand2_1
*I *1414:ZN O *D gf180mcu_fd_sc_mcu7t5v0__oai21_1
*CAP
1 *1415:A2 9.37897e-05
2 *1414:ZN 9.37897e-05
3 *1415:A2 *1419:A1 6.83457e-05
4 *1415:A1 *1415:A2 7.54503e-05
*RES
1 *1414:ZN *1415:A2 18.988 
*END

*D_NET *276 0.00326286
*CONN
*I *1419:A1 I *D gf180mcu_fd_sc_mcu7t5v0__nand2_1
*I *1416:ZN O *D gf180mcu_fd_sc_mcu7t5v0__nand2_1
*CAP
1 *1419:A1 0.000784356
2 *1416:ZN 0.000784356
3 *1419:A1 *1307:A1 8.0332e-05
4 *1419:A1 *1413:A1 0
5 *1419:A1 *1419:A2 3.08902e-05
6 *1419:A1 *1420:B2 0.000319529
7 *1419:A1 *1421:A2 0.000137776
8 *1419:A1 *1561:CLK 8.22324e-05
9 *1419:A1 *1574:I 2.75234e-05
10 *1419:A1 *408:32 3.11649e-05
11 *1410:B1 *1419:A1 5.71282e-05
12 *1414:A2 *1419:A1 0.000156912
13 *1415:A1 *1419:A1 0
14 *1415:A2 *1419:A1 6.83457e-05
15 *209:12 *1419:A1 0.000161424
16 *209:16 *1419:A1 0.000140955
17 *271:18 *1419:A1 0.000390052
18 *272:31 *1419:A1 9.88736e-06
*RES
1 *1416:ZN *1419:A1 25.372 
*END

*D_NET *277 0.00421734
*CONN
*I *1418:A2 I *D gf180mcu_fd_sc_mcu7t5v0__oai21_1
*I *1417:ZN O *D gf180mcu_fd_sc_mcu7t5v0__nor2_1
*CAP
1 *1418:A2 0.000489164
2 *1417:ZN 0.000489164
3 *1418:A2 *296:14 3.19854e-05
4 *1418:A2 *296:38 2.17248e-05
5 *1418:A2 *409:21 1.52691e-05
6 *1338:B *1418:A2 0
7 *1417:A1 *1418:A2 7.98466e-05
8 *1420:B1 *1418:A2 8.28483e-05
9 *213:20 *1418:A2 0.000587169
10 *233:18 *1418:A2 5.57607e-05
11 *233:24 *1418:A2 0.00171159
12 *272:31 *1418:A2 7.98466e-05
13 *273:12 *1418:A2 0.000572969
*RES
1 *1417:ZN *1418:A2 33.688 
*END

*D_NET *278 0.00170312
*CONN
*I *1419:A2 I *D gf180mcu_fd_sc_mcu7t5v0__nand2_1
*I *1418:ZN O *D gf180mcu_fd_sc_mcu7t5v0__oai21_1
*CAP
1 *1419:A2 0.00015519
2 *1418:ZN 0.00015519
3 *1419:A2 *1561:CLK 5.76373e-06
4 *1419:A2 *296:16 4.13778e-05
5 *1419:A2 *296:38 1.91917e-06
6 *1414:A2 *1419:A2 0.00109034
7 *1419:A1 *1419:A2 3.08902e-05
8 *1560:D *1419:A2 0.000222453
*RES
1 *1418:ZN *1419:A2 11.812 
*END

*D_NET *279 0.00535441
*CONN
*I *1421:A2 I *D gf180mcu_fd_sc_mcu7t5v0__nand2_1
*I *1420:ZN O *D gf180mcu_fd_sc_mcu7t5v0__aoi22_1
*CAP
1 *1421:A2 0.00103032
2 *1420:ZN 0.00103032
3 *1421:A2 *1250:I 0
4 *1421:A2 *1311:A1 9.26705e-05
5 *1421:A2 *1311:A2 6.62006e-05
6 *1421:A2 *1335:A1 0
7 *1421:A2 *1569:CLK 3.07734e-05
8 *1421:A2 *1624:I 4.91711e-05
9 *1421:A2 *408:12 0.000237624
10 *1312:A3 *1421:A2 0.000193942
11 *1410:B1 *1421:A2 0.00123675
12 *1416:A2 *1421:A2 2.74661e-05
13 *1419:A1 *1421:A2 0.000137776
14 *1559:D *1421:A2 9.58397e-05
15 *1562:D *1421:A2 0.000265189
16 *1567:SETN *1421:A2 0
17 *1568:D *1421:A2 0.000317494
18 *1620:I *1421:A2 0.000142617
19 *217:16 *1421:A2 2.05084e-05
20 *239:12 *1421:A2 0
21 *271:12 *1421:A2 0.000317503
22 *272:31 *1421:A2 6.22405e-05
*RES
1 *1420:ZN *1421:A2 28.564 
*END

*D_NET *280 0.00134969
*CONN
*I *1427:A2 I *D gf180mcu_fd_sc_mcu7t5v0__nand2_1
*I *1423:ZN O *D gf180mcu_fd_sc_mcu7t5v0__nand2_1
*CAP
1 *1427:A2 0.000320497
2 *1423:ZN 0.000320497
3 *1427:A2 *1481:I 0
4 *1280:A1 *1427:A2 6.23053e-05
5 *1287:A2 *1427:A2 7.50749e-05
6 *1427:A1 *1427:A2 1.91917e-06
7 *168:14 *1427:A2 0.000569392
*RES
1 *1423:ZN *1427:A2 11.584 
*END

*D_NET *281 0.00199534
*CONN
*I *1425:A3 I *D gf180mcu_fd_sc_mcu7t5v0__nor3_1
*I *1424:ZN O *D gf180mcu_fd_sc_mcu7t5v0__xnor2_1
*CAP
1 *1425:A3 0.000227917
2 *1424:ZN 0.000227917
3 *1425:A3 *1278:A2 7.83779e-05
4 *1425:A3 *1358:I1 0.000112444
5 *1425:A3 *1424:A1 7.79953e-05
6 *1425:A3 *1509:CLK 2.22562e-05
7 *1425:A3 *1641:I 0.000376901
8 *1425:A3 *383:14 0.00043472
9 *1425:A3 *426:29 0.000351087
10 *1533:D *1425:A3 8.57291e-05
*RES
1 *1424:ZN *1425:A3 21.192 
*END

*D_NET *282 0.00714961
*CONN
*I *1430:A2 I *D gf180mcu_fd_sc_mcu7t5v0__nor2_1
*I *1431:A2 I *D gf180mcu_fd_sc_mcu7t5v0__and2_1
*I *1428:A1 I *D gf180mcu_fd_sc_mcu7t5v0__nand2_1
*I *1426:ZN O *D gf180mcu_fd_sc_mcu7t5v0__nand3_1
*CAP
1 *1430:A2 0.000194983
2 *1431:A2 5.77282e-05
3 *1428:A1 5.77177e-05
4 *1426:ZN 0.000512148
5 *282:21 0.000295559
6 *282:8 0.000612714
7 *1428:A1 *1279:A2 0.000723715
8 *1428:A1 *1428:A2 0.000201034
9 *1430:A2 *1279:A2 0.000257276
10 *1430:A2 *313:27 0.000146622
11 *1431:A2 *306:6 0.000474992
12 *1431:A2 *306:30 0.000189264
13 *1431:A2 *313:27 0.00063813
14 *282:8 *1259:I 3.60237e-05
15 *282:8 *1426:A1 7.32209e-05
16 *282:8 *1510:CLK 4.35482e-05
17 *282:8 *306:6 3.14789e-05
18 *282:8 *335:20 9.08442e-05
19 *282:8 *426:12 2.11447e-05
20 *282:21 *1279:A2 0.000372314
21 *1274:B1 *1428:A1 2.05156e-05
22 *1280:A1 *282:8 3.49925e-05
23 *1280:B *1428:A1 0.000552731
24 *1280:C *282:8 0.00063813
25 *1430:A1 *1430:A2 6.85351e-05
26 *1431:A1 *282:8 4.39988e-05
27 *1511:D *1430:A2 0.000194414
28 *167:10 *1430:A2 7.69927e-05
29 *167:10 *282:21 2.41778e-05
30 *167:31 *1428:A1 0.000332881
31 *167:31 *282:21 0.000115775
32 *168:14 *282:8 1.60094e-05
*RES
1 *1426:ZN *282:8 13.028 
2 *282:8 *1428:A1 11.584 
3 *282:8 *282:21 0.988 
4 *282:21 *1431:A2 10.748 
5 *282:21 *1430:A2 11.356 
*END

*D_NET *283 0.00119094
*CONN
*I *1428:A2 I *D gf180mcu_fd_sc_mcu7t5v0__nand2_1
*I *1427:ZN O *D gf180mcu_fd_sc_mcu7t5v0__nand2_1
*CAP
1 *1428:A2 0.000179321
2 *1427:ZN 0.000179321
3 *1428:A2 *1429:A3 6.95464e-05
4 *1274:B1 *1428:A2 0.00052013
5 *1428:A1 *1428:A2 0.000201034
6 *167:31 *1428:A2 4.15887e-05
*RES
1 *1427:ZN *1428:A2 11.204 
*END

*D_NET *284 0.00367108
*CONN
*I *1429:A3 I *D gf180mcu_fd_sc_mcu7t5v0__nor3_1
*I *1428:ZN O *D gf180mcu_fd_sc_mcu7t5v0__nand2_1
*CAP
1 *1429:A3 0.000446684
2 *1428:ZN 0.000446684
3 *1429:A3 *1242:I 0.000272884
4 *1429:A3 *1638:I 0.001331
5 *1280:A2 *1429:A3 0.000134113
6 *1287:A2 *1429:A3 0.000679821
7 *1428:A2 *1429:A3 6.95464e-05
8 *167:31 *1429:A3 0.000290354
*RES
1 *1428:ZN *1429:A3 23.7 
*END

*D_NET *285 0.00156486
*CONN
*I *1434:A2 I *D gf180mcu_fd_sc_mcu7t5v0__nor2_1
*I *1432:A3 I *D gf180mcu_fd_sc_mcu7t5v0__nor4_1
*I *1433:A2 I *D gf180mcu_fd_sc_mcu7t5v0__and2_1
*I *1430:ZN O *D gf180mcu_fd_sc_mcu7t5v0__nor2_1
*CAP
1 *1434:A2 3.28034e-05
2 *1432:A3 0.000280951
3 *1433:A2 0.000111349
4 *1430:ZN 0.000166022
5 *285:22 0.000368427
6 *1432:A3 *1435:A4 3.07734e-05
7 *1432:A3 *287:10 0
8 *1432:A3 *313:27 0
9 *1433:A2 *1435:A1 0
10 *1433:A2 *1598:I 8.8425e-05
11 *1433:A2 *313:10 0
12 *1433:A2 *429:18 0.000170075
13 *1430:A1 *1432:A3 0.000316029
14 *1607:I *1433:A2 0
*RES
1 *1430:ZN *1433:A2 19.14 
2 *1430:ZN *285:22 4.88 
3 *285:22 *1432:A3 6.704 
4 *285:22 *1434:A2 4.728 
*END

*D_NET *286 0.000641822
*CONN
*I *1432:A4 I *D gf180mcu_fd_sc_mcu7t5v0__nor4_1
*I *1431:Z O *D gf180mcu_fd_sc_mcu7t5v0__and2_1
*CAP
1 *1432:A4 0.000228173
2 *1431:Z 0.000228173
3 *1432:A4 *1429:A2 1.17551e-05
4 *1432:A4 *1432:A2 0
5 *1432:A4 *313:27 0.000122898
6 *1430:A1 *1432:A4 1.97992e-05
7 *1510:D *1432:A4 3.10238e-05
*RES
1 *1431:Z *1432:A4 10.672 
*END

*D_NET *287 0.00716272
*CONN
*I *1439:A3 I *D gf180mcu_fd_sc_mcu7t5v0__nand3_1
*I *1436:A2 I *D gf180mcu_fd_sc_mcu7t5v0__nand2_1
*I *1437:A2 I *D gf180mcu_fd_sc_mcu7t5v0__xnor2_1
*I *1435:A3 I *D gf180mcu_fd_sc_mcu7t5v0__nor4_1
*I *1433:Z O *D gf180mcu_fd_sc_mcu7t5v0__and2_1
*CAP
1 *1439:A3 7.0473e-05
2 *1436:A2 1.39283e-05
3 *1437:A2 4.3384e-05
4 *1435:A3 0
5 *1433:Z 0.000247901
6 *287:33 0.000648166
7 *287:27 0.000993185
8 *287:10 0.00057976
9 *1436:A2 *1437:A1 0.000172284
10 *1436:A2 *1438:A2 2.71301e-05
11 *1436:A2 *1438:A3 0.000269865
12 *1437:A2 *1437:A1 0.000260517
13 *1437:A2 *1438:A3 8.8425e-05
14 *1437:A2 *1441:A1 0
15 *1437:A2 *336:17 9.61205e-06
16 *1439:A3 *1604:I 0.000247234
17 *1439:A3 *430:47 0.000651006
18 *287:10 *313:10 3.84832e-06
19 *287:10 *313:27 0.000379274
20 *287:10 *335:12 1.5015e-05
21 *287:10 *335:20 0.000107029
22 *287:27 *1604:I 0.000222333
23 *287:27 *313:10 2.17248e-05
24 *287:27 *335:12 9.75898e-05
25 *287:27 *430:47 0.000653285
26 *287:33 *1437:A1 5.76749e-06
27 *287:33 *1443:A2 0.000216573
28 *287:33 *1443:A3 0.000379283
29 *287:33 *1606:I 7.67761e-05
30 *287:33 *1640:I 0
31 *287:33 *336:17 4.01712e-05
32 *1432:A3 *287:10 0
33 *1512:D *287:10 0.000122017
34 *1515:D *287:33 1.97747e-05
35 *1607:I *287:27 7.7589e-05
36 *1621:I *287:27 0.000386421
37 *190:14 *287:27 1.53758e-05
*RES
1 *1433:Z *287:10 6.856 
2 *287:10 *1435:A3 4.5 
3 *287:10 *287:27 8.832 
4 *287:27 *287:33 13.18 
5 *287:33 *1437:A2 9.76 
6 *287:33 *1436:A2 9.684 
7 *287:27 *1439:A3 10.596 
*END

*D_NET *288 0.00140702
*CONN
*I *1435:A4 I *D gf180mcu_fd_sc_mcu7t5v0__nor4_1
*I *1434:ZN O *D gf180mcu_fd_sc_mcu7t5v0__nor2_1
*CAP
1 *1435:A4 0.00059468
2 *1434:ZN 0.00059468
3 *1435:A4 *1603:I 2.22657e-05
4 *1432:A3 *1435:A4 3.07734e-05
5 *1512:D *1435:A4 0.000151949
6 *1607:I *1435:A4 1.26706e-05
*RES
1 *1434:ZN *1435:A4 21.8 
*END

*D_NET *289 0.00133551
*CONN
*I *1440:A2 I *D gf180mcu_fd_sc_mcu7t5v0__xor2_1
*I *1436:ZN O *D gf180mcu_fd_sc_mcu7t5v0__nand2_1
*CAP
1 *1440:A2 0.000117559
2 *1436:ZN 0.000117559
3 *1440:A2 *316:25 0
4 *1440:A2 *336:6 0.000313673
5 *1440:A2 *336:17 6.14317e-05
6 *1440:A2 *431:25 0.000725285
*RES
1 *1436:ZN *1440:A2 11.28 
*END

*D_NET *290 0.0011374
*CONN
*I *1438:A3 I *D gf180mcu_fd_sc_mcu7t5v0__nor3_1
*I *1437:ZN O *D gf180mcu_fd_sc_mcu7t5v0__xnor2_1
*CAP
1 *1438:A3 0.00026938
2 *1437:ZN 0.00026938
3 *1438:A3 *1438:A2 0.000152155
4 *1438:A3 *1441:A1 6.72744e-05
5 *1438:A3 *316:8 1.45899e-05
6 *1438:A3 *430:8 6.33531e-06
7 *1436:A2 *1438:A3 0.000269865
8 *1437:A2 *1438:A3 8.8425e-05
*RES
1 *1437:ZN *1438:A3 20.508 
*END

*D_NET *291 0.0031492
*CONN
*I *1442:A2 I *D gf180mcu_fd_sc_mcu7t5v0__xor2_1
*I *1439:ZN O *D gf180mcu_fd_sc_mcu7t5v0__nand3_1
*CAP
1 *1442:A2 0.000269127
2 *1439:ZN 0.000269127
3 *1442:A2 *1281:A2 1.02578e-05
4 *1442:A2 *1284:B1 0.000278996
5 *1442:A2 *1515:CLK 7.24161e-06
6 *1442:A2 *1640:I 0.000396912
7 *1442:A2 *430:47 0.00150377
8 *1442:A2 *432:8 0.000324316
9 *1442:A2 *432:34 2.22758e-05
10 *1621:I *1442:A2 2.90501e-05
11 *189:10 *1442:A2 3.81285e-05
*RES
1 *1439:ZN *1442:A2 23.168 
*END

*D_NET *292 0.00082785
*CONN
*I *1441:A3 I *D gf180mcu_fd_sc_mcu7t5v0__nor3_1
*I *1440:Z O *D gf180mcu_fd_sc_mcu7t5v0__xor2_1
*CAP
1 *1441:A3 0.000205265
2 *1440:Z 0.000205265
3 *1441:A3 *1441:A2 4.00026e-06
4 *1441:A3 *336:6 0.000345541
5 *1514:D *1441:A3 6.77785e-05
*RES
1 *1440:Z *1441:A3 10.976 
*END

*D_NET *293 0.00193454
*CONN
*I *1443:A3 I *D gf180mcu_fd_sc_mcu7t5v0__nor3_1
*I *1442:Z O *D gf180mcu_fd_sc_mcu7t5v0__xor2_1
*CAP
1 *1443:A3 0.000236509
2 *1442:Z 0.000236509
3 *1443:A3 *1600:I 1.83741e-05
4 *1443:A3 *1606:I 4.10312e-05
5 *1443:A3 *354:53 0
6 *1443:A3 *432:8 0.000236296
7 *1515:D *1443:A3 0.000786534
8 *287:33 *1443:A3 0.000379283
*RES
1 *1442:Z *1443:A3 21.496 
*END

*D_NET *294 0.0389951
*CONN
*I *1578:I I *D gf180mcu_fd_sc_mcu7t5v0__clkbuf_8
*I *1586:I I *D gf180mcu_fd_sc_mcu7t5v0__clkbuf_8
*I *1579:I I *D gf180mcu_fd_sc_mcu7t5v0__clkbuf_8
*I *1577:I I *D gf180mcu_fd_sc_mcu7t5v0__clkbuf_8
*I *1576:I I *D gf180mcu_fd_sc_mcu7t5v0__clkbuf_8
*I *1575:I I *D gf180mcu_fd_sc_mcu7t5v0__clkbuf_8
*I *1574:I I *D gf180mcu_fd_sc_mcu7t5v0__clkbuf_8
*I *1588:I I *D gf180mcu_fd_sc_mcu7t5v0__clkbuf_8
*I *1587:I I *D gf180mcu_fd_sc_mcu7t5v0__clkbuf_8
*I *1585:I I *D gf180mcu_fd_sc_mcu7t5v0__clkbuf_8
*I *1582:I I *D gf180mcu_fd_sc_mcu7t5v0__clkbuf_8
*I *1581:I I *D gf180mcu_fd_sc_mcu7t5v0__clkbuf_8
*I *1580:I I *D gf180mcu_fd_sc_mcu7t5v0__clkbuf_8
*I *1573:I I *D gf180mcu_fd_sc_mcu7t5v0__clkbuf_8
*I *1584:I I *D gf180mcu_fd_sc_mcu7t5v0__clkbuf_8
*I *1583:I I *D gf180mcu_fd_sc_mcu7t5v0__clkbuf_8
*I *1572:Z O *D gf180mcu_fd_sc_mcu7t5v0__clkbuf_16
*CAP
1 *1578:I 0.000370789
2 *1586:I 0.000207783
3 *1579:I 0.00157985
4 *1577:I 6.61596e-05
5 *1576:I 0
6 *1575:I 0.000289014
7 *1574:I 0.000424526
8 *1588:I 0
9 *1587:I 0.000779729
10 *1585:I 0.000513514
11 *1582:I 0
12 *1581:I 0.00079107
13 *1580:I 0
14 *1573:I 0.000509615
15 *1584:I 6.40681e-05
16 *1583:I 0
17 *1572:Z 0
18 *294:171 0.00152949
19 *294:161 0.000663347
20 *294:131 0.00130811
21 *294:115 0.000823627
22 *294:99 0.00149331
23 *294:97 0.00117172
24 *294:65 0.00121389
25 *294:63 0.000728546
26 *294:41 0.00055676
27 *294:19 0.000835555
28 *294:9 0.00158462
29 *294:7 0.00177779
30 *294:5 0.00128992
31 *1573:I *1330:A4 5.16015e-05
32 *1573:I *1492:I 0.0011617
33 *1573:I *341:18 4.27512e-05
34 *1573:I *351:12 0.000178892
35 *1573:I *397:12 0.000410412
36 *1574:I *1313:A1 0.000151728
37 *1574:I *1313:A2 7.01371e-05
38 *1574:I *1416:A1 0
39 *1574:I *1420:A1 1.81924e-05
40 *1574:I *1420:B2 0.000104569
41 *1574:I *1624:I 0
42 *1574:I *312:16 7.83988e-05
43 *1575:I *1313:A3 5.74966e-05
44 *1575:I *1313:B 0
45 *1575:I *1624:I 7.4207e-05
46 *1575:I *1646:I 0.000175135
47 *1578:I *1503:I 6.32837e-05
48 *1578:I *1549:CLK 0
49 *1578:I *301:10 0
50 *1579:I *1257:I 8.61613e-06
51 *1579:I *1401:A1 1.76898e-05
52 *1579:I *1402:A1 0.000132959
53 *1579:I *1404:A1 2.96621e-05
54 *1579:I *1503:I 0
55 *1579:I *1555:CLK 3.3859e-05
56 *1579:I *301:10 0
57 *1579:I *316:57 3.95341e-05
58 *1579:I *319:40 0.000264032
59 *1579:I *418:12 0
60 *1579:I *423:14 5.76063e-06
61 *1581:I *1232:I 0
62 *1581:I *1356:A1 0
63 *1581:I *1385:A1 4.83197e-05
64 *1581:I *1635:I 0
65 *1581:I *328:47 1.34641e-06
66 *1584:I *335:26 0.00017887
67 *1585:I *1361:A1 0.000143665
68 *1585:I *1385:A1 6.12154e-05
69 *1585:I *329:10 1.37792e-05
70 *1585:I *354:29 0.000129399
71 *1585:I *389:8 8.66794e-05
72 *1586:I *1236:I 6.87085e-05
73 *1586:I *1600:I 0.000217148
74 *1586:I *354:23 7.10298e-05
75 *1586:I *354:53 1.94106e-05
76 *1586:I *389:8 1.00624e-05
77 *1586:I *432:14 4.02833e-05
78 *1587:I *1631:I 0
79 *1587:I *1645:I 2.08286e-05
80 *1587:I *360:25 0
81 *1587:I *363:52 0.000894158
82 *1587:I *406:10 2.30587e-05
83 *1587:I *406:12 0
84 *1587:I *406:36 0
85 *294:7 *1380:A1 8.44693e-06
86 *294:7 *1385:A1 0.000177098
87 *294:7 *1385:A2 0.00014952
88 *294:7 *1386:A2 0
89 *294:7 *1389:A2 9.4813e-05
90 *294:7 *1616:I 0.000113154
91 *294:7 *307:6 1.48331e-05
92 *294:7 *364:13 0.000203653
93 *294:9 *1363:A1 3.92183e-05
94 *294:9 *1363:A2 5.71037e-06
95 *294:9 *1483:I 0.000357467
96 *294:9 *1599:I 5.77444e-06
97 *294:9 *1616:I 0.000511658
98 *294:9 *307:6 7.11508e-05
99 *294:19 *1369:A2 0
100 *294:19 *1482:I 1.22037e-05
101 *294:19 *1597:I 0
102 *294:19 *1637:I 2.54419e-05
103 *294:19 *305:10 0.000123074
104 *294:19 *335:26 0.000120162
105 *294:19 *347:43 0.000186502
106 *294:19 *384:10 5.80857e-05
107 *294:19 *384:19 9.42185e-05
108 *294:41 *1369:A1 6.00886e-05
109 *294:41 *1492:I 0.00012053
110 *294:65 *1361:A1 4.21332e-05
111 *294:65 *1361:A2 0.000116928
112 *294:65 *1385:A1 0.000293974
113 *294:65 *307:19 0
114 *294:65 *328:47 6.05196e-05
115 *294:97 *1387:I0 2.62421e-05
116 *294:97 *364:13 0.000447932
117 *294:97 *376:14 0.000115353
118 *294:99 *1261:A2 0
119 *294:99 *298:10 0.000238682
120 *294:99 *298:14 0.000510019
121 *294:99 *359:26 5.10632e-05
122 *294:99 *363:52 5.26649e-05
123 *294:115 *1646:I 0.000409033
124 *294:115 *311:30 9.88736e-06
125 *294:115 *311:36 0.000406711
126 *294:115 *363:52 0.000221741
127 *294:131 *1313:A2 1.63277e-05
128 *294:131 *1313:A3 4.08693e-05
129 *294:131 *1624:I 0.00016664
130 *294:131 *1646:I 0.000447609
131 *294:131 *311:36 0.000100042
132 *294:161 *1261:A2 0
133 *294:161 *298:10 0.000126964
134 *294:161 *418:12 1.01183e-05
135 *294:171 *1566:D 0.000114943
136 *294:171 *418:12 2.84711e-05
137 *294:171 *423:14 9.27168e-05
138 *1263:A1 *294:7 0.000136175
139 *1263:A1 *294:97 7.77575e-05
140 *1270:A1 *294:161 4.1074e-05
141 *1278:A1 *294:19 7.46904e-05
142 *1279:B2 *294:19 0.000100524
143 *1280:B *1584:I 0.000104777
144 *1280:B *294:19 1.00624e-05
145 *1281:A1 *1586:I 2.8765e-05
146 *1281:B2 *1586:I 5.63659e-05
147 *1293:A2 *1577:I 0.000118643
148 *1297:A1 *1579:I 5.92062e-05
149 *1297:A1 *294:171 0
150 *1310:A3 *1575:I 0.000181456
151 *1342:A1 *1581:I 3.58116e-05
152 *1360:A1 *1581:I 5.52776e-05
153 *1362:B *294:65 0.000233187
154 *1364:B *294:9 6.56265e-05
155 *1368:A1 *1573:I 0
156 *1370:A1 *294:19 0
157 *1370:B *1573:I 0.000447105
158 *1370:B *294:41 0.000264178
159 *1372:A1 *294:19 3.19244e-05
160 *1379:A1 *1585:I 0
161 *1391:A2 *1579:I 9.84322e-05
162 *1391:A3 *1579:I 0
163 *1401:A2 *1579:I 0.000103053
164 *1402:A3 *1579:I 6.63909e-05
165 *1419:A1 *1574:I 2.75234e-05
166 *1517:RN *294:161 0.000158342
167 *1518:D *1587:I 6.54978e-05
168 *1518:D *294:99 0.00034326
169 *1519:D *294:7 0
170 *1521:RN *294:7 2.95314e-05
171 *1527:D *294:9 0
172 *1527:D *294:19 0
173 *1528:RN *294:9 4.46991e-05
174 *1531:D *294:7 4.70049e-06
175 *1541:RN *1581:I 2.97354e-06
176 *1542:D *1581:I 0.000630121
177 *1542:RN *294:7 0
178 *1549:D *1578:I 0
179 *1549:RN *1578:I 0.000265167
180 *1572:I *1579:I 0.000243045
181 *1572:I *294:161 2.976e-05
182 *1572:I *294:171 0.000282761
183 *1617:I *1581:I 0.000684584
184 *141:25 *1581:I 4.89423e-05
185 *143:8 *294:7 8.58124e-05
186 *149:8 *294:19 0
187 *150:6 *294:19 9.44117e-05
188 *154:6 *294:7 0
189 *154:23 *294:7 0
190 *201:14 *1577:I 6.21314e-05
191 *201:14 *294:171 1.93526e-05
192 *218:10 *1575:I 1.34164e-05
193 *233:18 *294:131 2.10839e-05
194 *261:8 *1579:I 0.000312057
195 *261:19 *1579:I 1.97747e-05
196 *271:10 *1574:I 0.000640065
197 *271:18 *1574:I 3.79907e-06
*RES
1 *1572:Z *294:5 4.5 
2 *294:5 *294:7 7.676 
3 *294:7 *294:9 6.46 
4 *294:9 *294:19 11.036 
5 *294:19 *1583:I 9 
6 *294:19 *1584:I 9.988 
7 *294:9 *294:41 5.792 
8 *294:41 *1573:I 16.296 
9 *294:41 *1580:I 9 
10 *294:7 *294:63 4.5 
11 *294:63 *294:65 4.332 
12 *294:65 *1581:I 16.068 
13 *294:65 *1582:I 9 
14 *294:63 *1585:I 12.116 
15 *294:5 *294:97 7.312 
16 *294:97 *294:99 5.852 
17 *294:99 *1587:I 14.928 
18 *294:99 *294:115 8.072 
19 *294:115 *1588:I 4.5 
20 *294:115 *294:131 5.244 
21 *294:131 *1574:I 18.136 
22 *294:131 *1575:I 7.16 
23 *294:97 *294:161 7.996 
24 *294:161 *1576:I 4.5 
25 *294:161 *294:171 2.736 
26 *294:171 *1577:I 14.184 
27 *294:171 *1579:I 14.152 
28 *1585:I *1586:I 20.508 
29 *1579:I *1578:I 21.04 
*END

*D_NET *295 0.00540067
*CONN
*I *1538:CLK I *D gf180mcu_fd_sc_mcu7t5v0__dffrnq_1
*I *1536:CLK I *D gf180mcu_fd_sc_mcu7t5v0__dffrnq_1
*I *1537:CLK I *D gf180mcu_fd_sc_mcu7t5v0__dffrnq_1
*I *1589:I I *D gf180mcu_fd_sc_mcu7t5v0__clkbuf_2
*I *1532:CLK I *D gf180mcu_fd_sc_mcu7t5v0__dffrnq_1
*I *1573:Z O *D gf180mcu_fd_sc_mcu7t5v0__clkbuf_8
*CAP
1 *1538:CLK 0
2 *1536:CLK 0.000180742
3 *1537:CLK 0.000464979
4 *1589:I 6.33525e-05
5 *1532:CLK 0.000596599
6 *1573:Z 0.000720838
7 *295:22 0.000726927
8 *295:20 0.000379337
9 *295:18 0.000124239
10 *1532:CLK *1357:I0 0
11 *1532:CLK *1652:I 0
12 *1536:CLK *1352:S 0.000441063
13 *1536:CLK *1492:I 0.000170075
14 *1536:CLK *1652:I 0.000201957
15 *1536:CLK *331:20 0
16 *1537:CLK *1353:I0 0
17 *1537:CLK *1353:I1 0.000100673
18 *1537:CLK *1353:S 0
19 *1537:CLK *1371:A1 5.90898e-05
20 *1589:I *1492:I 5.32398e-05
21 *295:22 *1492:I 0.000297234
22 *1532:D *1532:CLK 2.57058e-06
23 *1536:D *1589:I 0
24 *1536:D *295:22 0
25 *1537:D *1532:CLK 5.29084e-05
26 *1537:D *1537:CLK 0.00032464
27 *1537:RN *1532:CLK 7.53205e-05
28 *1538:D *1532:CLK 1.18004e-05
29 *1538:D *295:18 0.000353088
*RES
1 *1573:Z *1532:CLK 13.18 
2 *1573:Z *295:18 5.488 
3 *295:18 *295:20 4.5 
4 *295:20 *295:22 1.748 
5 *295:22 *1589:I 9.38 
6 *295:22 *1537:CLK 12.496 
7 *295:20 *1536:CLK 11.128 
8 *295:18 *1538:CLK 4.5 
*END

*D_NET *296 0.00926095
*CONN
*I *1601:I I *D gf180mcu_fd_sc_mcu7t5v0__clkbuf_2
*I *1545:CLK I *D gf180mcu_fd_sc_mcu7t5v0__dffsnq_1
*I *1546:CLK I *D gf180mcu_fd_sc_mcu7t5v0__dffrnq_1
*I *1561:CLK I *D gf180mcu_fd_sc_mcu7t5v0__dffrnq_1
*I *1560:CLK I *D gf180mcu_fd_sc_mcu7t5v0__dffrnq_1
*I *1574:Z O *D gf180mcu_fd_sc_mcu7t5v0__clkbuf_8
*CAP
1 *1601:I 0
2 *1545:CLK 0
3 *1546:CLK 0.000616916
4 *1561:CLK 0.0005182
5 *1560:CLK 0
6 *1574:Z 0.000380898
7 *296:38 0.00121057
8 *296:16 0.000648729
9 *296:14 0.00095819
10 *296:8 0.000614902
11 *1546:CLK *1338:C 0
12 *1546:CLK *1659:I 0.00168348
13 *1546:CLK *361:51 0
14 *1546:CLK *373:10 9.50253e-05
15 *296:8 *1308:A1 0.000231978
16 *296:8 *1308:A2 7.87299e-05
17 *296:8 *361:22 9.56768e-06
18 *296:8 *408:21 8.55242e-05
19 *296:14 *409:14 0.000107224
20 *296:38 *409:21 0
21 sda_out *1561:CLK 8.02577e-05
22 *1333:A2 *1546:CLK 1.2682e-05
23 *1338:B *296:38 2.84711e-05
24 *1339:A2 *296:38 2.333e-05
25 *1414:A2 *1561:CLK 1.79941e-05
26 *1415:A1 *1561:CLK 8.95196e-05
27 *1418:A2 *296:14 3.19854e-05
28 *1418:A2 *296:38 2.17248e-05
29 *1419:A1 *1561:CLK 8.22324e-05
30 *1419:A2 *1561:CLK 5.76373e-06
31 *1419:A2 *296:16 4.13778e-05
32 *1419:A2 *296:38 1.91917e-06
33 *1545:D *296:38 5.76373e-06
34 *1546:D *1546:CLK 0.000204835
35 *1560:D *1561:CLK 0.000614516
36 *1561:D *1561:CLK 2.89664e-05
37 *212:12 *296:8 0.000228925
38 *273:12 *296:14 0.000496526
39 *273:12 *296:38 4.2318e-06
*RES
1 *1574:Z *296:8 7.996 
2 *296:8 *296:14 11.204 
3 *296:14 *296:16 0.836 
4 *296:16 *1560:CLK 4.5 
5 *296:16 *1561:CLK 9.364 
6 *296:14 *296:38 3.8 
7 *296:38 *1546:CLK 19.732 
8 *296:38 *1545:CLK 4.5 
9 *296:8 *1601:I 4.5 
*END

*D_NET *297 0.013937
*CONN
*I *1547:CLK I *D gf180mcu_fd_sc_mcu7t5v0__dffrnq_1
*I *1563:CLK I *D gf180mcu_fd_sc_mcu7t5v0__dffrnq_1
*I *1564:CLK I *D gf180mcu_fd_sc_mcu7t5v0__dffrnq_1
*I *1602:I I *D gf180mcu_fd_sc_mcu7t5v0__clkbuf_2
*I *1569:CLK I *D gf180mcu_fd_sc_mcu7t5v0__dffsnq_1
*I *1575:Z O *D gf180mcu_fd_sc_mcu7t5v0__clkbuf_8
*CAP
1 *1547:CLK 0.000626271
2 *1563:CLK 0.000166744
3 *1564:CLK 0.000562392
4 *1602:I 0
5 *1569:CLK 0.000580327
6 *1575:Z 0.000626271
7 *297:29 0.000709331
8 *297:25 0.000449003
9 *297:4 0.000715646
10 *1547:CLK *1625:I 0.000422015
11 *1547:CLK *1646:I 0
12 *1547:CLK *340:17 0.000140167
13 *1547:CLK *412:21 0.000132782
14 *1547:CLK *413:12 6.44359e-05
15 *1547:CLK *413:18 7.95726e-05
16 *1563:CLK *339:8 4.725e-05
17 *1563:CLK *339:30 0.000310534
18 *1564:CLK *1663:I 0.00159313
19 *1569:CLK *1306:A3 0.000187262
20 *1569:CLK *1413:A1 6.44932e-05
21 *1569:CLK *1416:A1 5.22519e-05
22 *1569:CLK *1420:A1 5.69968e-06
23 *1569:CLK *1623:I 0.000345016
24 *1569:CLK *1624:I 0.000759222
25 *1569:CLK *337:19 0
26 *1569:CLK *337:44 0.000232477
27 *1569:CLK *411:12 0.000292033
28 *1569:CLK *412:23 5.8349e-05
29 *1569:CLK *413:18 0.000373079
30 *297:25 *1453:I 4.16594e-05
31 *297:25 *337:44 5.4634e-05
32 *297:25 *413:18 3.73535e-05
33 *297:29 *1304:A1 1.18942e-05
34 *297:29 *1453:I 6.79543e-05
35 *297:29 *312:16 0
36 *1303:A1 *1564:CLK 0.000194367
37 *1309:A2 *1564:CLK 3.18815e-05
38 *1310:A2 *1547:CLK 0
39 *1405:A2 *1564:CLK 1.19438e-05
40 *1410:B2 *1569:CLK 5.29053e-05
41 *1416:A2 *1569:CLK 9.26705e-05
42 *1417:A1 *1563:CLK 0.000310356
43 *1417:A1 *297:25 6.17507e-05
44 *1417:A1 *297:29 2.20475e-05
45 *1420:B1 *1563:CLK 0.000362608
46 *1420:B1 *1569:CLK 2.41855e-05
47 *1421:A2 *1569:CLK 3.07734e-05
48 *1620:I *1569:CLK 0.000330001
49 *160:16 *297:29 1.77775e-05
50 *213:16 *1564:CLK 2.57954e-05
51 *233:18 *1547:CLK 0.000607356
52 *270:10 *1564:CLK 0.000999987
53 *271:12 *1569:CLK 0.000124462
54 *272:31 *1563:CLK 0.000826898
*RES
1 *1575:Z *297:4 4.5 
2 *297:4 *1569:CLK 12.48 
3 *297:4 *297:25 5.564 
4 *297:25 *297:29 5.64 
5 *297:29 *1602:I 4.5 
6 *297:29 *1564:CLK 10.96 
7 *297:25 *1563:CLK 12.268 
8 *1575:Z *1547:CLK 14.548 
*END

*D_NET *298 0.0075902
*CONN
*I *1521:CLK I *D gf180mcu_fd_sc_mcu7t5v0__dffrnq_1
*I *1591:I I *D gf180mcu_fd_sc_mcu7t5v0__clkbuf_2
*I *1553:CLK I *D gf180mcu_fd_sc_mcu7t5v0__dffrnq_1
*I *1565:CLK I *D gf180mcu_fd_sc_mcu7t5v0__dffrnq_1
*I *1517:CLK I *D gf180mcu_fd_sc_mcu7t5v0__dffrnq_1
*I *1576:Z O *D gf180mcu_fd_sc_mcu7t5v0__clkbuf_8
*CAP
1 *1521:CLK 0.000389619
2 *1591:I 0
3 *1553:CLK 3.28262e-05
4 *1565:CLK 0.000356238
5 *1517:CLK 0.000489713
6 *1576:Z 0.000192073
7 *298:25 0.000689144
8 *298:14 0.00060575
9 *298:10 0.00039765
10 *1517:CLK *1387:I1 0
11 *1517:CLK *359:26 0.000383049
12 *1521:CLK *1383:A2 0.000255714
13 *1521:CLK *1387:I1 0.000142329
14 *1521:CLK *1610:I 0
15 *1521:CLK *323:38 0.000910634
16 *1521:CLK *325:10 0
17 *1521:CLK *359:26 8.55327e-05
18 *1553:CLK *405:10 9.26705e-05
19 *1565:CLK *1646:I 4.63447e-05
20 *1565:CLK *405:10 0
21 *298:10 *1257:I 0
22 *298:10 *364:13 3.73627e-05
23 *298:14 *1257:I 0
24 *298:25 *1452:I 0.000363661
25 *298:25 *359:26 0.000379283
26 *298:25 *359:33 0.000417311
27 *298:25 *405:10 4.24903e-05
28 *1270:C *298:10 3.73627e-05
29 *1517:D *1521:CLK 8.08741e-05
30 *1518:D *1517:CLK 0.00011703
31 *1518:D *1521:CLK 1.47056e-05
32 *1521:D *1521:CLK 5.76373e-06
33 *1562:D *1565:CLK 1.82803e-05
34 *1569:SETN *298:25 0
35 *1612:I *1521:CLK 7.14163e-05
36 *217:16 *1565:CLK 5.97012e-05
37 *294:99 *298:10 0.000238682
38 *294:99 *298:14 0.000510019
39 *294:161 *298:10 0.000126964
*RES
1 *1576:Z *298:10 11.128 
2 *298:10 *298:14 7.008 
3 *298:14 *1517:CLK 5.868 
4 *298:14 *298:25 3.42 
5 *298:25 *1565:CLK 7.008 
6 *298:25 *1553:CLK 4.956 
7 *298:10 *1591:I 9 
8 *1517:CLK *1521:CLK 13.332 
*END

*D_NET *299 0.00857312
*CONN
*I *1558:CLK I *D gf180mcu_fd_sc_mcu7t5v0__dffrnq_1
*I *1552:CLK I *D gf180mcu_fd_sc_mcu7t5v0__dffrnq_1
*I *1551:CLK I *D gf180mcu_fd_sc_mcu7t5v0__dffrnq_1
*I *1592:I I *D gf180mcu_fd_sc_mcu7t5v0__clkbuf_2
*I *1566:CLK I *D gf180mcu_fd_sc_mcu7t5v0__dffrnq_1
*I *1577:Z O *D gf180mcu_fd_sc_mcu7t5v0__clkbuf_8
*CAP
1 *1558:CLK 9.20042e-05
2 *1552:CLK 0.000128158
3 *1551:CLK 4.56969e-05
4 *1592:I 0
5 *1566:CLK 0.00025794
6 *1577:Z 0.00035186
7 *299:48 0.000866282
8 *299:35 0.000995632
9 *299:6 0.000305985
10 *1551:CLK *416:20 1.15244e-05
11 *1552:CLK *365:23 0.000117082
12 *1558:CLK *1448:I 0.000136871
13 *1558:CLK *365:23 1.31249e-05
14 *1566:CLK *1265:A2 6.73926e-05
15 *1566:CLK *1295:A3 8.40344e-05
16 *1566:CLK *415:29 0.000442157
17 *1566:CLK *420:30 0.000147313
18 *299:6 *1265:A2 0.00016061
19 *299:6 *420:30 0.000337207
20 *299:35 *1265:A2 1.2339e-05
21 *299:35 *1301:A2 7.42541e-05
22 *299:35 *416:28 7.2647e-05
23 *299:48 *1294:A2 8.51576e-05
24 *299:48 *1300:A1 0
25 *299:48 *1301:A2 0.000121479
26 *299:48 *415:12 9.81205e-05
27 *1299:A2 *299:35 0
28 *1299:A2 *299:48 0
29 *1302:A3 *299:35 0.000612724
30 *1551:RN *1552:CLK 1.9339e-05
31 *1551:RN *1558:CLK 2.87391e-05
32 *1552:D *1552:CLK 0.000165338
33 *1609:I *1552:CLK 0.0010386
34 *1609:I *1558:CLK 0.000665988
35 *1621:I *1551:CLK 0.000203975
36 *1621:I *299:35 0
37 *137:14 *299:35 0.000167934
38 *157:12 *1551:CLK 0
39 *157:12 *299:35 0.000551359
40 *201:14 *1566:CLK 9.4254e-05
41 *201:14 *299:35 0
*RES
1 *1577:Z *299:6 5.488 
2 *299:6 *1566:CLK 15.932 
3 *299:6 *1592:I 4.5 
4 *1577:Z *299:35 12.8 
5 *299:35 *1551:CLK 9.532 
6 *299:35 *299:48 8.984 
7 *299:48 *1552:CLK 7.16 
8 *299:48 *1558:CLK 6.248 
*END

*D_NET *300 0.00679027
*CONN
*I *1562:CLK I *D gf180mcu_fd_sc_mcu7t5v0__dffrnq_1
*I *1548:CLK I *D gf180mcu_fd_sc_mcu7t5v0__dffrnq_1
*I *1550:CLK I *D gf180mcu_fd_sc_mcu7t5v0__dffrnq_1
*I *1593:I I *D gf180mcu_fd_sc_mcu7t5v0__clkbuf_2
*I *1554:CLK I *D gf180mcu_fd_sc_mcu7t5v0__dffrnq_1
*I *1578:Z O *D gf180mcu_fd_sc_mcu7t5v0__clkbuf_8
*CAP
1 *1562:CLK 0.00020914
2 *1548:CLK 0.000727673
3 *1550:CLK 0
4 *1593:I 0
5 *1554:CLK 0.00044174
6 *1578:Z 0.00014337
7 *300:12 0.00034824
8 *300:10 0.00019471
9 *300:8 0.000950113
10 *1548:CLK *1318:A2 5.14116e-06
11 *1548:CLK *1318:A3 4.42433e-05
12 *1548:CLK *1319:B 0.000113999
13 *1548:CLK *1320:A1 0.000126956
14 *1548:CLK *1327:A1 0
15 *1548:CLK *321:6 6.46778e-06
16 *1548:CLK *321:17 2.24173e-05
17 *1548:CLK *321:25 2.30518e-05
18 *1548:CLK *390:23 4.68103e-05
19 *1548:CLK *393:10 0
20 *1554:CLK *312:16 0.000351061
21 *1554:CLK *393:10 1.31444e-05
22 *1562:CLK *1444:I1 0
23 *1562:CLK *312:16 3.06506e-05
24 *300:8 *321:6 1.3758e-05
25 *300:10 *1320:A1 2.17248e-05
26 *300:10 *321:6 8.7332e-05
27 *300:12 *1229:I 4.68103e-05
28 *300:12 *1320:A1 2.976e-05
29 *1320:A2 *300:8 0.000111867
30 *1321:A1 *1548:CLK 8.30183e-05
31 *1322:A1 *1554:CLK 0.000104569
32 *1322:A1 *300:10 0.00032464
33 *1322:A1 *300:12 0.000307983
34 *1322:A2 *300:8 0.000107858
35 *1322:A2 *300:10 4.58601e-06
36 *1322:B1 *1548:CLK 0.000561313
37 *1323:A1 *1548:CLK 0
38 *1326:A2 *1548:CLK 0.000569158
39 *1327:B *1548:CLK 3.36987e-05
40 *1328:A2 *1548:CLK 0
41 *1406:A1 *1562:CLK 0.00044686
42 *1406:A2 *1554:CLK 0
43 *1406:A2 *1562:CLK 7.24161e-06
44 *1547:RN *1548:CLK 0.000116355
45 *1548:D *1548:CLK 0
46 *1665:I *1548:CLK 5.94709e-06
47 *217:16 *1562:CLK 0
48 *224:8 *1548:CLK 0
49 *227:8 *1548:CLK 6.85645e-06
*RES
1 *1578:Z *300:8 5.868 
2 *300:8 *300:10 1.14 
3 *300:10 *300:12 1.14 
4 *300:12 *1554:CLK 15.628 
5 *300:12 *1593:I 4.5 
6 *300:10 *1550:CLK 4.5 
7 *300:8 *1548:CLK 20.34 
8 *1554:CLK *1562:CLK 10.976 
*END

*D_NET *301 0.00495434
*CONN
*I *1556:CLK I *D gf180mcu_fd_sc_mcu7t5v0__dffrnq_1
*I *1557:CLK I *D gf180mcu_fd_sc_mcu7t5v0__dffrnq_1
*I *1549:CLK I *D gf180mcu_fd_sc_mcu7t5v0__dffrnq_1
*I *1594:I I *D gf180mcu_fd_sc_mcu7t5v0__clkbuf_2
*I *1555:CLK I *D gf180mcu_fd_sc_mcu7t5v0__dffrnq_1
*I *1579:Z O *D gf180mcu_fd_sc_mcu7t5v0__clkbuf_8
*CAP
1 *1556:CLK 0
2 *1557:CLK 0.000319765
3 *1549:CLK 0.000377796
4 *1594:I 0
5 *1555:CLK 0.00020226
6 *1579:Z 0.000538961
7 *301:48 0.000858727
8 *301:10 0.000527108
9 *301:4 0.000702644
10 *1555:CLK *1445:I 9.34472e-05
11 *1555:CLK *1503:I 0.000209093
12 *1555:CLK *367:47 0.000362608
13 *1557:CLK *1392:A2 9.94668e-06
14 *1557:CLK *1400:A2 9.02676e-05
15 *1557:CLK *419:10 1.3758e-05
16 *1557:CLK *421:21 1.91917e-06
17 *301:10 *1445:I 0.000214589
18 *301:48 *1402:A2 0
19 *301:48 *419:10 0.000128373
20 *1397:A2 *1557:CLK 1.985e-05
21 *1399:A2 *1557:CLK 2.62421e-05
22 *1400:A3 *1557:CLK 5.83188e-05
23 *1555:RN *301:48 0.000136871
24 *1556:D *1557:CLK 2.7935e-05
25 *1578:I *1549:CLK 0
26 *1578:I *301:10 0
27 *1579:I *1555:CLK 3.3859e-05
28 *1579:I *301:10 0
*RES
1 *1579:Z *301:4 4.5 
2 *301:4 *301:10 7.084 
3 *301:10 *1555:CLK 11.128 
4 *301:10 *1594:I 9 
5 *301:4 *1549:CLK 6.78 
6 *1579:Z *301:48 8.528 
7 *301:48 *1557:CLK 6.704 
8 *301:48 *1556:CLK 4.5 
*END

*D_NET *302 0.00564842
*CONN
*I *1534:CLK I *D gf180mcu_fd_sc_mcu7t5v0__dffrnq_1
*I *1526:CLK I *D gf180mcu_fd_sc_mcu7t5v0__dffrnq_1
*I *1590:I I *D gf180mcu_fd_sc_mcu7t5v0__clkbuf_2
*I *1524:CLK I *D gf180mcu_fd_sc_mcu7t5v0__dffrnq_1
*I *1528:CLK I *D gf180mcu_fd_sc_mcu7t5v0__dffrnq_1
*I *1580:Z O *D gf180mcu_fd_sc_mcu7t5v0__clkbuf_8
*CAP
1 *1534:CLK 0.000279836
2 *1526:CLK 0
3 *1590:I 0
4 *1524:CLK 0.000432603
5 *1528:CLK 0.000214696
6 *1580:Z 7.65413e-05
7 *302:27 0.000328951
8 *302:19 0.000444242
9 *302:6 0.000559296
10 *1524:CLK *348:16 0.000381105
11 *1524:CLK *351:6 6.87037e-05
12 *1524:CLK *396:14 3.08902e-05
13 *1528:CLK *1387:I1 0
14 *1528:CLK *345:56 0.000189518
15 *1528:CLK *397:12 0.000100539
16 *1534:CLK *311:30 0.000150838
17 *1534:CLK *351:6 0.000222701
18 *302:19 *1369:A1 0.000132634
19 *302:19 *1387:I1 0
20 *302:19 *326:8 0.000484558
21 *302:19 *341:12 4.51025e-05
22 *302:19 *345:56 0.000104024
23 *302:19 *397:12 3.47988e-05
24 *302:27 *326:8 0.000118129
25 *302:27 *345:56 8.05934e-05
26 *302:27 *370:10 0.000158508
27 *302:27 *396:14 0.000632712
28 *1368:B *1528:CLK 0.000376901
*RES
1 *1580:Z *302:6 5.032 
2 *302:6 *1528:CLK 6.78 
3 *302:6 *302:19 2.584 
4 *302:19 *302:27 11.432 
5 *302:27 *1524:CLK 6.172 
6 *302:27 *1590:I 4.5 
7 *302:19 *1526:CLK 4.5 
8 *1524:CLK *1534:CLK 11.432 
*END

*D_NET *303 0.00488878
*CONN
*I *1595:I I *D gf180mcu_fd_sc_mcu7t5v0__clkbuf_2
*I *1571:CLK I *D gf180mcu_fd_sc_mcu7t5v0__dffsnq_1
*I *1543:CLK I *D gf180mcu_fd_sc_mcu7t5v0__dffrnq_1
*I *1568:CLK I *D gf180mcu_fd_sc_mcu7t5v0__dffrnq_1
*I *1544:CLK I *D gf180mcu_fd_sc_mcu7t5v0__dffrnq_1
*I *1581:Z O *D gf180mcu_fd_sc_mcu7t5v0__clkbuf_8
*CAP
1 *1595:I 0
2 *1571:CLK 0.000448599
3 *1543:CLK 0
4 *1568:CLK 0.000217917
5 *1544:CLK 0
6 *1581:Z 0.000348439
7 *303:34 0.000702634
8 *303:13 0.000504954
9 *303:6 0.000381442
10 *1568:CLK *1458:I 2.22758e-05
11 *1571:CLK *1461:I 5.94709e-06
12 *1571:CLK *1490:I 0.000260709
13 *1571:CLK *1629:I 0
14 *1571:CLK *349:8 0.000191702
15 *1571:CLK *395:10 0.000435281
16 *303:13 *349:43 0
17 *303:34 *1341:A1 8.55327e-05
18 *303:34 *1629:I 0
19 *303:34 *1634:I 7.71175e-06
20 *303:34 *349:8 0.000164594
21 *303:34 *349:43 0.000211844
22 *1342:A2 *303:6 1.72912e-05
23 *1344:A2 *1568:CLK 3.73535e-05
24 *1543:D *1568:CLK 7.70742e-05
25 *1543:D *303:13 1.5015e-05
26 *1544:D *303:6 0.000116355
27 *1544:D *303:13 1.02578e-05
28 *1568:RN *1568:CLK 0.000149579
29 *1571:SETN *1571:CLK 2.77105e-05
30 *1656:I *1571:CLK 1.5961e-05
31 *239:16 *1568:CLK 0.00016204
32 *239:33 *1568:CLK 8.30183e-05
33 *239:33 *303:6 5.29084e-05
34 *239:33 *303:13 0.000134635
*RES
1 *1581:Z *303:6 5.488 
2 *303:6 *1544:CLK 4.5 
3 *303:6 *303:13 2.204 
4 *303:13 *1568:CLK 6.932 
5 *303:13 *1543:CLK 4.5 
6 *1581:Z *303:34 6.856 
7 *303:34 *1571:CLK 17.604 
8 *303:34 *1595:I 4.5 
*END

*D_NET *304 0.00763523
*CONN
*I *1542:CLK I *D gf180mcu_fd_sc_mcu7t5v0__dffrnq_1
*I *1596:I I *D gf180mcu_fd_sc_mcu7t5v0__clkbuf_2
*I *1541:CLK I *D gf180mcu_fd_sc_mcu7t5v0__dffrnq_1
*I *1539:CLK I *D gf180mcu_fd_sc_mcu7t5v0__dffrnq_1
*I *1529:CLK I *D gf180mcu_fd_sc_mcu7t5v0__dffsnq_1
*I *1582:Z O *D gf180mcu_fd_sc_mcu7t5v0__clkbuf_8
*CAP
1 *1542:CLK 7.08127e-05
2 *1596:I 0.000196824
3 *1541:CLK 5.92773e-05
4 *1539:CLK 0.000426806
5 *1529:CLK 4.03809e-05
6 *1582:Z 0.00017909
7 *304:23 0.000634669
8 *304:19 0.000468419
9 *304:8 0.000271668
10 *1529:CLK *1330:A4 0.000123275
11 *1529:CLK *397:39 0.000308746
12 *1539:CLK *1354:S 7.45328e-07
13 *1539:CLK *1629:I 1.28529e-05
14 *1539:CLK *1652:I 0
15 *1539:CLK *349:23 9.62167e-05
16 *1542:CLK *311:30 0.000766415
17 *1542:CLK *332:16 0.000622401
18 *1596:I *1346:A2 0.000414869
19 *1596:I *1652:I 0.000204353
20 *304:8 *1330:A4 0.000604982
21 *304:8 *397:39 0.000241166
22 *304:19 *1634:I 0.000189826
23 *304:19 *1635:I 8.73097e-05
24 *304:19 *332:16 8.95131e-05
25 *304:23 *1348:A2 1.37734e-05
26 *304:23 *1495:I 1.51256e-05
27 *304:23 *1623:I 0
28 *304:23 *1634:I 0.000356103
29 *1346:A1 *1596:I 9.75999e-05
30 *1360:A1 *1596:I 8.18373e-05
31 *1539:D *1539:CLK 7.45328e-07
32 *1541:RN *1539:CLK 0.000215892
33 *1541:RN *1541:CLK 5.97012e-05
34 *1542:D *1596:I 4.50449e-05
35 *1544:RN *1539:CLK 2.55497e-05
36 *1544:RN *1541:CLK 5.84505e-05
37 *144:41 *304:19 0.000394387
38 *144:41 *304:23 0.000146949
39 *245:24 *1596:I 1.34535e-05
*RES
1 *1582:Z *304:8 6.324 
2 *304:8 *1529:CLK 5.336 
3 *304:8 *304:19 6.248 
4 *304:19 *304:23 6.4 
5 *304:23 *1539:CLK 7.464 
6 *304:23 *1541:CLK 5.108 
7 *304:19 *1596:I 11.508 
8 *1582:Z *1542:CLK 11.052 
*END

*D_NET *305 0.00853371
*CONN
*I *1509:CLK I *D gf180mcu_fd_sc_mcu7t5v0__dffrnq_1
*I *1597:I I *D gf180mcu_fd_sc_mcu7t5v0__clkbuf_2
*I *1527:CLK I *D gf180mcu_fd_sc_mcu7t5v0__dffrnq_1
*I *1525:CLK I *D gf180mcu_fd_sc_mcu7t5v0__dffrnq_1
*I *1533:CLK I *D gf180mcu_fd_sc_mcu7t5v0__dffrnq_1
*I *1583:Z O *D gf180mcu_fd_sc_mcu7t5v0__clkbuf_8
*CAP
1 *1509:CLK 0.000320932
2 *1597:I 0.000315471
3 *1527:CLK 6.96187e-05
4 *1525:CLK 0
5 *1533:CLK 0.000232851
6 *1583:Z 0.00105208
7 *305:20 0.000748757
8 *305:10 0.0010012
9 *1509:CLK *1278:A2 0.000167017
10 *1509:CLK *1637:I 0.000263503
11 *1527:CLK *1613:I 5.29053e-05
12 *1527:CLK *327:20 0.000372137
13 *1533:CLK *1375:A2 0
14 *1533:CLK *371:6 1.34435e-05
15 *1597:I *1369:A2 4.87525e-05
16 *305:10 *384:10 0
17 *305:20 *1375:A2 0
18 *305:20 *1613:I 7.59633e-05
19 *305:20 *326:41 0
20 *305:20 *327:20 0.000724697
21 *305:20 *370:10 7.42489e-05
22 *1278:A1 *1509:CLK 0.000784345
23 *1279:B2 *305:10 1.85312e-05
24 *1292:B1 *1509:CLK 8.06248e-05
25 *1292:B1 *1597:I 0
26 *1358:S *305:20 1.44096e-05
27 *1372:A1 *1597:I 2.33043e-05
28 *1372:A1 *305:10 9.07878e-05
29 *1425:A3 *1509:CLK 2.22562e-05
30 *1524:RN *1533:CLK 0.00070697
31 *1524:RN *305:20 0.000314277
32 *1533:D *1509:CLK 0.000714785
33 *1534:RN *1533:CLK 6.64139e-05
34 *150:6 *1597:I 4.03623e-05
35 *294:19 *1597:I 0
36 *294:19 *305:10 0.000123074
*RES
1 *1583:Z *305:10 16.464 
2 *305:10 *305:20 13.484 
3 *305:20 *1533:CLK 6.704 
4 *305:20 *1525:CLK 4.5 
5 *305:10 *1527:CLK 5.488 
6 *1583:Z *1597:I 10.748 
7 *1583:Z *1509:CLK 13.484 
*END

*D_NET *306 0.00666677
*CONN
*I *1512:CLK I *D gf180mcu_fd_sc_mcu7t5v0__dffrnq_1
*I *1598:I I *D gf180mcu_fd_sc_mcu7t5v0__clkbuf_2
*I *1511:CLK I *D gf180mcu_fd_sc_mcu7t5v0__dffrnq_1
*I *1508:CLK I *D gf180mcu_fd_sc_mcu7t5v0__dffrnq_1
*I *1510:CLK I *D gf180mcu_fd_sc_mcu7t5v0__dffrnq_1
*I *1584:Z O *D gf180mcu_fd_sc_mcu7t5v0__clkbuf_8
*CAP
1 *1512:CLK 3.57683e-05
2 *1598:I 0.000145178
3 *1511:CLK 0
4 *1508:CLK 0.000306228
5 *1510:CLK 0.00019591
6 *1584:Z 0
7 *306:37 0.000228098
8 *306:30 0.000127861
9 *306:6 0.000680796
10 *306:4 0.000259366
11 *1508:CLK *1279:B1 0.000103992
12 *1508:CLK *1481:I 8.55327e-05
13 *1508:CLK *313:35 0.000263878
14 *1508:CLK *426:29 0.000104121
15 *1508:CLK *427:12 5.55653e-05
16 *1508:CLK *427:14 1.6671e-05
17 *1510:CLK *426:12 7.83779e-05
18 *1512:CLK *313:27 0.000431535
19 *1512:CLK *335:20 0.00019207
20 *1598:I *1240:I 5.79443e-05
21 *1598:I *1435:A1 0
22 *1598:I *429:18 0.000199473
23 *306:6 *313:27 6.50478e-05
24 *306:30 *313:27 6.06825e-05
25 *306:30 *335:20 0.000279281
26 *306:37 *313:27 0.000431526
27 *306:37 *335:20 0.000176678
28 *1276:A2 *1598:I 7.2647e-05
29 *1280:A1 *1508:CLK 0.000520688
30 *1431:A1 *306:6 0.000474992
31 *1431:A2 *306:6 0.000474992
32 *1431:A2 *306:30 0.000189264
33 *1433:A2 *1598:I 8.8425e-05
34 *1508:RN *1510:CLK 4.50189e-05
35 *1510:D *1510:CLK 1.03413e-05
36 *1510:D *306:6 6.83929e-06
37 *1607:I *1598:I 0
38 *182:12 *1598:I 0.000126956
39 *282:8 *1510:CLK 4.35482e-05
40 *282:8 *306:6 3.14789e-05
*RES
1 *1584:Z *306:4 4.5 
2 *306:4 *306:6 2.204 
3 *306:6 *1510:CLK 5.792 
4 *306:6 *1508:CLK 16.996 
5 *306:4 *306:30 1.216 
6 *306:30 *1511:CLK 4.5 
7 *306:30 *306:37 1.14 
8 *306:37 *1598:I 15.248 
9 *306:37 *1512:CLK 5.64 
*END

*D_NET *307 0.00710912
*CONN
*I *1523:CLK I *D gf180mcu_fd_sc_mcu7t5v0__dffrnq_1
*I *1531:CLK I *D gf180mcu_fd_sc_mcu7t5v0__dffsnq_1
*I *1519:CLK I *D gf180mcu_fd_sc_mcu7t5v0__dffrnq_1
*I *1530:CLK I *D gf180mcu_fd_sc_mcu7t5v0__dffrnq_1
*I *1599:I I *D gf180mcu_fd_sc_mcu7t5v0__clkbuf_2
*I *1585:Z O *D gf180mcu_fd_sc_mcu7t5v0__clkbuf_8
*CAP
1 *1523:CLK 0.000185627
2 *1531:CLK 0
3 *1519:CLK 0.00060472
4 *1530:CLK 0.000274149
5 *1599:I 0.000143937
6 *1585:Z 0.000313077
7 *307:23 0.000987481
8 *307:19 0.000196314
9 *307:6 0.000359089
10 *1519:CLK *1365:A1 7.83779e-05
11 *1519:CLK *1387:I1 0
12 *1519:CLK *1618:I 0.000126953
13 *1519:CLK *1635:I 9.19281e-05
14 *1519:CLK *325:10 0.000125537
15 *1519:CLK *329:16 0
16 *1523:CLK *1473:I 0.000171106
17 *1523:CLK *1474:I 1.23306e-05
18 *1523:CLK *325:23 0.000379274
19 *1523:CLK *354:29 6.9566e-05
20 *1530:CLK *1365:A1 0.000135685
21 *1530:CLK *329:16 0
22 *1530:CLK *330:6 4.53571e-05
23 *1599:I *1363:A1 9.70146e-05
24 *1599:I *1380:A1 6.80237e-05
25 *1599:I *1483:I 0.000160279
26 *307:6 *1380:A1 0.000211495
27 *307:19 *1361:A1 0.000245108
28 *307:19 *1361:A2 4.58467e-05
29 *307:19 *1474:I 0.000145096
30 *307:19 *350:19 0.000546574
31 *307:23 *1361:A2 0.000159181
32 *307:23 *1496:I 0.000269848
33 *307:23 *328:47 0.000142809
34 *307:23 *350:19 8.84331e-05
35 *307:23 *400:36 7.73886e-05
36 *1362:B *1519:CLK 4.77221e-05
37 *1366:B *1530:CLK 0.000147313
38 *1529:SETN *1530:CLK 0.000136871
39 *1530:D *1530:CLK 0
40 *1531:SETN *1523:CLK 8.06016e-05
41 *1542:RN *1519:CLK 4.72445e-05
42 *294:7 *307:6 1.48331e-05
43 *294:9 *1599:I 5.77444e-06
44 *294:9 *307:6 7.11508e-05
45 *294:65 *307:19 0
*RES
1 *1585:Z *307:6 5.792 
2 *307:6 *1599:I 5.868 
3 *307:6 *307:19 6.248 
4 *307:19 *307:23 6.096 
5 *307:23 *1530:CLK 6.932 
6 *307:23 *1519:CLK 9.136 
7 *307:19 *1531:CLK 9 
8 *1585:Z *1523:CLK 11.052 
*END

*D_NET *308 0.00767575
*CONN
*I *1514:CLK I *D gf180mcu_fd_sc_mcu7t5v0__dffrnq_1
*I *1522:CLK I *D gf180mcu_fd_sc_mcu7t5v0__dffrnq_1
*I *1513:CLK I *D gf180mcu_fd_sc_mcu7t5v0__dffrnq_1
*I *1600:I I *D gf180mcu_fd_sc_mcu7t5v0__clkbuf_2
*I *1515:CLK I *D gf180mcu_fd_sc_mcu7t5v0__dffrnq_1
*I *1586:Z O *D gf180mcu_fd_sc_mcu7t5v0__clkbuf_8
*CAP
1 *1514:CLK 0
2 *1522:CLK 0.000383847
3 *1513:CLK 0
4 *1600:I 0.000328134
5 *1515:CLK 0.000108318
6 *1586:Z 0
7 *308:35 0.000652306
8 *308:26 0.000364209
9 *308:6 0.000451696
10 *308:4 0.000110993
11 *1515:CLK *1281:A2 0
12 *1522:CLK *1262:A1 4.63109e-05
13 *1522:CLK *1265:A1 0.000571475
14 *1522:CLK *1648:I 1.78185e-05
15 *1522:CLK *1649:I 4.1074e-05
16 *1522:CLK *380:8 0.000189896
17 *1600:I *354:53 0.000279493
18 *1600:I *432:8 0
19 *1600:I *432:14 0
20 *308:6 *1281:A2 0
21 *308:26 *1281:A2 0
22 *308:26 *356:8 1.15312e-05
23 *308:35 *1476:I 0.000103957
24 *308:35 *356:8 8.36431e-05
25 *308:35 *381:10 0.000193942
26 *308:35 *381:27 2.40328e-06
27 *1273:A3 *1522:CLK 0.000303258
28 *1381:A1 *1522:CLK 0.000422006
29 *1442:A2 *1515:CLK 7.24161e-06
30 *1443:A3 *1600:I 1.83741e-05
31 *1522:RN *308:35 0.000105022
32 *1586:I *1600:I 0.000217148
33 *1609:I *1522:CLK 4.60055e-05
34 *1621:I *1515:CLK 0.000431535
35 *1621:I *308:6 8.55327e-05
36 *1621:I *308:26 0.000368152
37 *1621:I *308:35 0.00168109
38 *155:25 *1522:CLK 4.9333e-05
*RES
1 *1586:Z *308:4 4.5 
2 *308:4 *308:6 0.228 
3 *308:6 *1515:CLK 5.64 
4 *308:6 *1600:I 16.616 
5 *308:4 *308:26 0.988 
6 *308:26 *1513:CLK 4.5 
7 *308:26 *308:35 4.56 
8 *308:35 *1522:CLK 18.516 
9 *308:35 *1514:CLK 4.5 
*END

*D_NET *309 0.00411398
*CONN
*I *1567:CLK I *D gf180mcu_fd_sc_mcu7t5v0__dffsnq_1
*I *1559:CLK I *D gf180mcu_fd_sc_mcu7t5v0__dffrnq_1
*I *1570:CLK I *D gf180mcu_fd_sc_mcu7t5v0__dffsnq_1
*I *1535:CLK I *D gf180mcu_fd_sc_mcu7t5v0__dffrnq_1
*I *1587:Z O *D gf180mcu_fd_sc_mcu7t5v0__clkbuf_8
*CAP
1 *1567:CLK 0.000105994
2 *1559:CLK 0.000660882
3 *1570:CLK 0.000398184
4 *1535:CLK 9.42785e-05
5 *1587:Z 0
6 *309:19 0.00139063
7 *309:6 0.000516651
8 *309:4 0.000196799
9 *1535:CLK *1645:I 4.28586e-06
10 *1535:CLK *360:25 0
11 *1559:CLK *1355:I1 0
12 *1567:CLK *1645:I 2.57332e-05
13 *1570:CLK *1355:I0 0.000157386
14 *1570:CLK *1355:I1 0
15 *309:6 *1645:I 2.23825e-05
16 *309:19 *1355:I0 0
17 *309:19 *1355:S 0.000267495
18 *1559:D *1559:CLK 0
19 *1568:D *1535:CLK 4.05291e-05
20 *1568:D *1567:CLK 0.000142455
21 *1568:D *309:6 9.02859e-05
22 *239:16 *1559:CLK 0
23 *239:16 *1570:CLK 0
*RES
1 *1587:Z *309:4 4.5 
2 *309:4 *309:6 0.836 
3 *309:6 *1535:CLK 5.032 
4 *309:6 *309:19 11.356 
5 *309:19 *1570:CLK 7.16 
6 *309:19 *1559:CLK 8.376 
7 *309:4 *1567:CLK 5.488 
*END

*D_NET *310 0.00670446
*CONN
*I *1516:CLK I *D gf180mcu_fd_sc_mcu7t5v0__dffsnq_1
*I *1540:CLK I *D gf180mcu_fd_sc_mcu7t5v0__dffrnq_1
*I *1520:CLK I *D gf180mcu_fd_sc_mcu7t5v0__dffrnq_1
*I *1518:CLK I *D gf180mcu_fd_sc_mcu7t5v0__dffsnq_1
*I *1588:Z O *D gf180mcu_fd_sc_mcu7t5v0__clkbuf_8
*CAP
1 *1516:CLK 0.000234981
2 *1540:CLK 0
3 *1520:CLK 0.000263289
4 *1518:CLK 0.000770367
5 *1588:Z 0.000310425
6 *310:35 0.00070108
7 *310:22 0.00118933
8 *1516:CLK *1355:I0 8.04564e-05
9 *1516:CLK *1390:I1 0.000111246
10 *1516:CLK *1489:I 8.0352e-06
11 *1516:CLK *1644:I 0
12 *1516:CLK *334:27 8.41724e-05
13 *1518:CLK *1569:D 0.000179609
14 *1518:CLK *1623:I 2.9965e-05
15 *1518:CLK *346:12 8.22324e-05
16 *1520:CLK *311:30 9.75999e-05
17 *1520:CLK *324:20 0.000163877
18 *1520:CLK *324:26 3.73535e-05
19 *310:22 *311:30 3.08869e-05
20 *310:22 *311:36 4.27914e-05
21 *310:22 *324:20 0.000374862
22 *310:35 *1390:S 0
23 *310:35 *1619:I 8.04367e-06
24 *310:35 *1643:I 0
25 *310:35 *323:12 0.000517099
26 *310:35 *334:31 9.42493e-05
27 *1516:D *1516:CLK 0.000317494
28 *1520:D *1520:CLK 7.54771e-06
29 *1562:RN *1518:CLK 1.5015e-05
30 *233:18 *1518:CLK 0.000423065
31 *233:18 *1520:CLK 8.46862e-05
32 *233:18 *310:22 0.000444699
*RES
1 *1588:Z *1518:CLK 12.496 
2 *1518:CLK *310:22 9.06 
3 *310:22 *1520:CLK 6.704 
4 *310:22 *310:35 12.268 
5 *310:35 *1540:CLK 4.5 
6 *310:35 *1516:CLK 6.704 
*END

*D_NET *311 0.0215819
*CONN
*I *1444:I0 I *D gf180mcu_fd_sc_mcu7t5v0__mux2_2
*I *1565:D I *D gf180mcu_fd_sc_mcu7t5v0__dffrnq_1
*I *1654:Z O *D gf180mcu_fd_sc_mcu7t5v0__dlyb_1
*CAP
1 *1444:I0 0.00083549
2 *1565:D 0
3 *1654:Z 0.00318064
4 *311:36 0.00143345
5 *311:30 0.0037786
6 *1444:I0 *1260:I 5.14116e-06
7 *1444:I0 *1444:I1 1.91917e-06
8 *1444:I0 *1452:I 0
9 *1444:I0 *405:10 0
10 *311:30 *1235:I 0
11 *311:30 *1345:A2 0.000431535
12 *311:30 *1357:I1 0.000204973
13 *311:30 *1384:I0 0.000367372
14 *311:30 *1490:I 1.53689e-05
15 *311:30 *1610:I 0
16 *311:30 *1636:I 8.62664e-05
17 *311:30 *1653:I 0
18 *311:30 *1660:I 0
19 *311:30 *324:20 0.0017167
20 *311:30 *324:26 7.83779e-05
21 *311:30 *328:6 2.69001e-05
22 *311:30 *328:32 5.67556e-06
23 *311:30 *328:47 0
24 *311:30 *331:16 0.00144208
25 *311:30 *332:16 0.000343717
26 *311:30 *345:6 2.22758e-05
27 *311:30 *345:10 7.49127e-05
28 *311:30 *345:56 0.00225686
29 *311:30 *348:16 0.000306302
30 *311:30 *348:55 0.000137539
31 *311:30 *351:6 0
32 *311:30 *358:14 0.000878525
33 *311:30 *359:10 0.000105105
34 *311:30 *359:14 0
35 *311:30 *363:52 1.20899e-05
36 *311:30 *399:8 0
37 cap_ctrl[0] *311:30 9.88736e-06
38 *1332:A2 *311:30 2.17248e-05
39 *1366:B *311:30 0.000707712
40 *1368:B *311:30 4.94776e-05
41 *1406:A1 *1444:I0 8.49711e-05
42 *1406:A1 *311:36 3.26302e-05
43 *1516:SETN *311:30 0.00031512
44 *1520:CLK *311:30 9.75999e-05
45 *1526:D *311:30 8.49277e-05
46 *1532:RN *311:30 0
47 *1534:CLK *311:30 0.000150838
48 *1538:RN *311:30 3.10545e-05
49 *1540:RN *311:30 7.05572e-05
50 *1542:CLK *311:30 0.000766415
51 *1553:D *1444:I0 0
52 *1562:D *1444:I0 9.75543e-06
53 *1620:I *311:36 9.30208e-05
54 *29:8 *1444:I0 3.56141e-05
55 *217:16 *1444:I0 2.47642e-05
56 *217:16 *311:36 0.000331347
57 *233:18 *311:36 0.000326352
58 *294:115 *311:30 9.88736e-06
59 *294:115 *311:36 0.000406711
60 *294:131 *311:36 0.000100042
61 *310:22 *311:30 3.08869e-05
62 *310:22 *311:36 4.27914e-05
*RES
1 *1654:Z *311:30 46.104 
2 *311:30 *311:36 10.884 
3 *311:36 *1565:D 9 
4 *311:36 *1444:I0 14.624 
*END

*D_NET *312 0.0170189
*CONN
*I *1659:I I *D gf180mcu_fd_sc_mcu7t5v0__dlyb_1
*I *1444:Z O *D gf180mcu_fd_sc_mcu7t5v0__mux2_2
*CAP
1 *1659:I 0.00278522
2 *1444:Z 0.0016915
3 *312:16 0.00447673
4 *1659:I *1231:I 0.000111867
5 *1659:I *1664:I 0.00011528
6 *1659:I *361:51 0
7 *312:16 *1304:A1 6.7497e-05
8 *312:16 *1304:A3 0.000148179
9 *312:16 *1305:A3 1.71854e-05
10 *312:16 *1307:A1 6.67198e-05
11 *312:16 *1313:A3 0.000375114
12 *312:16 *1315:A1 5.70962e-05
13 *312:16 *1420:A1 0.000131421
14 *312:16 *1420:B2 0
15 *312:16 *1664:I 0.00045336
16 *312:16 *361:22 0.00013908
17 *312:16 *408:32 3.57979e-05
18 *1310:A3 *312:16 0.000281062
19 *1315:A3 *312:16 0.000233529
20 *1333:A2 *312:16 0.000160292
21 *1333:B *1659:I 3.84832e-06
22 *1339:A1 *1659:I 0
23 *1409:A1 *312:16 2.9378e-06
24 *1414:A2 *312:16 1.15275e-05
25 *1546:CLK *1659:I 0.00168348
26 *1554:D *312:16 7.74495e-05
27 *1554:CLK *312:16 0.000351061
28 *1562:CLK *312:16 3.06506e-05
29 *1574:I *312:16 7.83988e-05
30 *1665:I *312:16 0
31 *160:12 *312:16 1.80144e-05
32 *160:16 *312:16 1.38028e-05
33 *212:12 *312:16 0.00160061
34 *218:10 *312:16 0.000807283
35 *233:24 *312:16 0.000656367
36 *237:29 *312:16 8.65686e-05
37 *271:10 *312:16 0.00024996
38 *297:29 *312:16 0
*RES
1 *1444:Z *312:16 31.968 
2 *312:16 *1659:I 23.348 
*END

*D_NET *313 0.0128557
*CONN
*I *1432:A1 I *D gf180mcu_fd_sc_mcu7t5v0__nor4_1
*I *1429:A1 I *D gf180mcu_fd_sc_mcu7t5v0__nor3_1
*I *1425:A1 I *D gf180mcu_fd_sc_mcu7t5v0__nor3_1
*I *1422:A2 I *D gf180mcu_fd_sc_mcu7t5v0__nor3_1
*I *1435:A1 I *D gf180mcu_fd_sc_mcu7t5v0__nor4_1
*I *1603:Z O *D gf180mcu_fd_sc_mcu7t5v0__dlyb_1
*CAP
1 *1432:A1 0.000312856
2 *1429:A1 2.98392e-05
3 *1425:A1 2.6354e-05
4 *1422:A2 0.000248676
5 *1435:A1 0.000136584
6 *1603:Z 0.000108697
7 *313:53 0.000548031
8 *313:35 0.000714949
9 *313:27 0.000995207
10 *313:10 0.000595233
11 *1422:A2 *1422:A3 0.00124705
12 *1422:A2 *1481:I 0.000148623
13 *1422:A2 *352:30 6.77492e-05
14 *1422:A2 *357:8 2.96977e-05
15 *1425:A1 *1279:B1 0.000252269
16 *1425:A1 *1422:A3 0.000333525
17 *1432:A1 *1242:I 8.07371e-05
18 *1432:A1 *1429:A2 4.05803e-05
19 *1432:A1 *1432:A2 0.000147313
20 *1432:A1 *1638:I 9.42703e-06
21 *1435:A1 *429:29 0.000360235
22 *313:27 *335:20 1.20079e-05
23 *313:35 *1242:I 0.000474364
24 *313:35 *1279:B1 0.000409183
25 *313:35 *357:8 0.000577161
26 *313:35 *426:29 1.67943e-05
27 *313:53 *1242:I 0.000230351
28 *1280:A1 *313:35 0.000204693
29 *1283:A1 *1435:A1 0.000169363
30 *1430:A1 *313:27 0
31 *1430:A2 *313:27 0.000146622
32 *1431:A2 *313:27 0.00063813
33 *1432:A3 *313:27 0
34 *1432:A4 *313:27 0.000122898
35 *1433:A2 *1435:A1 0
36 *1433:A2 *313:10 0
37 *1508:CLK *313:35 0.000263878
38 *1510:D *1429:A1 7.85437e-06
39 *1510:D *1432:A1 0
40 *1510:D *313:27 5.03091e-05
41 *1511:D *313:27 2.0087e-05
42 *1512:D *313:10 0.000300828
43 *1512:CLK *313:27 0.000431535
44 *1598:I *1435:A1 0
45 *1607:I *1435:A1 0.000317373
46 *1607:I *313:10 0.000623612
47 *151:10 *1432:A1 7.88136e-05
48 *168:14 *313:35 0.000364085
49 *287:10 *313:10 3.84832e-06
50 *287:10 *313:27 0.000379274
51 *287:27 *313:10 2.17248e-05
52 *306:6 *313:27 6.50478e-05
53 *306:30 *313:27 6.06825e-05
54 *306:37 *313:27 0.000431526
*RES
1 *1603:Z *313:10 10.824 
2 *313:10 *1435:A1 10.824 
3 *313:10 *313:27 13.94 
4 *313:27 *313:35 10.504 
5 *313:35 *1422:A2 8.148 
6 *313:35 *1425:A1 5.488 
7 *313:27 *313:53 1.444 
8 *313:53 *1429:A1 9.228 
9 *313:53 *1432:A1 11.356 
*END

*D_NET *314 0.00253458
*CONN
*I *1438:A1 I *D gf180mcu_fd_sc_mcu7t5v0__nor3_1
*I *1443:A1 I *D gf180mcu_fd_sc_mcu7t5v0__nor3_1
*I *1604:Z O *D gf180mcu_fd_sc_mcu7t5v0__dlyb_1
*CAP
1 *1438:A1 0.000358723
2 *1443:A1 1.83866e-05
3 *1604:Z 0.0002139
4 *314:6 0.00059101
5 *1438:A1 *1438:A2 0
6 *1438:A1 *1439:A1 6.64069e-05
7 *1438:A1 *1468:I 0
8 *1438:A1 *1606:I 0.000660189
9 *1443:A1 *1606:I 4.50449e-05
10 *314:6 *1439:A1 0.000130795
11 *314:6 *1606:I 0.00040611
12 *1513:D *1438:A1 4.40118e-05
*RES
1 *1604:Z *314:6 6.856 
2 *314:6 *1443:A1 4.728 
3 *314:6 *1438:A1 7.616 
*END

*D_NET *315 0.00816661
*CONN
*I *1400:A2 I *D gf180mcu_fd_sc_mcu7t5v0__nor3_1
*I *1398:A2 I *D gf180mcu_fd_sc_mcu7t5v0__nor3_1
*I *1396:A2 I *D gf180mcu_fd_sc_mcu7t5v0__nor3_1
*I *1402:A2 I *D gf180mcu_fd_sc_mcu7t5v0__nor3_1
*I *1298:A2 I *D gf180mcu_fd_sc_mcu7t5v0__nor4_1
*I *1605:Z O *D gf180mcu_fd_sc_mcu7t5v0__dlyb_1
*CAP
1 *1400:A2 9.80391e-05
2 *1398:A2 0
3 *1396:A2 0.000458029
4 *1402:A2 0.000423037
5 *1298:A2 0.000357429
6 *1605:Z 0
7 *315:34 0.000577079
8 *315:32 0.000378324
9 *315:19 0.000715047
10 *315:6 0.000488204
11 *1298:A2 *1402:A1 0
12 *1298:A2 *1444:I1 0
13 *1298:A2 *1446:I 0
14 *1298:A2 *316:57 0.000255714
15 *1298:A2 *319:29 0.000124215
16 *1298:A2 *320:10 0
17 *1298:A2 *418:12 1.66121e-06
18 *1396:A2 *1447:I 0.000632712
19 *1396:A2 *1608:I 2.98542e-05
20 *1396:A2 *319:29 0.000368818
21 *1396:A2 *421:8 0
22 *1400:A2 *1400:A1 0.00019207
23 *1402:A2 *1394:A4 0.000495697
24 *1402:A2 *1402:A1 0.000161672
25 *1402:A2 *419:25 0.000391116
26 *1402:A2 *419:27 6.17803e-05
27 *1402:A2 *419:29 0.000379283
28 *1402:A2 *420:16 2.74753e-05
29 *315:19 *319:29 8.5208e-05
30 *315:19 *320:10 0
31 *315:32 *1392:A1 0
32 *315:32 *1397:A1 0.000142801
33 *315:32 *319:29 7.30612e-05
34 *315:32 *421:8 0.000553434
35 *315:34 *421:21 0
36 *1296:A2 *1298:A2 3.78032e-05
37 *1398:A3 *315:32 9.90639e-05
38 *1398:A3 *315:34 0
39 *1402:A3 *1402:A2 0
40 *1404:A4 *1298:A2 7.24161e-06
41 *1555:RN *1402:A2 0
42 *1557:D *1400:A2 7.83779e-05
43 *1557:D *315:34 0.000362608
44 *1557:CLK *1400:A2 9.02676e-05
45 *203:26 *1298:A2 1.94858e-05
46 *301:48 *1402:A2 0
*RES
1 *1605:Z *315:6 9 
2 *315:6 *1298:A2 11.584 
3 *315:6 *315:19 1.14 
4 *315:19 *1402:A2 13.18 
5 *315:19 *315:32 6.704 
6 *315:32 *315:34 0.988 
7 *315:34 *1396:A2 16.996 
8 *315:34 *1398:A2 4.5 
9 *315:32 *1400:A2 5.792 
*END

*D_NET *316 0.0126688
*CONN
*I *1404:A2 I *D gf180mcu_fd_sc_mcu7t5v0__nor4_1
*I *1605:I I *D gf180mcu_fd_sc_mcu7t5v0__dlyb_1
*I *1302:A2 I *D gf180mcu_fd_sc_mcu7t5v0__nor3_1
*I *1300:A2 I *D gf180mcu_fd_sc_mcu7t5v0__nor3_1
*I *1441:A1 I *D gf180mcu_fd_sc_mcu7t5v0__nor3_1
*I *1606:Z O *D gf180mcu_fd_sc_mcu7t5v0__dlyb_1
*CAP
1 *1404:A2 0.000133207
2 *1605:I 0
3 *1302:A2 0
4 *1300:A2 0
5 *1441:A1 0.000346665
6 *1606:Z 0.000101758
7 *316:57 0.00082897
8 *316:42 0.00129097
9 *316:25 0.00137978
10 *316:8 0.001233
11 *1404:A2 *1404:A1 4.58601e-06
12 *1404:A2 *319:40 8.7332e-05
13 *1441:A1 *1440:A1 0
14 *1441:A1 *431:10 0
15 *316:8 *431:10 0
16 *316:25 *1468:I 0.000128373
17 *316:25 *1606:I 1.01183e-05
18 *316:25 *336:6 0
19 *316:25 *365:23 0.000622275
20 *316:25 *431:10 0
21 *316:25 *431:25 0
22 *316:42 *1448:I 7.81498e-05
23 *316:42 *318:19 0
24 *316:42 *318:27 0.000523951
25 *316:42 *319:10 1.10835e-05
26 *316:42 *365:23 0.000406612
27 *316:42 *415:29 0.000376901
28 *316:57 *1257:I 0
29 *316:57 *1395:A1 0
30 *316:57 *1447:I 0.00207609
31 *316:57 *1608:I 1.2018e-05
32 *316:57 *318:27 3.73535e-05
33 *316:57 *318:36 0.000248637
34 *316:57 *319:40 0.000251293
35 *1296:A2 *316:57 5.87561e-06
36 *1297:A1 *316:57 5.71282e-05
37 *1297:A2 *316:57 5.87561e-06
38 *1298:A2 *316:57 0.000255714
39 *1299:A2 *316:25 1.3758e-05
40 *1299:A2 *316:42 0.00038839
41 *1395:A2 *316:57 0
42 *1396:A3 *316:42 5.66946e-05
43 *1396:A3 *316:57 6.68265e-05
44 *1401:A2 *1404:A2 9.88736e-06
45 *1404:A4 *1404:A2 2.98535e-05
46 *1404:A4 *316:57 2.30549e-05
47 *1437:A2 *1441:A1 0
48 *1438:A3 *1441:A1 6.72744e-05
49 *1438:A3 *316:8 1.45899e-05
50 *1440:A2 *316:25 0
51 *1514:RN *316:25 0.000209639
52 *1554:D *1404:A2 6.48288e-05
53 *1557:D *316:57 2.6126e-05
54 *1558:D *316:42 2.20893e-05
55 *1558:RN *316:42 0.000515713
56 *1572:I *316:42 0
57 *1572:I *316:57 0.000606781
58 *1579:I *316:57 3.95341e-05
59 *1609:I *316:25 0
60 *1609:I *316:42 0
*RES
1 *1606:Z *316:8 9.684 
2 *316:8 *1441:A1 11.204 
3 *316:8 *316:25 10.656 
4 *316:25 *1300:A2 4.5 
5 *316:25 *316:42 16.144 
6 *316:42 *1302:A2 4.5 
7 *316:42 *316:57 17.74 
8 *316:57 *1605:I 4.5 
9 *316:57 *1404:A2 5.716 
*END

*D_NET *317 0.0047973
*CONN
*I *1606:I I *D gf180mcu_fd_sc_mcu7t5v0__dlyb_1
*I *1604:I I *D gf180mcu_fd_sc_mcu7t5v0__dlyb_1
*I *1603:I I *D gf180mcu_fd_sc_mcu7t5v0__dlyb_1
*I *1607:Z O *D gf180mcu_fd_sc_mcu7t5v0__dlyb_1
*CAP
1 *1606:I 0.000545055
2 *1604:I 8.47143e-05
3 *1603:I 0.000186685
4 *1607:Z 0
5 *317:13 0.000823289
6 *317:4 0.000380206
7 *1606:I *1443:A2 8.32897e-05
8 *1606:I *1468:I 0
9 *1606:I *431:25 0.000821057
10 *317:13 *1439:A1 0
11 *1435:A4 *1603:I 2.22657e-05
12 *1438:A1 *1606:I 0.000660189
13 *1439:A3 *1604:I 0.000247234
14 *1443:A1 *1606:I 4.50449e-05
15 *1443:A3 *1606:I 4.10312e-05
16 *1515:D *1606:I 0.000141897
17 *1607:I *1603:I 0
18 *1607:I *317:13 0
19 *287:27 *1604:I 0.000222333
20 *287:33 *1606:I 7.67761e-05
21 *314:6 *1606:I 0.00040611
22 *316:25 *1606:I 1.01183e-05
*RES
1 *1607:Z *317:4 4.5 
2 *317:4 *1603:I 5.64 
3 *317:4 *317:13 1.14 
4 *317:13 *1604:I 14.64 
5 *317:13 *1606:I 10.656 
*END

*D_NET *318 0.00625875
*CONN
*I *1396:A1 I *D gf180mcu_fd_sc_mcu7t5v0__nor3_1
*I *1400:A1 I *D gf180mcu_fd_sc_mcu7t5v0__nor3_1
*I *1398:A1 I *D gf180mcu_fd_sc_mcu7t5v0__nor3_1
*I *1302:A1 I *D gf180mcu_fd_sc_mcu7t5v0__nor3_1
*I *1300:A1 I *D gf180mcu_fd_sc_mcu7t5v0__nor3_1
*I *1608:Z O *D gf180mcu_fd_sc_mcu7t5v0__dlyb_1
*CAP
1 *1396:A1 0
2 *1400:A1 0.000229315
3 *1398:A1 0
4 *1302:A1 0
5 *1300:A1 0.000204237
6 *1608:Z 3.25499e-05
7 *318:36 0.000383479
8 *318:27 0.00019744
9 *318:19 0.000592252
10 *318:6 0.000785763
11 *1400:A1 *319:29 9.17202e-06
12 *318:6 *336:6 3.73627e-05
13 *318:19 *1608:I 0
14 *318:19 *336:6 0.000342801
15 *318:27 *1608:I 7.83779e-05
16 *318:27 *319:10 3.43264e-05
17 *318:36 *1608:I 0.000255722
18 *318:36 *319:29 0.000452897
19 *1299:A2 *1300:A1 0.000399191
20 *1299:A2 *318:6 2.23598e-06
21 *1299:A2 *318:19 3.92653e-05
22 *1300:A3 *1300:A1 3.19219e-05
23 *1396:A3 *318:27 0.00033338
24 *1400:A2 *1400:A1 0.00019207
25 *1557:D *1400:A1 0.000424388
26 *1557:D *318:36 1.3758e-05
27 *1558:D *318:19 0.000376901
28 *299:48 *1300:A1 0
29 *316:42 *318:19 0
30 *316:42 *318:27 0.000523951
31 *316:57 *318:27 3.73535e-05
32 *316:57 *318:36 0.000248637
*RES
1 *1608:Z *318:6 4.728 
2 *318:6 *1300:A1 15.248 
3 *318:6 *318:19 4.18 
4 *318:19 *318:27 10.52 
5 *318:27 *1302:A1 4.5 
6 *318:27 *318:36 2.28 
7 *318:36 *1398:A1 4.5 
8 *318:36 *1400:A1 6.704 
9 *318:19 *1396:A1 4.5 
*END

*D_NET *319 0.0141233
*CONN
*I *1404:A1 I *D gf180mcu_fd_sc_mcu7t5v0__nor4_1
*I *1402:A1 I *D gf180mcu_fd_sc_mcu7t5v0__nor3_1
*I *1444:I1 I *D gf180mcu_fd_sc_mcu7t5v0__mux2_2
*I *1298:A1 I *D gf180mcu_fd_sc_mcu7t5v0__nor4_1
*I *1608:I I *D gf180mcu_fd_sc_mcu7t5v0__dlyb_1
*I *1609:Z O *D gf180mcu_fd_sc_mcu7t5v0__dlyb_1
*CAP
1 *1404:A1 2.17226e-05
2 *1402:A1 0.000505378
3 *1444:I1 0.000619263
4 *1298:A1 0
5 *1608:I 0.000750654
6 *1609:Z 9.54857e-05
7 *319:42 0.00112464
8 *319:40 0.000217853
9 *319:29 0.000718961
10 *319:10 0.00136897
11 *1402:A1 *1401:A1 0
12 *1402:A1 *1446:I 4.47565e-05
13 *1402:A1 *320:10 8.55327e-05
14 *1402:A1 *420:14 1.34641e-06
15 *1444:I1 *1650:I 0.00015576
16 *1608:I *1395:A1 0
17 *1608:I *336:6 0.000143438
18 *319:29 *1447:I 0.000356142
19 *319:29 *421:8 1.99755e-05
20 *319:29 *421:37 0.00062586
21 *1296:A2 *1444:I1 0
22 *1298:A2 *1402:A1 0
23 *1298:A2 *1444:I1 0
24 *1298:A2 *319:29 0.000124215
25 *1391:A2 *1402:A1 0.000362617
26 *1396:A2 *1608:I 2.98542e-05
27 *1396:A2 *319:29 0.000368818
28 *1396:A3 *319:10 6.68508e-05
29 *1398:A3 *319:29 0.000412903
30 *1400:A1 *319:29 9.17202e-06
31 *1401:A2 *1404:A1 2.6126e-05
32 *1402:A2 *1402:A1 0.000161672
33 *1402:A3 *1402:A1 0.000433917
34 *1404:A2 *1404:A1 4.58601e-06
35 *1404:A2 *319:40 8.7332e-05
36 *1404:A3 *1444:I1 0.000213194
37 *1444:I0 *1444:I1 1.91917e-06
38 *1444:S *1444:I1 0.000215472
39 *1551:D *1608:I 0.000184971
40 *1554:D *1444:I1 0.000186318
41 *1554:RN *1444:I1 0.000614671
42 *1555:D *1402:A1 0.00101602
43 *1555:RN *1402:A1 3.83835e-06
44 *1558:RN *1608:I 4.63008e-05
45 *1562:CLK *1444:I1 0
46 *1572:I *319:10 0.000195541
47 *1579:I *1402:A1 0.000132959
48 *1579:I *1404:A1 2.96621e-05
49 *1579:I *319:40 0.000264032
50 *1621:I *1608:I 0
51 *29:8 *1444:I1 0
52 *203:26 *319:29 0.000511331
53 *261:19 *1402:A1 0.000252663
54 *261:19 *1444:I1 5.66631e-05
55 *315:19 *319:29 8.5208e-05
56 *315:32 *319:29 7.30612e-05
57 *316:42 *319:10 1.10835e-05
58 *316:57 *1608:I 1.2018e-05
59 *316:57 *319:40 0.000251293
60 *318:19 *1608:I 0
61 *318:27 *1608:I 7.83779e-05
62 *318:27 *319:10 3.43264e-05
63 *318:36 *1608:I 0.000255722
64 *318:36 *319:29 0.000452897
*RES
1 *1609:Z *319:10 14.944 
2 *319:10 *1608:I 9.896 
3 *319:10 *319:29 16.296 
4 *319:29 *1298:A1 4.5 
5 *319:29 *319:40 2.204 
6 *319:40 *319:42 4.5 
7 *319:42 *1444:I1 14.776 
8 *319:42 *1402:A1 23.928 
9 *319:40 *1404:A1 4.728 
*END

*D_NET *320 0.00287316
*CONN
*I *1392:A2 I *D gf180mcu_fd_sc_mcu7t5v0__nand2_1
*I *1393:A3 I *D gf180mcu_fd_sc_mcu7t5v0__nand3_1
*I *1394:A4 I *D gf180mcu_fd_sc_mcu7t5v0__nand4_1
*I *1658:Z O *D gf180mcu_fd_sc_mcu7t5v0__clkbuf_1
*CAP
1 *1392:A2 0.000128255
2 *1393:A3 0
3 *1394:A4 0.000243286
4 *1658:Z 0.000109271
5 *320:12 0.000243286
6 *320:10 0.000237527
7 *1392:A2 *1392:A1 0.000262996
8 *1392:A2 *1446:I 0.000371749
9 *1392:A2 *420:16 1.88477e-05
10 *1394:A4 *419:29 0.000144093
11 *1394:A4 *421:37 2.9378e-06
12 *320:10 *1446:I 0.000462714
13 *1298:A2 *320:10 0
14 *1391:A2 *1394:A4 0
15 *1399:A2 *1392:A2 5.70161e-05
16 *1402:A1 *320:10 8.55327e-05
17 *1402:A2 *1394:A4 0.000495697
18 *1557:CLK *1392:A2 9.94668e-06
19 *261:8 *1394:A4 0
20 *315:19 *320:10 0
*RES
1 *1658:Z *320:10 10.368 
2 *320:10 *320:12 4.5 
3 *320:12 *1394:A4 6.704 
4 *320:12 *1393:A3 4.5 
5 *320:10 *1392:A2 10.596 
*END

*D_NET *321 0.0040343
*CONN
*I *1326:A1 I *D gf180mcu_fd_sc_mcu7t5v0__oai22_1
*I *1323:A2 I *D gf180mcu_fd_sc_mcu7t5v0__nor2_1
*I *1319:B I *D gf180mcu_fd_sc_mcu7t5v0__aoi21_1
*I *1322:B2 I *D gf180mcu_fd_sc_mcu7t5v0__oai22_1
*I *1665:Z O *D gf180mcu_fd_sc_mcu7t5v0__clkbuf_1
*CAP
1 *1326:A1 8.78724e-05
2 *1323:A2 0
3 *1319:B 0.000149783
4 *1322:B2 0
5 *1665:Z 0.000123022
6 *321:25 0.000296372
7 *321:17 0.000427159
8 *321:6 0.00031572
9 *1326:A1 *1318:A2 0.000356669
10 *1326:A1 *1318:A3 5.20307e-05
11 *321:6 *1320:A1 0.000193933
12 *321:17 *1318:A2 3.73535e-05
13 *321:17 *1318:A3 3.73535e-05
14 *1320:A2 *321:6 2.6126e-05
15 *1320:A2 *321:17 0.000317503
16 *1321:A1 *321:6 0
17 *1323:A1 *1319:B 1.5015e-05
18 *1323:A1 *321:25 4.50449e-05
19 *1326:A2 *1319:B 7.83779e-05
20 *1326:A2 *1326:A1 2.68222e-05
21 *1326:A2 *321:17 9.48791e-05
22 *1327:B *1326:A1 0
23 *1328:A2 *1319:B 6.50663e-05
24 *1548:CLK *1319:B 0.000113999
25 *1548:CLK *321:6 6.46778e-06
26 *1548:CLK *321:17 2.24173e-05
27 *1548:CLK *321:25 2.30518e-05
28 *222:10 *1319:B 8.8425e-05
29 *222:23 *1319:B 0.00032652
30 *223:6 *321:17 0.000315004
31 *227:8 *321:25 3.08902e-05
32 *227:21 *321:25 0.000260329
33 *300:8 *321:6 1.3758e-05
34 *300:10 *321:6 8.7332e-05
*RES
1 *1665:Z *321:6 5.64 
2 *321:6 *1322:B2 4.5 
3 *321:6 *321:17 2.508 
4 *321:17 *321:25 10.824 
5 *321:25 *1319:B 15.4 
6 *321:25 *1323:A2 4.5 
7 *321:17 *1326:A1 5.792 
*END

*D_NET *322 0.00847543
*CONN
*I *1653:I I *D gf180mcu_fd_sc_mcu7t5v0__dlyb_1
*I *1655:Z O *D gf180mcu_fd_sc_mcu7t5v0__dlyb_1
*CAP
1 *1653:I 0.00160244
2 *1655:Z 0.00160244
3 *1653:I *1243:I 6.90695e-05
4 *1653:I *1357:I1 0.00127323
5 *1653:I *1359:I0 0.000189665
6 *1653:I *1359:I1 0
7 *1653:I *1375:A1 5.211e-05
8 *1653:I *1641:I 2.21384e-05
9 *1653:I *1662:I 0
10 *1653:I *342:50 7.84951e-05
11 *1653:I *347:14 0.000263455
12 *1653:I *347:34 0.000339116
13 *1653:I *347:43 1.24512e-05
14 *1374:A1 *1653:I 5.87561e-06
15 *1524:RN *1653:I 0.000331102
16 *1525:RN *1653:I 0.000823439
17 *1526:RN *1653:I 0.00115574
18 *1533:D *1653:I 0.00064872
19 *1534:D *1653:I 5.94709e-06
20 *311:30 *1653:I 0
*RES
1 *1655:Z *1653:I 35.708 
*END

*D_NET *323 0.00731974
*CONN
*I *1390:S I *D gf180mcu_fd_sc_mcu7t5v0__mux2_2
*I *1387:S I *D gf180mcu_fd_sc_mcu7t5v0__mux2_2
*I *1388:A2 I *D gf180mcu_fd_sc_mcu7t5v0__nand2_1
*I *1383:A2 I *D gf180mcu_fd_sc_mcu7t5v0__oai21_1
*I *1382:A2 I *D gf180mcu_fd_sc_mcu7t5v0__nand2_1
*I *1610:Z O *D gf180mcu_fd_sc_mcu7t5v0__dlyb_1
*CAP
1 *1390:S 6.33184e-05
2 *1387:S 0
3 *1388:A2 1.34646e-05
4 *1383:A2 4.6424e-05
5 *1382:A2 0
6 *1610:Z 0.000166648
7 *323:38 0.000184285
8 *323:21 0.000468917
9 *323:12 0.000725727
10 *323:6 0.000704021
11 *1388:A2 *1387:I0 0.000340241
12 *1388:A2 *1651:I 0.000460436
13 *1388:A2 *374:19 5.66946e-05
14 *1390:S *1643:I 0.000269857
15 *323:6 *1623:I 4.53295e-05
16 *323:6 *346:12 0.000540425
17 *323:12 *1494:I 0
18 *323:12 *1619:I 0.000292642
19 *323:12 *1623:I 0.000137545
20 *323:12 *359:10 0
21 *323:21 *1494:I 0
22 *323:21 *1619:I 3.62494e-05
23 *323:21 *324:26 0
24 *323:38 *1388:A1 0
25 *323:38 *1611:I 0.000448201
26 *323:38 *325:10 0
27 *1383:A1 *323:21 3.40956e-05
28 *1383:A1 *323:38 1.77835e-05
29 *1517:D *323:38 7.59985e-05
30 *1521:CLK *1383:A2 0.000255714
31 *1521:CLK *323:38 0.000910634
32 *1612:I *1383:A2 0.000178497
33 *233:18 *323:6 0.00020046
34 *233:18 *323:12 0.000129038
35 *310:35 *1390:S 0
36 *310:35 *323:12 0.000517099
*RES
1 *1610:Z *323:6 6.552 
2 *323:6 *323:12 8.908 
3 *323:12 *1382:A2 9 
4 *323:12 *323:21 1.444 
5 *323:21 *1383:A2 9.912 
6 *323:21 *323:38 7.236 
7 *323:38 *1388:A2 14.64 
8 *323:38 *1387:S 4.5 
9 *323:6 *1390:S 14.184 
*END

*D_NET *324 0.00887574
*CONN
*I *1384:S I *D gf180mcu_fd_sc_mcu7t5v0__mux2_2
*I *1385:A2 I *D gf180mcu_fd_sc_mcu7t5v0__nand2_1
*I *1389:A2 I *D gf180mcu_fd_sc_mcu7t5v0__oai21_1
*I *1386:A2 I *D gf180mcu_fd_sc_mcu7t5v0__oai21_1
*I *1610:I I *D gf180mcu_fd_sc_mcu7t5v0__dlyb_1
*I *1611:Z O *D gf180mcu_fd_sc_mcu7t5v0__dlyb_1
*CAP
1 *1384:S 0
2 *1385:A2 0.000179659
3 *1389:A2 0.000145523
4 *1386:A2 0.000145086
5 *1610:I 0.000629974
6 *1611:Z 0.000404795
7 *324:37 0.000362468
8 *324:26 0.000484782
9 *324:20 0.000527589
10 *1385:A2 *1245:I 4.22854e-06
11 *1385:A2 *378:25 6.73903e-05
12 *1386:A2 *1388:A1 9.65141e-05
13 *1389:A2 *1388:A1 0
14 *1610:I *1387:I1 4.97635e-05
15 *1610:I *1494:I 0.000209085
16 *1610:I *359:10 0
17 *1610:I *359:14 0.000278308
18 *324:26 *1384:I0 0.000271446
19 *324:26 *1619:I 9.42866e-05
20 *324:26 *378:25 3.4631e-05
21 *324:37 *378:25 9.47676e-05
22 *1383:A1 *1385:A2 0.000151728
23 *1383:A1 *324:26 0.00047187
24 *1383:A1 *324:37 0.000193185
25 *1516:SETN *1610:I 0.000133351
26 *1518:D *1610:I 0.000105022
27 *1520:D *324:26 8.64281e-06
28 *1520:CLK *324:20 0.000163877
29 *1520:CLK *324:26 3.73535e-05
30 *1521:D *324:26 0.000517099
31 *1521:CLK *1610:I 0
32 *144:8 *324:26 0.000569188
33 *154:6 *1385:A2 2.98542e-05
34 *294:7 *1385:A2 0.00014952
35 *294:7 *1386:A2 0
36 *294:7 *1389:A2 9.4813e-05
37 *310:22 *324:20 0.000374862
38 *311:30 *1610:I 0
39 *311:30 *324:20 0.0017167
40 *311:30 *324:26 7.83779e-05
41 *323:21 *324:26 0
*RES
1 *1611:Z *1610:I 12.952 
2 *1610:I *324:20 8.984 
3 *324:20 *324:26 9.668 
4 *324:26 *1386:A2 9.988 
5 *324:26 *324:37 0.988 
6 *324:37 *1389:A2 9.988 
7 *324:37 *1385:A2 10.824 
8 *324:20 *1384:S 4.5 
*END

*D_NET *325 0.00736176
*CONN
*I *1611:I I *D gf180mcu_fd_sc_mcu7t5v0__dlyb_1
*I *1381:A2 I *D gf180mcu_fd_sc_mcu7t5v0__oai21_1
*I *1379:A2 I *D gf180mcu_fd_sc_mcu7t5v0__aoi21_1
*I *1378:A2 I *D gf180mcu_fd_sc_mcu7t5v0__nor2_1
*I *1380:A2 I *D gf180mcu_fd_sc_mcu7t5v0__nand2_1
*I *1612:Z O *D gf180mcu_fd_sc_mcu7t5v0__dlyb_1
*CAP
1 *1611:I 0.000250301
2 *1381:A2 0.00034838
3 *1379:A2 0
4 *1378:A2 0.000245355
5 *1380:A2 0
6 *1612:Z 0
7 *325:23 0.000319308
8 *325:19 0.000692843
9 *325:10 0.0011201
10 *325:4 0.00109989
11 *1378:A2 *354:29 8.68662e-05
12 *1378:A2 *354:53 3.83192e-05
13 *1381:A2 *1378:A1 6.57222e-06
14 *1611:I *1388:A1 0
15 *325:10 *1234:I 0.000340241
16 *325:10 *1388:A1 0.00154475
17 *325:10 *1618:I 0
18 *1379:A1 *1378:A2 0.000222333
19 *1379:A1 *325:10 0
20 *1379:A1 *325:19 0
21 *1381:B *1381:A2 0
22 *1381:B *325:19 0
23 *1383:A1 *1611:I 0
24 *1517:D *1611:I 0
25 *1519:D *325:10 0
26 *1519:CLK *325:10 0.000125537
27 *1521:D *325:10 3.14479e-05
28 *1521:CLK *325:10 0
29 *1523:D *1381:A2 7.45328e-07
30 *1523:D *325:23 6.12935e-05
31 *1523:CLK *325:23 0.000379274
32 *1612:I *325:10 0
33 *143:10 *325:10 0
34 *143:12 *325:10 0
35 *323:38 *1611:I 0.000448201
36 *323:38 *325:10 0
*RES
1 *1612:Z *325:4 4.5 
2 *325:4 *325:10 12.1 
3 *325:10 *1380:A2 9 
4 *325:10 *325:19 1.444 
5 *325:19 *325:23 5.488 
6 *325:23 *1378:A2 15.476 
7 *325:23 *1379:A2 4.5 
8 *325:19 *1381:A2 11.736 
9 *325:4 *1611:I 15.628 
*END

*D_NET *326 0.0126724
*CONN
*I *1376:A2 I *D gf180mcu_fd_sc_mcu7t5v0__aoi21_1
*I *1375:A2 I *D gf180mcu_fd_sc_mcu7t5v0__nor2_1
*I *1369:A2 I *D gf180mcu_fd_sc_mcu7t5v0__nor2_1
*I *1372:A2 I *D gf180mcu_fd_sc_mcu7t5v0__aoi21_1
*I *1371:A2 I *D gf180mcu_fd_sc_mcu7t5v0__nor2_1
*I *1613:Z O *D gf180mcu_fd_sc_mcu7t5v0__dlyb_1
*CAP
1 *1376:A2 3.28034e-05
2 *1375:A2 0.000255324
3 *1369:A2 0.000236324
4 *1372:A2 0
5 *1371:A2 0.000176936
6 *1613:Z 0
7 *326:41 0.000663331
8 *326:10 0.000216549
9 *326:8 0.000499166
10 *326:4 0.000598432
11 *1369:A2 *1369:A1 0.000188405
12 *1369:A2 *341:12 3.35674e-05
13 *1371:A2 *341:12 6.38438e-05
14 *1375:A2 *1488:I 9.88736e-06
15 *1375:A2 *347:14 3.1829e-05
16 *1375:A2 *348:33 0.000236756
17 *326:8 *341:12 0.000137776
18 *326:8 *345:56 2.69001e-05
19 *326:8 *396:14 0
20 *326:10 *341:12 0.000203634
21 *326:41 *345:56 0
22 *326:41 *348:33 5.26108e-05
23 *1279:B2 *1369:A2 0.000144499
24 *1292:B1 *1369:A2 3.83835e-06
25 *1370:A1 *1369:A2 0.00198453
26 *1372:A1 *1369:A2 0.00205924
27 *1372:A1 *1371:A2 0.000158809
28 *1372:A1 *326:10 0.000410371
29 *1372:B *1371:A2 0.000877721
30 *1376:A1 *1375:A2 0.000317503
31 *1524:D *326:41 8.04139e-05
32 *1526:D *326:8 0.000203975
33 *1527:RN *1369:A2 4.07435e-05
34 *1533:CLK *1375:A2 0
35 *1534:RN *1375:A2 1.64988e-05
36 *1538:RN *1371:A2 0.00205876
37 *1597:I *1369:A2 4.87525e-05
38 *294:19 *1369:A2 0
39 *302:19 *326:8 0.000484558
40 *302:27 *326:8 0.000118129
41 *305:20 *1375:A2 0
42 *305:20 *326:41 0
*RES
1 *1613:Z *326:4 4.5 
2 *326:4 *326:8 7.008 
3 *326:8 *326:10 1.14 
4 *326:10 *1371:A2 14.548 
5 *326:10 *1372:A2 9 
6 *326:8 *1369:A2 16.144 
7 *326:4 *326:41 2.28 
8 *326:41 *1375:A2 6.932 
9 *326:41 *1376:A2 4.728 
*END

*D_NET *327 0.00440446
*CONN
*I *1374:A2 I *D gf180mcu_fd_sc_mcu7t5v0__aoi21_1
*I *1373:A2 I *D gf180mcu_fd_sc_mcu7t5v0__nor2_1
*I *1370:A2 I *D gf180mcu_fd_sc_mcu7t5v0__aoi21_1
*I *1614:Z O *D gf180mcu_fd_sc_mcu7t5v0__dlyb_1
*CAP
1 *1374:A2 0.00015737
2 *1373:A2 0.000247101
3 *1370:A2 8.76829e-05
4 *1614:Z 0.000686193
5 *327:20 0.00100298
6 *1370:A2 *330:10 2.22657e-05
7 *1374:A2 *1290:A4 8.36287e-05
8 *1374:A2 *382:8 0.00035118
9 *327:20 *1613:I 2.44622e-05
10 *327:20 *330:10 0
11 *327:20 *342:50 0.00041715
12 *1358:S *1374:A2 2.07758e-05
13 *1374:B *1373:A2 0.000164013
14 *1374:B *327:20 4.58601e-06
15 *1524:RN *1373:A2 3.82391e-05
16 *1527:CLK *327:20 0.000372137
17 *305:20 *327:20 0.000724697
*RES
1 *1614:Z *1370:A2 9.608 
2 *1614:Z *327:20 9.896 
3 *327:20 *1373:A2 6.248 
4 *327:20 *1374:A2 14.792 
*END

*D_NET *328 0.00550265
*CONN
*I *1361:A2 I *D gf180mcu_fd_sc_mcu7t5v0__nand2_1
*I *1365:A2 I *D gf180mcu_fd_sc_mcu7t5v0__nand2_1
*I *1368:A2 I *D gf180mcu_fd_sc_mcu7t5v0__aoi21_1
*I *1366:A2 I *D gf180mcu_fd_sc_mcu7t5v0__oai21_1
*I *1367:A2 I *D gf180mcu_fd_sc_mcu7t5v0__nor2_1
*I *1615:Z O *D gf180mcu_fd_sc_mcu7t5v0__dlyb_1
*CAP
1 *1361:A2 0.000223004
2 *1365:A2 0
3 *1368:A2 0.000235261
4 *1366:A2 0
5 *1367:A2 4.38353e-05
6 *1615:Z 4.21294e-05
7 *328:47 0.000674717
8 *328:32 0.000831624
9 *328:10 0.000294642
10 *328:6 0.000437587
11 *1361:A2 *1361:A1 0.000134636
12 *1361:A2 *1616:I 3.00299e-05
13 *1367:A2 *1330:A4 3.73535e-05
14 *1367:A2 *1347:A1 6.05474e-05
15 *1367:A2 *398:27 3.07734e-05
16 *1368:A2 *1387:I1 0.000202089
17 *328:10 *1347:A1 1.12495e-05
18 *328:10 *332:16 0
19 *328:10 *342:50 0
20 *328:10 *400:36 0
21 *328:47 *1387:I1 0.000129292
22 *328:47 *1635:I 0.000517099
23 *328:47 *332:16 1.04171e-05
24 *328:47 *400:36 5.45907e-06
25 *1366:A1 *1367:A2 0.000102192
26 *1366:A1 *328:10 6.38438e-05
27 *1366:B *328:47 3.71904e-05
28 *1368:B *1368:A2 8.00805e-05
29 *1368:B *328:6 2.6126e-05
30 *1368:B *328:10 0.000163481
31 *1528:D *1368:A2 0.00031512
32 *1531:D *1361:A2 0.000196417
33 *1581:I *328:47 1.34641e-06
34 *1617:I *328:47 7.24161e-06
35 *294:65 *1361:A2 0.000116928
36 *294:65 *328:47 6.05196e-05
37 *307:19 *1361:A2 4.58467e-05
38 *307:23 *1361:A2 0.000159181
39 *307:23 *328:47 0.000142809
40 *311:30 *328:6 2.69001e-05
41 *311:30 *328:32 5.67556e-06
42 *311:30 *328:47 0
*RES
1 *1615:Z *328:6 5.032 
2 *328:6 *328:10 6.4 
3 *328:10 *1367:A2 9.76 
4 *328:10 *1366:A2 9 
5 *328:6 *328:32 0.76 
6 *328:32 *1368:A2 7.236 
7 *328:32 *328:47 8.452 
8 *328:47 *1365:A2 9 
9 *328:47 *1361:A2 11.508 
*END

*D_NET *329 0.00665218
*CONN
*I *1362:A2 I *D gf180mcu_fd_sc_mcu7t5v0__oai21_1
*I *1364:A2 I *D gf180mcu_fd_sc_mcu7t5v0__aoi21_1
*I *1363:A2 I *D gf180mcu_fd_sc_mcu7t5v0__nor2_1
*I *1616:Z O *D gf180mcu_fd_sc_mcu7t5v0__dlyb_1
*CAP
1 *1362:A2 1.60092e-05
2 *1364:A2 0
3 *1363:A2 0.000315672
4 *1616:Z 0.000104917
5 *329:16 0.000716967
6 *329:10 0.000522222
7 *1363:A2 *1363:A1 0.00115761
8 *1363:A2 *1483:I 0.000232543
9 *1363:A2 *387:12 5.96987e-05
10 *329:10 *1385:A1 0.000306401
11 *329:16 *1365:A1 3.92836e-05
12 *329:16 *1616:I 2.09124e-05
13 *329:16 *350:8 0.000536827
14 *1364:A1 *1363:A2 0.000687096
15 *1364:B *1363:A2 0.000542413
16 *1364:B *329:16 1.91917e-06
17 *1379:A1 *329:10 0.000235816
18 *1519:CLK *329:16 0
19 *1530:CLK *329:16 0
20 *1531:D *1362:A2 7.83779e-05
21 *1531:D *329:16 0.000125927
22 *1542:RN *1362:A2 1.20079e-05
23 *1542:RN *329:16 0.000287348
24 *1585:I *329:10 1.37792e-05
25 *143:10 *329:10 0.00063272
26 *294:9 *1363:A2 5.71037e-06
*RES
1 *1616:Z *329:10 15.704 
2 *329:10 *329:16 3.724 
3 *329:16 *1363:A2 18.668 
4 *329:16 *1364:A2 4.5 
5 *329:10 *1362:A2 4.728 
*END

*D_NET *330 0.00831764
*CONN
*I *1616:I I *D gf180mcu_fd_sc_mcu7t5v0__dlyb_1
*I *1615:I I *D gf180mcu_fd_sc_mcu7t5v0__dlyb_1
*I *1614:I I *D gf180mcu_fd_sc_mcu7t5v0__dlyb_1
*I *1613:I I *D gf180mcu_fd_sc_mcu7t5v0__dlyb_1
*I *1617:Z O *D gf180mcu_fd_sc_mcu7t5v0__dlyb_1
*CAP
1 *1616:I 0.000717214
2 *1615:I 0
3 *1614:I 0.000894437
4 *1613:I 0.000483041
5 *1617:Z 0.000151314
6 *330:10 0.000959432
7 *330:6 0.000450482
8 *1613:I *1387:I1 5.09739e-06
9 *1613:I *1627:I 7.83779e-05
10 *1613:I *396:14 0.00013053
11 *1614:I *342:50 1.82146e-05
12 *1616:I *1361:A1 0.000193942
13 *1616:I *342:50 0
14 *1616:I *347:43 0
15 *1616:I *350:8 3.83835e-06
16 *330:6 *1387:I1 0.000194113
17 *330:10 *1387:I1 0.000259583
18 *330:10 *342:50 0
19 *1361:A2 *1616:I 3.00299e-05
20 *1364:B *1616:I 0.000552373
21 *1366:B *330:6 2.22758e-05
22 *1368:A1 *1614:I 4.66935e-05
23 *1370:A1 *1613:I 0.000197766
24 *1370:A1 *330:10 0.000203407
25 *1370:A2 *330:10 2.22657e-05
26 *1370:B *1614:I 0.000395183
27 *1527:D *1614:I 0.000310626
28 *1527:CLK *1613:I 5.29053e-05
29 *1528:RN *1614:I 0.000112501
30 *1528:RN *1616:I 0.00011955
31 *1529:SETN *330:6 0.000386421
32 *1529:SETN *330:10 0.000386421
33 *1530:CLK *330:6 4.53571e-05
34 *1531:D *1616:I 0.000148104
35 *294:7 *1616:I 0.000113154
36 *294:9 *1616:I 0.000511658
37 *305:20 *1613:I 7.59633e-05
38 *327:20 *1613:I 2.44622e-05
39 *327:20 *330:10 0
40 *329:16 *1616:I 2.09124e-05
*RES
1 *1617:Z *330:6 6.4 
2 *330:6 *330:10 3.04 
3 *330:10 *1613:I 8.224 
4 *330:10 *1614:I 16.236 
5 *330:6 *1615:I 4.5 
6 *1614:I *1616:I 15.688 
*END

*D_NET *331 0.0144871
*CONN
*I *1345:A2 I *D gf180mcu_fd_sc_mcu7t5v0__nand2_1
*I *1351:S I *D gf180mcu_fd_sc_mcu7t5v0__mux2_2
*I *1352:S I *D gf180mcu_fd_sc_mcu7t5v0__mux2_2
*I *1354:S I *D gf180mcu_fd_sc_mcu7t5v0__mux2_2
*I *1353:S I *D gf180mcu_fd_sc_mcu7t5v0__mux2_2
*I *1618:Z O *D gf180mcu_fd_sc_mcu7t5v0__dlyb_1
*CAP
1 *1345:A2 2.22037e-05
2 *1351:S 1.03865e-05
3 *1352:S 0.000185962
4 *1354:S 0.000179714
5 *1353:S 0.000429924
6 *1618:Z 0.000103671
7 *331:20 0.000811321
8 *331:18 0.000667312
9 *331:16 0.000705726
10 *331:10 0.000541547
11 *1345:A2 *1345:A1 0.000346011
12 *1345:A2 *345:10 3.00299e-05
13 *1351:S *1330:A4 8.55242e-05
14 *1351:S *1490:I 3.73535e-05
15 *1352:S *1652:I 0.000205721
16 *1353:S *1353:I0 0.000317494
17 *1353:S *1353:I1 0.000444997
18 *1353:S *1354:I1 5.13352e-06
19 *1353:S *1492:I 0.00026286
20 *1353:S *349:23 0
21 *1354:S *1353:I1 4.13816e-05
22 *331:10 *1385:A1 0.000300071
23 *331:16 *1345:A1 0.000880464
24 *331:16 *1490:I 1.90005e-05
25 *331:16 *342:50 6.84282e-05
26 *331:16 *345:35 0.000432989
27 *331:16 *397:12 3.24312e-05
28 *331:16 *400:8 8.04285e-05
29 *331:18 *1352:I0 1.59363e-05
30 *331:18 *1492:I 0
31 *331:18 *342:50 9.91131e-05
32 *331:18 *397:12 3.56597e-05
33 *331:20 *1353:I1 1.46159e-05
34 *331:20 *1492:I 0
35 *331:20 *342:10 0.000103089
36 *1366:B *331:16 0.000714913
37 *1536:D *1353:S 0.000456406
38 *1536:D *331:20 0.000720891
39 *1536:CLK *1352:S 0.000441063
40 *1536:CLK *331:20 0
41 *1537:CLK *1353:S 0
42 *1539:D *331:18 0.000206333
43 *1539:D *331:20 0.000396904
44 *1539:RN *331:16 0.00020108
45 *1539:CLK *1354:S 7.45328e-07
46 *143:12 *331:10 0.000668794
47 *245:24 *1352:S 0.00128985
48 *311:30 *1345:A2 0.000431535
49 *311:30 *331:16 0.00144208
*RES
1 *1618:Z *331:10 15.248 
2 *331:10 *331:16 11.644 
3 *331:16 *331:18 2.052 
4 *331:18 *331:20 2.812 
5 *331:20 *1353:S 13.56 
6 *331:20 *1354:S 9.988 
7 *331:18 *1352:S 12.42 
8 *331:16 *1351:S 9.228 
9 *331:10 *1345:A2 5.64 
*END

*D_NET *332 0.00598708
*CONN
*I *1346:A2 I *D gf180mcu_fd_sc_mcu7t5v0__oai21_1
*I *1347:A2 I *D gf180mcu_fd_sc_mcu7t5v0__nor2_1
*I *1348:A2 I *D gf180mcu_fd_sc_mcu7t5v0__aoi21_1
*I *1619:Z O *D gf180mcu_fd_sc_mcu7t5v0__dlyb_1
*CAP
1 *1346:A2 0.000168613
2 *1347:A2 5.91524e-06
3 *1348:A2 0.000190194
4 *1619:Z 0.000909403
5 *332:18 0.000233091
6 *332:16 0.001115
7 *1346:A2 *1652:I 3.6058e-06
8 *1348:A2 *1623:I 7.97399e-05
9 *332:16 *1347:A1 7.23444e-05
10 *332:16 *1387:I1 0
11 *332:16 *1635:I 2.61316e-05
12 *332:16 *400:12 0.000261987
13 *332:16 *400:36 0.000279752
14 *1540:RN *332:16 0.0003006
15 *1542:D *332:16 5.276e-05
16 *1542:CLK *332:16 0.000622401
17 *1596:I *1346:A2 0.000414869
18 *1617:I *332:16 0.000111858
19 *144:41 *1346:A2 1.29702e-05
20 *144:41 *1348:A2 3.43325e-05
21 *144:41 *332:16 0.000372314
22 *245:24 *1346:A2 7.29215e-05
23 *245:24 *1347:A2 5.20545e-05
24 *245:24 *1348:A2 9.96141e-05
25 *245:24 *332:16 3.71904e-05
26 *304:19 *332:16 8.95131e-05
27 *304:23 *1348:A2 1.37734e-05
28 *311:30 *332:16 0.000343717
29 *328:10 *332:16 0
30 *328:47 *332:16 1.04171e-05
*RES
1 *1619:Z *332:16 17.892 
2 *332:16 *332:18 0.228 
3 *332:18 *1348:A2 10.52 
4 *332:18 *1347:A2 9.38 
5 *332:16 *1346:A2 10.444 
*END

*D_NET *333 0.000739286
*CONN
*I *1571:D I *D gf180mcu_fd_sc_mcu7t5v0__dffsnq_1
*I *1656:Z O *D gf180mcu_fd_sc_mcu7t5v0__dlyb_1
*CAP
1 *1571:D 0.000344949
2 *1656:Z 0.000344949
3 *1571:D *395:10 0
4 *1342:A2 *1571:D 2.57058e-06
5 *1342:B *1571:D 0
6 *1656:I *1571:D 4.6818e-05
*RES
1 *1656:Z *1571:D 11.28 
*END

*D_NET *334 0.011766
*CONN
*I *1618:I I *D gf180mcu_fd_sc_mcu7t5v0__dlyb_1
*I *1350:A2 I *D gf180mcu_fd_sc_mcu7t5v0__oai21_1
*I *1619:I I *D gf180mcu_fd_sc_mcu7t5v0__dlyb_1
*I *1349:A2 I *D gf180mcu_fd_sc_mcu7t5v0__nand2_1
*I *1355:S I *D gf180mcu_fd_sc_mcu7t5v0__mux2_2
*I *1620:Z O *D gf180mcu_fd_sc_mcu7t5v0__dlyb_1
*CAP
1 *1618:I 0.000248553
2 *1350:A2 0
3 *1619:I 0.000703318
4 *1349:A2 5.7697e-05
5 *1355:S 0.000439707
6 *1620:Z 0.000121667
7 *334:31 0.000663065
8 *334:27 0.000802644
9 *334:8 0.00121342
10 *1349:A2 *1384:I1 0.000317494
11 *1349:A2 *1623:I 0.000102182
12 *1355:S *1355:I0 0
13 *1355:S *1645:I 0.000539385
14 *1355:S *1651:I 0
15 *1355:S *363:52 0.00023401
16 *1618:I *1387:I1 7.21157e-05
17 *1619:I *1384:I0 0
18 *1619:I *1387:I1 0.000893968
19 *1619:I *1494:I 0.000338727
20 *334:8 *406:10 0.000413211
21 *334:27 *1355:I0 4.72901e-05
22 *334:27 *1390:I0 0.000103141
23 *334:27 *1390:I1 6.10581e-05
24 *334:27 *1630:I 0.000233917
25 *334:27 *1631:I 5.30391e-05
26 *334:27 *1651:I 0
27 *334:27 *1652:I 4.68103e-05
28 *334:27 *363:52 0.000279408
29 *1350:A1 *1619:I 2.23783e-05
30 *1350:A1 *334:31 0.000196485
31 *1356:A2 *334:31 0
32 *1383:B *1619:I 0.000147305
33 *1516:D *334:27 0.000144931
34 *1516:CLK *334:27 8.41724e-05
35 *1519:CLK *1618:I 0.000126953
36 *1535:D *1355:S 0.000521672
37 *1535:RN *334:8 2.6126e-05
38 *1535:RN *334:27 0
39 *1540:D *334:27 0.000310356
40 *1612:I *1618:I 0.000379283
41 *1612:I *1619:I 1.75634e-05
42 *1620:I *334:8 0
43 *144:8 *1619:I 0.0005581
44 *144:25 *1349:A2 0.000431535
45 *233:18 *1349:A2 2.03665e-05
46 *309:19 *1355:S 0.000267495
47 *310:35 *1619:I 8.04367e-06
48 *310:35 *334:31 9.42493e-05
49 *323:12 *1619:I 0.000292642
50 *323:21 *1619:I 3.62494e-05
51 *324:26 *1619:I 9.42866e-05
52 *325:10 *1618:I 0
*RES
1 *1620:Z *334:8 10.14 
2 *334:8 *1355:S 13.484 
3 *334:8 *334:27 10.58 
4 *334:27 *334:31 5.944 
5 *334:31 *1349:A2 10.444 
6 *334:31 *1619:I 24.764 
7 *334:27 *1350:A2 4.5 
8 *1619:I *1618:I 11.432 
*END

*D_NET *335 0.0113212
*CONN
*I *1435:A2 I *D gf180mcu_fd_sc_mcu7t5v0__nor4_1
*I *1432:A2 I *D gf180mcu_fd_sc_mcu7t5v0__nor4_1
*I *1429:A2 I *D gf180mcu_fd_sc_mcu7t5v0__nor3_1
*I *1422:A3 I *D gf180mcu_fd_sc_mcu7t5v0__nor3_1
*I *1425:A2 I *D gf180mcu_fd_sc_mcu7t5v0__nor3_1
*I *1621:Z O *D gf180mcu_fd_sc_mcu7t5v0__dlyb_1
*CAP
1 *1435:A2 0
2 *1432:A2 6.42857e-05
3 *1429:A2 0.000121487
4 *1422:A3 0.000353505
5 *1425:A2 0
6 *1621:Z 0.000147151
7 *335:44 0.000329708
8 *335:26 0.000807165
9 *335:20 0.000953194
10 *335:12 0.00050275
11 *1422:A3 *1279:B1 2.74753e-05
12 *1422:A3 *1290:A4 3.14282e-05
13 *1422:A3 *1637:I 0.000155293
14 *1422:A3 *352:30 5.76749e-06
15 *1432:A2 *1638:I 0.000113238
16 *335:12 *1285:B1 0.000324241
17 *335:12 *429:29 0.000156682
18 *335:20 *1240:I 0.000196402
19 *335:20 *429:18 7.83779e-05
20 *335:20 *429:29 0.000829806
21 *335:26 *1279:B1 0.000152965
22 *335:26 *1290:A2 7.83779e-05
23 *335:26 *1290:A4 9.95783e-05
24 *335:26 *1481:I 0.000185138
25 *335:26 *1637:I 7.73199e-05
26 *335:26 *1638:I 0.000561823
27 *335:26 *357:10 0.000107038
28 *335:26 *357:27 0.00012749
29 *335:44 *1638:I 0.00027939
30 *1276:A2 *335:20 0
31 *1280:B *335:26 6.57222e-06
32 *1280:C *335:20 2.44238e-05
33 *1282:A1 *335:12 2.41778e-05
34 *1422:A2 *1422:A3 0.00124705
35 *1425:A1 *1422:A3 0.000333525
36 *1431:A1 *335:20 0.000209093
37 *1432:A1 *1429:A2 4.05803e-05
38 *1432:A1 *1432:A2 0.000147313
39 *1432:A4 *1429:A2 1.17551e-05
40 *1432:A4 *1432:A2 0
41 *1509:D *1422:A3 0.000321009
42 *1510:D *1429:A2 4.27813e-05
43 *1512:CLK *335:20 0.00019207
44 *1584:I *335:26 0.00017887
45 *167:8 *1432:A2 5.96894e-05
46 *167:10 *1432:A2 2.59502e-05
47 *167:10 *335:44 0.000179003
48 *167:31 *335:26 0.000190361
49 *167:31 *335:44 8.59272e-06
50 *182:12 *335:20 1.48117e-05
51 *190:14 *335:12 0.000297939
52 *282:8 *335:20 9.08442e-05
53 *287:10 *335:12 1.5015e-05
54 *287:10 *335:20 0.000107029
55 *287:27 *335:12 9.75898e-05
56 *294:19 *335:26 0.000120162
57 *306:30 *335:20 0.000279281
58 *306:37 *335:20 0.000176678
59 *313:27 *335:20 1.20079e-05
*RES
1 *1621:Z *335:12 15.628 
2 *335:12 *335:20 9.44 
3 *335:20 *335:26 10.276 
4 *335:26 *1425:A2 4.5 
5 *335:26 *1422:A3 9.592 
6 *335:20 *335:44 1.748 
7 *335:44 *1429:A2 9.836 
8 *335:44 *1432:A2 10.064 
9 *335:12 *1435:A2 4.5 
*END

*D_NET *336 0.00778874
*CONN
*I *1294:A2 I *D gf180mcu_fd_sc_mcu7t5v0__nand2_1
*I *1301:A2 I *D gf180mcu_fd_sc_mcu7t5v0__xor2_1
*I *1438:A2 I *D gf180mcu_fd_sc_mcu7t5v0__nor3_1
*I *1443:A2 I *D gf180mcu_fd_sc_mcu7t5v0__nor3_1
*I *1441:A2 I *D gf180mcu_fd_sc_mcu7t5v0__nor3_1
*I *1622:Z O *D gf180mcu_fd_sc_mcu7t5v0__dlyb_1
*CAP
1 *1294:A2 0.000210546
2 *1301:A2 0.000326806
3 *1438:A2 0.000258666
4 *1443:A2 0.000177114
5 *1441:A2 0.000109411
6 *1622:Z 0
7 *336:43 0.000537351
8 *336:17 0.000566777
9 *336:6 0.0012486
10 *336:4 0.00100819
11 *1294:A2 *1448:I 2.23385e-05
12 *1294:A2 *365:23 3.08902e-05
13 *1294:A2 *415:12 4.07337e-05
14 *1294:A2 *415:29 0.000199721
15 *1301:A2 *415:29 0.000192602
16 *1438:A2 *1437:A1 8.15645e-05
17 *1438:A2 *1468:I 3.73535e-05
18 *1438:A2 *430:8 3.35674e-05
19 *1438:A2 *430:14 0.000282716
20 *1438:A2 *431:29 1.47007e-05
21 *1441:A2 *1640:I 0
22 *1443:A2 *430:14 0.000134622
23 *1443:A2 *431:25 1.2018e-05
24 *336:17 *430:14 7.3227e-05
25 *336:17 *431:25 4.62917e-05
26 *1302:A3 *1301:A2 2.6126e-05
27 *1436:A2 *1438:A2 2.71301e-05
28 *1437:A2 *336:17 9.61205e-06
29 *1438:A1 *1438:A2 0
30 *1438:A3 *1438:A2 0.000152155
31 *1440:A2 *336:6 0.000313673
32 *1440:A2 *336:17 6.14317e-05
33 *1441:A3 *1441:A2 4.00026e-06
34 *1441:A3 *336:6 0.000345541
35 *1513:D *1438:A2 1.02578e-05
36 *1514:D *336:6 3.61829e-05
37 *1552:RN *336:6 0
38 *1558:D *1294:A2 2.69281e-06
39 *1606:I *1443:A2 8.32897e-05
40 *1608:I *336:6 0.000143438
41 *201:14 *1301:A2 9.60518e-06
42 *287:33 *1443:A2 0.000216573
43 *287:33 *336:17 4.01712e-05
44 *299:35 *1301:A2 7.42541e-05
45 *299:48 *1294:A2 8.51576e-05
46 *299:48 *1301:A2 0.000121479
47 *316:25 *336:6 0
48 *318:6 *336:6 3.73627e-05
49 *318:19 *336:6 0.000342801
*RES
1 *1622:Z *336:4 4.5 
2 *336:4 *336:6 8.132 
3 *336:6 *1441:A2 5.108 
4 *336:6 *336:17 1.14 
5 *336:17 *1443:A2 6.172 
6 *336:17 *1438:A2 16.008 
7 *336:4 *336:43 4.5 
8 *336:43 *1301:A2 11.888 
9 *336:43 *1294:A2 10.976 
*END

*D_NET *337 0.0085403
*CONN
*I *1311:A2 I *D gf180mcu_fd_sc_mcu7t5v0__nand2_1
*I *1252:I I *D gf180mcu_fd_sc_mcu7t5v0__clkinv_1
*I *1303:A2 I *D gf180mcu_fd_sc_mcu7t5v0__nor2_1
*I *1304:A3 I *D gf180mcu_fd_sc_mcu7t5v0__nor3_1
*I *1569:D I *D gf180mcu_fd_sc_mcu7t5v0__dffsnq_1
*I *1623:Z O *D gf180mcu_fd_sc_mcu7t5v0__dlyb_1
*CAP
1 *1311:A2 3.41005e-05
2 *1252:I 0.000237947
3 *1303:A2 9.36394e-05
4 *1304:A3 3.79352e-05
5 *1569:D 0.000206084
6 *1623:Z 0
7 *337:44 0.000646344
8 *337:25 0.000915942
9 *337:19 0.000819037
10 *337:4 0.000427772
11 *1252:I *340:17 0.000237959
12 *1252:I *412:8 0
13 *1303:A2 *340:17 0.000203643
14 *1304:A3 *1304:A1 0.000267578
15 *1311:A2 *1311:A1 3.08902e-05
16 *1311:A2 *1624:I 0.000186882
17 *1569:D *1623:I 2.68145e-05
18 *1569:D *411:12 0
19 *337:19 *1311:A1 6.73903e-05
20 *337:19 *1413:A1 0.000164555
21 *337:19 *1416:A1 1.57353e-05
22 *337:19 *1624:I 0.000602412
23 *337:19 *411:12 8.0352e-06
24 *337:19 *411:19 5.18759e-05
25 *337:44 *339:8 0.000459622
26 *337:44 *339:30 0.000131642
27 *337:44 *413:18 0.000187377
28 *1410:B2 *1569:D 0.000778325
29 *1410:B2 *337:19 3.95687e-05
30 *1420:B1 *337:44 1.97747e-05
31 *1421:A2 *1311:A2 6.62006e-05
32 *1518:CLK *1569:D 0.000179609
33 *1562:RN *1569:D 9.68549e-05
34 *1562:RN *337:19 0.000594673
35 *1569:CLK *337:19 0
36 *1569:CLK *337:44 0.000232477
37 *160:16 *1304:A3 1.81048e-05
38 *213:20 *1252:I 2.64841e-05
39 *233:18 *1252:I 0.000123517
40 *233:18 *1303:A2 9.26357e-05
41 *233:24 *1303:A2 8.05328e-06
42 *297:25 *337:44 5.4634e-05
43 *312:16 *1304:A3 0.000148179
*RES
1 *1623:Z *337:4 4.5 
2 *337:4 *1569:D 7.388 
3 *337:4 *337:19 7.844 
4 *337:19 *337:25 11.66 
5 *337:25 *1304:A3 9.836 
6 *337:25 *337:44 12.42 
7 *337:44 *1303:A2 10.14 
8 *337:44 *1252:I 11.356 
9 *337:19 *1311:A2 9.532 
*END

*D_NET *338 0.00186276
*CONN
*I *1305:A3 I *D gf180mcu_fd_sc_mcu7t5v0__or3_1
*I *1313:B I *D gf180mcu_fd_sc_mcu7t5v0__oai31_1
*I *1624:Z O *D gf180mcu_fd_sc_mcu7t5v0__dlyb_1
*CAP
1 *1305:A3 0.000108745
2 *1313:B 0.000114188
3 *1624:Z 7.65413e-05
4 *338:6 0.000299474
5 *1305:A3 *1251:I 0.000142801
6 *1305:A3 *1310:A1 8.81341e-06
7 *1313:B *1310:A1 2.9378e-06
8 *1310:A3 *1305:A3 0.000142917
9 *1310:A3 *1313:B 1.49066e-06
10 *1316:B *1305:A3 4.66861e-05
11 *1575:I *1313:B 0
12 *160:12 *1305:A3 0.000378617
13 *218:10 *1313:B 6.64241e-05
14 *233:18 *1305:A3 5.22519e-05
15 *233:18 *1313:B 0.000403683
16 *312:16 *1305:A3 1.71854e-05
*RES
1 *1624:Z *338:6 5.032 
2 *338:6 *1313:B 5.64 
3 *338:6 *1305:A3 15.172 
*END

*D_NET *339 0.00830096
*CONN
*I *1333:C I *D gf180mcu_fd_sc_mcu7t5v0__aoi211_1
*I *1334:A1 I *D gf180mcu_fd_sc_mcu7t5v0__aoi21_1
*I *1338:C I *D gf180mcu_fd_sc_mcu7t5v0__aoi211_1
*I *1305:A1 I *D gf180mcu_fd_sc_mcu7t5v0__or3_1
*I *1304:A1 I *D gf180mcu_fd_sc_mcu7t5v0__nor3_1
*I *1625:Z O *D gf180mcu_fd_sc_mcu7t5v0__dlyb_1
*CAP
1 *1333:C 0
2 *1334:A1 7.73029e-05
3 *1338:C 0.000168457
4 *1305:A1 0
5 *1304:A1 4.37497e-05
6 *1625:Z 3.28034e-05
7 *339:32 0.000248467
8 *339:30 0.000397677
9 *339:8 0.000154173
10 *339:6 0.000538197
11 *1338:C *1253:I 0.000489649
12 *1338:C *373:10 0
13 *339:30 *1253:I 0.000631274
14 *339:30 *1255:I 0.00045128
15 *339:30 *1405:A1 1.37479e-05
16 *339:30 *1626:I 0.000144093
17 *339:30 *340:17 3.50929e-06
18 *339:30 *413:18 1.34535e-05
19 *339:32 *1253:I 0.000124769
20 *1304:A3 *1304:A1 0.000267578
21 *1333:A2 *1338:C 0.000199473
22 *1333:B *1334:A1 2.11799e-05
23 *1334:B *1334:A1 0.000246194
24 *1338:B *1338:C 8.64281e-06
25 *1408:B2 *339:30 0
26 *1409:A1 *1334:A1 7.83779e-05
27 *1409:A1 *1338:C 8.15645e-05
28 *1409:A1 *339:30 0.00147307
29 *1409:A1 *339:32 0.000151957
30 *1420:B1 *339:8 0.000690342
31 *1546:CLK *1338:C 0
32 *1563:D *339:30 2.6126e-05
33 *1563:CLK *339:8 4.725e-05
34 *1563:CLK *339:30 0.000310534
35 *160:16 *1304:A1 0.000324233
36 *208:10 *339:30 0
37 *212:12 *1334:A1 0.000171182
38 *297:29 *1304:A1 1.18942e-05
39 *312:16 *1304:A1 6.7497e-05
40 *337:44 *339:8 0.000459622
41 *337:44 *339:30 0.000131642
*RES
1 *1625:Z *339:6 4.728 
2 *339:6 *339:8 2.204 
3 *339:8 *1304:A1 14.64 
4 *339:8 *1305:A1 4.5 
5 *339:6 *339:30 10.58 
6 *339:30 *339:32 0.38 
7 *339:32 *1338:C 10.748 
8 *339:32 *1334:A1 9.988 
9 *339:30 *1333:C 9 
*END

*D_NET *340 0.0082326
*CONN
*I *1663:I I *D gf180mcu_fd_sc_mcu7t5v0__dlyb_1
*I *1405:A1 I *D gf180mcu_fd_sc_mcu7t5v0__nand2_1
*I *1625:I I *D gf180mcu_fd_sc_mcu7t5v0__dlyb_1
*I *1626:Z O *D gf180mcu_fd_sc_mcu7t5v0__dlyb_1
*CAP
1 *1663:I 0.00186828
2 *1405:A1 8.65376e-05
3 *1625:I 8.31465e-05
4 *1626:Z 0
5 *340:17 0.00224905
6 *340:4 0.000377374
7 *1625:I *412:21 0.000105696
8 *1663:I *1626:I 0
9 *340:17 *1255:I 0.000144663
10 *340:17 *412:8 3.26302e-05
11 *340:17 *412:21 2.96977e-05
12 *1252:I *340:17 0.000237959
13 *1303:A1 *1663:I 9.88736e-06
14 *1303:A2 *340:17 0.000203643
15 *1408:A1 *1663:I 7.88344e-05
16 *1408:B1 *1663:I 2.11395e-05
17 *1409:B2 *1663:I 5.48085e-05
18 *1546:RN *1663:I 9.67157e-05
19 *1547:CLK *1625:I 0.000422015
20 *1547:CLK *340:17 0.000140167
21 *1564:D *1663:I 0.000179609
22 *1564:CLK *1663:I 0.00159313
23 *208:8 *1405:A1 0.000114706
24 *233:24 *340:17 1.16164e-05
25 *272:31 *1663:I 7.40455e-05
26 *339:30 *1405:A1 1.37479e-05
27 *339:30 *340:17 3.50929e-06
*RES
1 *1626:Z *340:4 4.5 
2 *340:4 *1625:I 5.64 
3 *340:4 *340:17 7.692 
4 *340:17 *1405:A1 9.684 
5 *340:17 *1663:I 31.224 
*END

*D_NET *341 0.0139172
*CONN
*I *1330:A4 I *D gf180mcu_fd_sc_mcu7t5v0__nor4_1
*I *1371:A1 I *D gf180mcu_fd_sc_mcu7t5v0__nor2_1
*I *1353:I0 I *D gf180mcu_fd_sc_mcu7t5v0__mux2_2
*I *1352:I1 I *D gf180mcu_fd_sc_mcu7t5v0__mux2_2
*I *1357:I0 I *D gf180mcu_fd_sc_mcu7t5v0__mux2_2
*I *1627:Z O *D gf180mcu_fd_sc_mcu7t5v0__dlyb_1
*CAP
1 *1330:A4 0.000847694
2 *1371:A1 2.87073e-05
3 *1353:I0 0.000340883
4 *1352:I1 0
5 *1357:I0 0.000652282
6 *1627:Z 0.000192269
7 *341:42 0.000741997
8 *341:22 0.00069855
9 *341:18 0.000946689
10 *341:12 0.00156798
11 *1330:A4 *1330:A3 0.000263791
12 *1330:A4 *1331:A4 0.000838861
13 *1330:A4 *1347:A1 0.000372422
14 *1330:A4 *1351:I0 0.000283877
15 *1330:A4 *1490:I 0.000263962
16 *1330:A4 *345:35 2.91799e-05
17 *1330:A4 *348:55 9.23993e-05
18 *1330:A4 *351:12 6.63588e-05
19 *1330:A4 *397:39 7.43287e-05
20 *1330:A4 *398:16 4.5452e-05
21 *1330:A4 *398:27 7.13715e-06
22 *1353:I0 *1492:I 0
23 *1357:I0 *1642:I 0.000188746
24 *1357:I0 *1652:I 0.000244096
25 *1371:A1 *1353:I1 5.90898e-05
26 *341:12 *1369:A1 0.00020133
27 *341:12 *1387:I1 7.43773e-06
28 *341:12 *1492:I 0.000314423
29 *341:12 *396:14 4.97386e-06
30 *341:18 *348:55 5.48701e-05
31 *341:18 *351:12 3.37025e-05
32 *341:18 *396:14 1.34641e-06
33 *1332:A2 *1330:A4 0.000332737
34 *1346:B *1330:A4 3.58159e-05
35 *1351:S *1330:A4 8.55242e-05
36 *1353:S *1353:I0 0.000317494
37 *1357:S *1357:I0 0.000141897
38 *1359:S *1357:I0 4.93678e-05
39 *1367:A2 *1330:A4 3.73535e-05
40 *1369:A2 *341:12 3.35674e-05
41 *1371:A2 *341:12 6.38438e-05
42 *1372:B *341:18 0.00025189
43 *1372:B *341:42 0.000908052
44 *1529:D *1330:A4 3.32172e-05
45 *1529:CLK *1330:A4 0.000123275
46 *1532:D *1357:I0 0.00032464
47 *1532:CLK *1357:I0 0
48 *1534:D *1357:I0 0
49 *1537:RN *1357:I0 0.000215111
50 *1537:RN *341:18 0
51 *1537:CLK *1353:I0 0
52 *1537:CLK *1371:A1 5.90898e-05
53 *1538:RN *1353:I0 1.81542e-05
54 *1538:RN *341:12 0.00032652
55 *1538:RN *341:42 3.79206e-06
56 *1573:I *1330:A4 5.16015e-05
57 *1573:I *341:18 4.27512e-05
58 *245:24 *1357:I0 5.14074e-06
59 *302:19 *341:12 4.51025e-05
60 *304:8 *1330:A4 0.000604982
61 *326:8 *341:12 0.000137776
62 *326:10 *341:12 0.000203634
*RES
1 *1627:Z *341:12 16.54 
2 *341:12 *341:18 8.3 
3 *341:18 *341:22 4.728 
4 *341:22 *1357:I0 10.352 
5 *341:22 *1352:I1 4.5 
6 *341:18 *341:42 3.04 
7 *341:42 *1353:I0 10.976 
8 *341:42 *1371:A1 9.38 
9 *341:12 *1330:A4 14.304 
*END

*D_NET *342 0.0179996
*CONN
*I *1331:A1 I *D gf180mcu_fd_sc_mcu7t5v0__nor4_1
*I *1358:I0 I *D gf180mcu_fd_sc_mcu7t5v0__mux2_2
*I *1373:A1 I *D gf180mcu_fd_sc_mcu7t5v0__nor2_1
*I *1354:I0 I *D gf180mcu_fd_sc_mcu7t5v0__mux2_2
*I *1353:I1 I *D gf180mcu_fd_sc_mcu7t5v0__mux2_2
*I *1628:Z O *D gf180mcu_fd_sc_mcu7t5v0__dlyb_1
*CAP
1 *1331:A1 0.000247042
2 *1358:I0 0.000127046
3 *1373:A1 0.000147833
4 *1354:I0 0
5 *1353:I1 0.000680593
6 *1628:Z 0
7 *342:50 0.00185811
8 *342:10 0.000853186
9 *342:8 0.00183921
10 *342:4 0.000330426
11 *1331:A1 *1330:A3 5.98923e-05
12 *1331:A1 *1347:A1 0.00024941
13 *1331:A1 *1623:I 5.43087e-05
14 *1331:A1 *397:39 0.00153873
15 *1331:A1 *398:27 0.00124811
16 *1353:I1 *1354:I1 0.000355519
17 *1353:I1 *1492:I 0.000160191
18 *1358:I0 *347:43 5.32643e-06
19 *1373:A1 *1243:I 9.19281e-05
20 *1373:A1 *371:6 7.45328e-07
21 *342:8 *397:39 0.00018401
22 *342:10 *1354:I1 0.00122656
23 *342:50 *1354:I1 0.000868544
24 *342:50 *345:56 0.000228939
25 *342:50 *347:43 0
26 *1278:B2 *1358:I0 1.3493e-05
27 *1353:S *1353:I1 0.000444997
28 *1354:S *1353:I1 4.13816e-05
29 *1358:S *1358:I0 0.000902835
30 *1368:A1 *342:50 9.13149e-05
31 *1368:B *342:50 0
32 *1371:A1 *1353:I1 5.90898e-05
33 *1374:A1 *1358:I0 0.000741465
34 *1374:A1 *1373:A1 8.04139e-05
35 *1374:A1 *342:50 0.000170917
36 *1374:B *1373:A1 0.000487639
37 *1374:B *342:50 0.000150396
38 *1524:RN *1373:A1 0
39 *1525:D *1358:I0 1.47007e-05
40 *1525:D *1373:A1 5.23776e-05
41 *1525:RN *1373:A1 8.0352e-06
42 *1526:RN *342:50 1.56182e-05
43 *1527:D *342:50 0.000724279
44 *1528:RN *342:50 1.56182e-05
45 *1529:SETN *342:50 0.000205933
46 *1536:D *1353:I1 4.60244e-05
47 *1536:RN *1353:I1 5.14116e-06
48 *1537:CLK *1353:I1 0.000100673
49 *1539:D *342:10 0.000132369
50 *1614:I *342:50 1.82146e-05
51 *1616:I *342:50 0
52 *1653:I *342:50 7.84951e-05
53 *245:24 *1331:A1 0.000156138
54 *245:24 *342:8 0.00018401
55 *327:20 *342:50 0.00041715
56 *328:10 *342:50 0
57 *330:10 *342:50 0
58 *331:16 *342:50 6.84282e-05
59 *331:18 *342:50 9.91131e-05
60 *331:20 *1353:I1 1.46159e-05
61 *331:20 *342:10 0.000103089
*RES
1 *1628:Z *342:4 4.5 
2 *342:4 *342:8 5.64 
3 *342:8 *342:10 3.116 
4 *342:10 *1353:I1 15.232 
5 *342:10 *1354:I0 9 
6 *342:8 *342:50 18.332 
7 *342:50 *1373:A1 6.324 
8 *342:50 *1358:I0 16.084 
9 *342:4 *1331:A1 18.82 
*END

*D_NET *343 0.0111829
*CONN
*I *1388:A1 I *D gf180mcu_fd_sc_mcu7t5v0__nand2_1
*I *1341:A1 I *D gf180mcu_fd_sc_mcu7t5v0__nor2_1
*I *1629:Z O *D gf180mcu_fd_sc_mcu7t5v0__dlyb_1
*CAP
1 *1388:A1 0.0020546
2 *1341:A1 0.000617021
3 *1629:Z 0
4 *343:4 0.00267162
5 *1341:A1 *1629:I 0
6 *1341:A1 *349:43 0.000920154
7 *1388:A1 *1232:I 1.51256e-05
8 *1388:A1 *1343:A1 3.08808e-05
9 *1388:A1 *1356:A1 1.4587e-05
10 *1388:A1 *1494:I 1.18942e-05
11 *1388:A1 *1652:I 9.5126e-05
12 *1388:A1 *414:27 0.000190317
13 *1342:A1 *1341:A1 8.24296e-05
14 *1346:A1 *1388:A1 0
15 *1386:A2 *1388:A1 9.65141e-05
16 *1389:A2 *1388:A1 0
17 *1389:B *1388:A1 0.000326266
18 *1517:D *1388:A1 1.83267e-05
19 *1519:D *1388:A1 7.43568e-05
20 *1542:D *1388:A1 0.000142801
21 *1543:RN *1388:A1 0
22 *1611:I *1388:A1 0
23 *1612:I *1388:A1 0.00219063
24 *143:12 *1388:A1 0
25 *303:34 *1341:A1 8.55327e-05
26 *323:38 *1388:A1 0
27 *325:10 *1388:A1 0.00154475
*RES
1 *1629:Z *343:4 4.5 
2 *343:4 *1341:A1 18.668 
3 *343:4 *1388:A1 30.98 
*END

*D_NET *344 0.00135096
*CONN
*I *1570:D I *D gf180mcu_fd_sc_mcu7t5v0__dffsnq_1
*I *1657:Z O *D gf180mcu_fd_sc_mcu7t5v0__dlyb_1
*CAP
1 *1570:D 0.000182158
2 *1657:Z 0.000182158
3 *1570:D *1355:I0 0
4 *1568:D *1570:D 0.000493324
5 *239:16 *1570:D 0.000493324
*RES
1 *1657:Z *1570:D 20.28 
*END

*D_NET *345 0.0193877
*CONN
*I *1343:A1 I *D gf180mcu_fd_sc_mcu7t5v0__nor2_1
*I *1375:A1 I *D gf180mcu_fd_sc_mcu7t5v0__nor2_1
*I *1359:I0 I *D gf180mcu_fd_sc_mcu7t5v0__mux2_2
*I *1354:I1 I *D gf180mcu_fd_sc_mcu7t5v0__mux2_2
*I *1331:A2 I *D gf180mcu_fd_sc_mcu7t5v0__nor4_1
*I *1630:Z O *D gf180mcu_fd_sc_mcu7t5v0__dlyb_1
*CAP
1 *1343:A1 0.00055505
2 *1375:A1 6.741e-05
3 *1359:I0 0.000163902
4 *1354:I1 0.000409681
5 *1331:A2 9.58327e-05
6 *1630:Z 1.93893e-05
7 *345:56 0.0010699
8 *345:35 0.00171075
9 *345:10 0.000722301
10 *345:6 0.000738429
11 *1331:A2 *1385:A1 0.000100584
12 *1343:A1 *1497:I 0
13 *1343:A1 *1630:I 0.000115032
14 *1343:A1 *1652:I 0.000729763
15 *1343:A1 *398:44 1.43729e-05
16 *1354:I1 *1490:I 0.000143941
17 *1354:I1 *349:23 0.000425895
18 *1354:I1 *398:10 0.000174115
19 *1359:I0 *1641:I 0.000145096
20 *1359:I0 *355:10 8.82422e-05
21 *1375:A1 *1641:I 0.000317373
22 *1375:A1 *348:33 0.000255714
23 *345:10 *1345:A1 0.000369754
24 *345:35 *1331:A4 0.000859397
25 *345:35 *1345:A1 0.00016977
26 *345:35 *1347:A1 0.000156625
27 *345:35 *1385:A1 0.000140663
28 *345:35 *1490:I 0.00012396
29 *345:35 *400:8 1.93526e-05
30 *345:56 *1369:A1 2.33289e-05
31 *345:56 *1636:I 2.96621e-05
32 *345:56 *348:33 4.35176e-06
33 *345:56 *355:10 0.000193942
34 *345:56 *358:14 8.05339e-05
35 *345:56 *397:12 8.71673e-05
36 *345:56 *398:10 0.000110254
37 *1330:A4 *345:35 2.91799e-05
38 *1332:A2 *345:6 1.2339e-05
39 *1332:A2 *345:10 6.58108e-05
40 *1345:A2 *345:10 3.00299e-05
41 *1346:A1 *1331:A2 0.000142801
42 *1346:B *345:10 0.000369754
43 *1346:B *345:35 0.000118665
44 *1353:I1 *1354:I1 0.000355519
45 *1353:S *1354:I1 5.13352e-06
46 *1376:B *1375:A1 0.000255714
47 *1388:A1 *1343:A1 3.08808e-05
48 *1520:D *1343:A1 0
49 *1524:D *345:56 5.14323e-05
50 *1528:CLK *345:56 0.000189518
51 *1529:D *345:35 0.000317503
52 *1532:RN *345:56 0.000170069
53 *1534:D *1359:I0 0.000585188
54 *1543:RN *1343:A1 0.000101228
55 *1612:I *1343:A1 0.00032518
56 *1653:I *1359:I0 0.000189665
57 *1653:I *1375:A1 5.211e-05
58 *143:12 *1331:A2 0.000235808
59 *302:19 *345:56 0.000104024
60 *302:27 *345:56 8.05934e-05
61 *311:30 *345:6 2.22758e-05
62 *311:30 *345:10 7.49127e-05
63 *311:30 *345:56 0.00225686
64 *326:8 *345:56 2.69001e-05
65 *326:41 *345:56 0
66 *331:16 *345:35 0.000432989
67 *342:10 *1354:I1 0.00122656
68 *342:50 *1354:I1 0.000868544
69 *342:50 *345:56 0.000228939
*RES
1 *1630:Z *345:6 4.728 
2 *345:6 *345:10 6.552 
3 *345:10 *1331:A2 10.216 
4 *345:10 *345:35 15.156 
5 *345:35 *1354:I1 15.308 
6 *345:35 *345:56 18.728 
7 *345:56 *1359:I0 11.508 
8 *345:56 *1375:A1 10.52 
9 *345:6 *1343:A1 18.668 
*END

*D_NET *346 0.00636002
*CONN
*I *1355:I0 I *D gf180mcu_fd_sc_mcu7t5v0__mux2_2
*I *1390:I1 I *D gf180mcu_fd_sc_mcu7t5v0__mux2_2
*I *1631:Z O *D gf180mcu_fd_sc_mcu7t5v0__dlyb_1
*CAP
1 *1355:I0 0.000940301
2 *1390:I1 6.84141e-05
3 *1631:Z 0.000368287
4 *346:12 0.001377
5 *1355:I0 *1355:I1 1.72912e-05
6 *1355:I0 *1460:I 2.18834e-05
7 *1355:I0 *1643:I 2.91798e-05
8 *1355:I0 *1651:I 0.0011614
9 *1355:I0 *360:21 2.45791e-05
10 *1355:I0 *360:41 4.07495e-05
11 *346:12 *1390:I0 0.000311663
12 *346:12 *1623:I 0.000607069
13 *346:12 *1643:I 0.000186829
14 *346:12 *1651:I 5.26075e-05
15 *1355:S *1355:I0 0
16 *1516:D *1355:I0 9.88736e-06
17 *1516:CLK *1355:I0 8.04564e-05
18 *1516:CLK *1390:I1 0.000111246
19 *1518:CLK *346:12 8.22324e-05
20 *1535:D *1355:I0 0
21 *1570:D *1355:I0 0
22 *1570:CLK *1355:I0 0.000157386
23 *233:18 *346:12 6.27911e-05
24 *239:16 *1355:I0 0
25 *309:19 *1355:I0 0
26 *323:6 *346:12 0.000540425
27 *334:27 *1355:I0 4.72901e-05
28 *334:27 *1390:I1 6.10581e-05
*RES
1 *1631:Z *346:12 18.668 
2 *346:12 *1390:I1 5.184 
3 *346:12 *1355:I0 21.176 
*END

*D_NET *347 0.013085
*CONN
*I *1482:I I *D gf180mcu_fd_sc_mcu7t5v0__clkinv_1
*I *1492:I I *D gf180mcu_fd_sc_mcu7t5v0__clkinv_1
*I *1480:I I *D gf180mcu_fd_sc_mcu7t5v0__clkinv_1
*I *1478:I I *D gf180mcu_fd_sc_mcu7t5v0__clkinv_1
*I *1488:I I *D gf180mcu_fd_sc_mcu7t5v0__clkinv_1
*I *1632:Z O *D gf180mcu_fd_sc_mcu7t5v0__dlyb_1
*CAP
1 *1482:I 2.70872e-05
2 *1492:I 0.000727621
3 *1480:I 0
4 *1478:I 0
5 *1488:I 0.000154369
6 *1632:Z 0.000222105
7 *347:43 0.0014762
8 *347:34 0.000940115
9 *347:14 0.000351851
10 *347:8 0.000638208
11 *1488:I *1632:I 7.24161e-06
12 *1488:I *348:33 7.87222e-05
13 *1492:I *1352:I0 5.07443e-05
14 *1492:I *1369:A1 0.00174088
15 *1492:I *397:12 3.08808e-05
16 *347:8 *1662:I 6.12935e-05
17 *347:8 *371:6 4.1343e-05
18 *347:14 *1641:I 0.000166397
19 *347:34 *1424:A1 0
20 *347:34 *1641:I 0.000109493
21 *347:43 *1424:A1 0
22 *347:43 *384:10 0.00026286
23 *1278:B2 *347:43 0
24 *1353:I0 *1492:I 0
25 *1353:I1 *1492:I 0.000160191
26 *1353:S *1492:I 0.00026286
27 *1358:I0 *347:43 5.32643e-06
28 *1358:S *347:43 0
29 *1375:A2 *1488:I 9.88736e-06
30 *1375:A2 *347:14 3.1829e-05
31 *1524:RN *347:14 0.000324233
32 *1525:RN *347:8 2.80298e-05
33 *1526:RN *347:43 0.00138771
34 *1527:D *1482:I 4.97712e-06
35 *1527:D *347:43 0
36 *1533:D *347:34 4.4998e-05
37 *1534:RN *1488:I 0.000157657
38 *1534:RN *347:14 5.49899e-05
39 *1536:D *1492:I 0
40 *1536:CLK *1492:I 0.000170075
41 *1538:RN *1492:I 0.000591148
42 *1573:I *1492:I 0.0011617
43 *1589:I *1492:I 5.32398e-05
44 *1616:I *347:43 0
45 *1653:I *347:14 0.000263455
46 *1653:I *347:34 0.000339116
47 *1653:I *347:43 1.24512e-05
48 *150:6 *347:43 2.8001e-06
49 *294:19 *1482:I 1.22037e-05
50 *294:19 *347:43 0.000186502
51 *294:41 *1492:I 0.00012053
52 *295:22 *1492:I 0.000297234
53 *331:18 *1492:I 0
54 *331:20 *1492:I 0
55 *341:12 *1492:I 0.000314423
56 *342:50 *347:43 0
*RES
1 *1632:Z *347:8 10.444 
2 *347:8 *347:14 7.084 
3 *347:14 *1488:I 5.868 
4 *347:14 *1478:I 4.5 
5 *347:8 *347:34 6.78 
6 *347:34 *1480:I 4.5 
7 *347:34 *347:43 6.232 
8 *347:43 *1492:I 25.964 
9 *347:43 *1482:I 4.728 
*END

*D_NET *348 0.0133985
*CONN
*I *1493:I I *D gf180mcu_fd_sc_mcu7t5v0__clkinv_1
*I *1490:I I *D gf180mcu_fd_sc_mcu7t5v0__clkinv_1
*I *1632:I I *D gf180mcu_fd_sc_mcu7t5v0__dlyb_1
*I *1486:I I *D gf180mcu_fd_sc_mcu7t5v0__clkinv_1
*I *1491:I I *D gf180mcu_fd_sc_mcu7t5v0__clkinv_1
*I *1633:Z O *D gf180mcu_fd_sc_mcu7t5v0__dlyb_1
*CAP
1 *1493:I 7.06172e-05
2 *1490:I 0.000916041
3 *1632:I 0.000267378
4 *1486:I 3.28034e-05
5 *1491:I 0.00049811
6 *1633:Z 5.46724e-05
7 *348:55 0.00134383
8 *348:33 0.000947386
9 *348:16 0.00146321
10 *348:6 0.000729746
11 *1490:I *1623:I 0.000135843
12 *1490:I *1628:I 0.000223855
13 *1490:I *349:8 3.00299e-05
14 *1490:I *349:23 3.22379e-05
15 *1490:I *395:10 0.000235101
16 *1490:I *398:10 7.52388e-05
17 *1491:I *358:14 0.000306656
18 *1491:I *370:10 3.79102e-05
19 *1632:I *1357:I1 0
20 *348:16 *351:6 0
21 *348:16 *351:12 0
22 *348:16 *396:14 9.08121e-06
23 *348:33 *358:14 0.000129992
24 *348:33 *370:10 3.16905e-05
25 *348:55 *351:12 0
26 cap_ctrl[0] *1632:I 0
27 *1330:A4 *1490:I 0.000263962
28 *1330:A4 *348:55 9.23993e-05
29 *1351:S *1490:I 3.73535e-05
30 *1354:I1 *1490:I 0.000143941
31 *1358:S *1491:I 0.000177619
32 *1358:S *348:33 0.000146213
33 *1366:A1 *1490:I 0.000668789
34 *1368:B *1490:I 0.00033338
35 *1372:B *348:55 3.73627e-05
36 *1375:A1 *348:33 0.000255714
37 *1375:A2 *348:33 0.000236756
38 *1376:A1 *348:33 0.00032464
39 *1376:B *348:33 0.000284006
40 *1488:I *1632:I 7.24161e-06
41 *1488:I *348:33 7.87222e-05
42 *1524:D *348:33 8.04139e-05
43 *1524:CLK *348:16 0.000381105
44 *1526:D *348:55 9.14686e-05
45 *1532:RN *348:33 9.47539e-05
46 *1536:RN *1490:I 0.000360226
47 *1538:RN *348:55 0.000177992
48 *1539:RN *1490:I 5.7379e-05
49 *1539:RN *1493:I 1.28529e-05
50 *1571:SETN *1490:I 0.000508106
51 *1571:CLK *1490:I 0.000260709
52 *311:30 *1490:I 1.53689e-05
53 *311:30 *348:16 0.000306302
54 *311:30 *348:55 0.000137539
55 *326:41 *348:33 5.26108e-05
56 *331:16 *1490:I 1.90005e-05
57 *341:18 *348:55 5.48701e-05
58 *345:35 *1490:I 0.00012396
59 *345:56 *348:33 4.35176e-06
*RES
1 *1633:Z *348:6 4.88 
2 *348:6 *348:16 7.388 
3 *348:16 *1491:I 12.42 
4 *348:16 *348:33 10.656 
5 *348:33 *1486:I 4.728 
6 *348:33 *1632:I 15.324 
7 *348:6 *348:55 2.964 
8 *348:55 *1490:I 24.14 
9 *348:55 *1493:I 5.032 
*END

*D_NET *349 0.0101531
*CONN
*I *1497:I I *D gf180mcu_fd_sc_mcu7t5v0__clkinv_1
*I *1458:I I *D gf180mcu_fd_sc_mcu7t5v0__clkinv_1
*I *1498:I I *D gf180mcu_fd_sc_mcu7t5v0__clkinv_1
*I *1495:I I *D gf180mcu_fd_sc_mcu7t5v0__clkinv_1
*I *1461:I I *D gf180mcu_fd_sc_mcu7t5v0__clkinv_1
*I *1634:Z O *D gf180mcu_fd_sc_mcu7t5v0__dlyb_1
*CAP
1 *1497:I 0.000450898
2 *1458:I 0.000217669
3 *1498:I 0
4 *1495:I 0.000230407
5 *1461:I 9.52298e-05
6 *1634:Z 0
7 *349:43 0.00129997
8 *349:23 0.000658975
9 *349:8 0.000795133
10 *349:4 0.000902736
11 *1495:I *1623:I 5.80445e-05
12 *1495:I *1628:I 1.90918e-05
13 *1495:I *1634:I 0
14 *1497:I *1630:I 8.55327e-05
15 *349:23 *1629:I 0.000317503
16 *1341:A1 *349:43 0.000920154
17 *1342:A2 *349:43 0
18 *1343:A1 *1497:I 0
19 *1343:A2 *1458:I 2.33477e-05
20 *1344:A1 *1458:I 6.38438e-05
21 *1344:A1 *1497:I 6.95207e-05
22 *1344:B *1458:I 0.000278996
23 *1344:B *1497:I 0.00108555
24 *1353:S *349:23 0
25 *1354:I1 *349:23 0.000425895
26 *1356:A2 *1497:I 9.6996e-05
27 *1490:I *349:8 3.00299e-05
28 *1490:I *349:23 3.22379e-05
29 *1536:D *349:23 0
30 *1536:RN *349:8 0.000634928
31 *1539:CLK *349:23 9.62167e-05
32 *1543:D *349:43 0
33 *1543:RN *1497:I 0.000192107
34 *1544:D *349:43 5.07244e-05
35 *1568:CLK *1458:I 2.22758e-05
36 *1571:SETN *1461:I 4.32237e-05
37 *1571:SETN *349:8 2.98131e-06
38 *1571:SETN *349:23 0.000103986
39 *1571:CLK *1461:I 5.94709e-06
40 *1571:CLK *349:8 0.000191702
41 *142:8 *1497:I 6.14664e-05
42 *239:33 *1458:I 0.000198216
43 *303:13 *349:43 0
44 *303:34 *349:8 0.000164594
45 *303:34 *349:43 0.000211844
46 *304:23 *1495:I 1.51256e-05
*RES
1 *1634:Z *349:4 4.5 
2 *349:4 *349:8 7.464 
3 *349:8 *1461:I 9.684 
4 *349:8 *349:23 8.148 
5 *349:23 *1495:I 14.792 
6 *349:23 *1498:I 4.5 
7 *349:4 *349:43 9.744 
8 *349:43 *1458:I 11.28 
9 *349:43 *1497:I 13.56 
*END

*D_NET *350 0.00711024
*CONN
*I *1474:I I *D gf180mcu_fd_sc_mcu7t5v0__clkinv_1
*I *1483:I I *D gf180mcu_fd_sc_mcu7t5v0__clkinv_1
*I *1496:I I *D gf180mcu_fd_sc_mcu7t5v0__clkinv_1
*I *1635:Z O *D gf180mcu_fd_sc_mcu7t5v0__dlyb_1
*CAP
1 *1474:I 0.000751063
2 *1483:I 0.000271849
3 *1496:I 2.16661e-05
4 *1635:Z 7.80975e-05
5 *350:19 0.0010727
6 *350:8 0.000149556
7 *1474:I *1262:A4 0
8 *1474:I *1291:A1 3.77875e-05
9 *1474:I *1361:A1 9.16934e-05
10 *1474:I *1380:A1 0.000462011
11 *1474:I *1385:A1 0.00012695
12 *1474:I *1473:I 0.000106715
13 *1474:I *354:29 7.46179e-05
14 *1474:I *387:12 4.08125e-05
15 *1474:I *400:36 0.000102185
16 *1483:I *1363:A1 2.9378e-06
17 *1496:I *400:36 0.000122849
18 *350:19 *400:36 0.00026966
19 *1363:A2 *1483:I 0.000232543
20 *1364:B *1483:I 0.000196402
21 *1381:B *1474:I 0.000441063
22 *1519:RN *1474:I 0.000123372
23 *1523:CLK *1474:I 1.23306e-05
24 *1531:D *350:8 0.000213015
25 *1531:SETN *1474:I 0
26 *1599:I *1483:I 0.000160279
27 *1616:I *350:8 3.83835e-06
28 *294:9 *1483:I 0.000357467
29 *307:19 *1474:I 0.000145096
30 *307:19 *350:19 0.000546574
31 *307:23 *1496:I 0.000269848
32 *307:23 *350:19 8.84331e-05
33 *329:16 *350:8 0.000536827
*RES
1 *1635:Z *350:8 10.444 
2 *350:8 *1496:I 9.684 
3 *350:8 *350:19 1.596 
4 *350:19 *1483:I 12.268 
5 *350:19 *1474:I 16.22 
*END

*D_NET *351 0.0119774
*CONN
*I *1633:I I *D gf180mcu_fd_sc_mcu7t5v0__dlyb_1
*I *1635:I I *D gf180mcu_fd_sc_mcu7t5v0__dlyb_1
*I *1634:I I *D gf180mcu_fd_sc_mcu7t5v0__dlyb_1
*I *1636:Z O *D gf180mcu_fd_sc_mcu7t5v0__dlyb_1
*CAP
1 *1633:I 0
2 *1635:I 0.000522845
3 *1634:I 0.000356277
4 *1636:Z 0.000755195
5 *351:12 0.00156802
6 *351:6 0.00144409
7 *1634:I *1629:I 3.38043e-05
8 *1635:I *1387:I1 6.71768e-05
9 *1635:I *400:12 6.48268e-05
10 *1635:I *400:36 2.41778e-05
11 *351:6 *1660:I 0.00059069
12 *351:6 *396:14 1.72572e-05
13 *351:12 *1351:I0 8.03017e-05
14 *351:12 *1352:I0 0.000177239
15 *351:12 *1623:I 0.000673425
16 *351:12 *397:27 0.000317503
17 *351:12 *397:39 0.000380481
18 *351:12 *398:16 0.000121745
19 *351:12 *398:27 0.000797041
20 *1330:A4 *351:12 6.63588e-05
21 *1342:A1 *1634:I 0.000207562
22 *1359:S *351:6 0
23 *1366:B *1635:I 0.000513687
24 *1495:I *1634:I 0
25 *1519:CLK *1635:I 9.19281e-05
26 *1524:CLK *351:6 6.87037e-05
27 *1534:CLK *351:6 0.000222701
28 *1541:RN *1634:I 0.00103639
29 *1541:RN *1635:I 0.000244881
30 *1573:I *351:12 0.000178892
31 *1581:I *1635:I 0
32 *1617:I *1635:I 0.000122758
33 *141:25 *1634:I 1.3575e-05
34 *245:24 *351:6 0
35 *303:34 *1634:I 7.71175e-06
36 *304:19 *1634:I 0.000189826
37 *304:19 *1635:I 8.73097e-05
38 *304:23 *1634:I 0.000356103
39 *311:30 *351:6 0
40 *328:47 *1635:I 0.000517099
41 *332:16 *1635:I 2.61316e-05
42 *341:18 *351:12 3.37025e-05
43 *348:16 *351:6 0
44 *348:16 *351:12 0
45 *348:55 *351:12 0
*RES
1 *1636:Z *351:6 9.896 
2 *351:6 *351:12 12.404 
3 *351:12 *1634:I 13.408 
4 *351:12 *1635:I 14.624 
5 *351:6 *1633:I 4.5 
*END

*D_NET *352 0.0114759
*CONN
*I *1481:I I *D gf180mcu_fd_sc_mcu7t5v0__clkinv_1
*I *1462:I I *D gf180mcu_fd_sc_mcu7t5v0__clkinv_1
*I *1463:I I *D gf180mcu_fd_sc_mcu7t5v0__clkinv_1
*I *1487:I I *D gf180mcu_fd_sc_mcu7t5v0__clkinv_1
*I *1479:I I *D gf180mcu_fd_sc_mcu7t5v0__clkinv_1
*I *1637:Z O *D gf180mcu_fd_sc_mcu7t5v0__dlyb_1
*CAP
1 *1481:I 0.000765749
2 *1462:I 0.000170258
3 *1463:I 0
4 *1487:I 0
5 *1479:I 7.21246e-05
6 *1637:Z 0
7 *352:34 0.000549393
8 *352:30 0.00145714
9 *352:8 0.000121465
10 *352:6 0.000361592
11 *1462:I *1662:I 0
12 *1479:I *1662:I 0.000603474
13 *1481:I *1274:B2 0.000386603
14 *1481:I *1422:A1 0.000851228
15 *1481:I *1637:I 0.000142809
16 *1481:I *1638:I 5.43763e-05
17 *1481:I *357:8 0.00095815
18 *1481:I *357:10 0.000228948
19 *1481:I *357:27 0.0011612
20 *1481:I *384:19 0.000142801
21 *1481:I *385:10 0.000127484
22 *1481:I *426:29 0.000137319
23 *352:8 *1662:I 0.000381142
24 *352:30 *1422:A1 0.000317494
25 *352:30 *1661:I 0
26 *352:30 *1662:I 0.001116
27 *352:34 *1662:I 0
28 *1274:B1 *1481:I 1.97747e-05
29 *1280:A1 *1481:I 9.69896e-06
30 *1292:A1 *1481:I 3.73627e-05
31 *1292:A2 *1481:I 7.32209e-05
32 *1292:B1 *1481:I 0.000572096
33 *1292:B2 *1481:I 1.38267e-05
34 *1422:A2 *1481:I 0.000148623
35 *1422:A2 *352:30 6.77492e-05
36 *1422:A3 *352:30 5.76749e-06
37 *1427:A2 *1481:I 0
38 *1508:D *1481:I 5.09739e-06
39 *1508:CLK *1481:I 8.55327e-05
40 *1527:RN *1481:I 0
41 *1533:D *1479:I 5.64973e-05
42 *1533:D *352:8 3.86561e-05
43 *1533:D *352:30 3.86561e-05
44 *168:14 *1481:I 1.1425e-05
45 *335:26 *1481:I 0.000185138
*RES
1 *1637:Z *352:6 9 
2 *352:6 *352:8 0.988 
3 *352:8 *1479:I 10.444 
4 *352:8 *1487:I 9 
5 *352:6 *352:30 8.3 
6 *352:30 *352:34 7.16 
7 *352:34 *1463:I 9 
8 *352:34 *1462:I 10.292 
9 *352:30 *1481:I 24.9 
*END

*D_NET *353 0.0028848
*CONN
*I *1465:I I *D gf180mcu_fd_sc_mcu7t5v0__clkinv_1
*I *1466:I I *D gf180mcu_fd_sc_mcu7t5v0__clkinv_1
*I *1464:I I *D gf180mcu_fd_sc_mcu7t5v0__clkinv_1
*I *1638:Z O *D gf180mcu_fd_sc_mcu7t5v0__dlyb_1
*CAP
1 *1465:I 0
2 *1466:I 0.000605613
3 *1464:I 0.000199267
4 *1638:Z 3.41597e-05
5 *353:17 0.000809589
6 *353:6 0.000437403
7 *1466:I *1258:I 0.000111858
8 *1466:I *429:10 4.71484e-05
9 *353:17 *1638:I 0
10 *1511:RN *1466:I 0.000438681
11 *1512:RN *1466:I 0.00020108
*RES
1 *1638:Z *353:6 4.728 
2 *353:6 *1464:I 5.716 
3 *353:6 *353:17 1.292 
4 *353:17 *1466:I 9.364 
5 *353:17 *1465:I 4.5 
*END

*D_NET *354 0.011834
*CONN
*I *1468:I I *D gf180mcu_fd_sc_mcu7t5v0__clkinv_1
*I *1467:I I *D gf180mcu_fd_sc_mcu7t5v0__clkinv_1
*I *1473:I I *D gf180mcu_fd_sc_mcu7t5v0__clkinv_1
*I *1485:I I *D gf180mcu_fd_sc_mcu7t5v0__clkinv_1
*I *1484:I I *D gf180mcu_fd_sc_mcu7t5v0__clkinv_1
*I *1639:Z O *D gf180mcu_fd_sc_mcu7t5v0__dlyb_1
*CAP
1 *1468:I 0.000532959
2 *1467:I 4.46107e-05
3 *1473:I 0.000413647
4 *1485:I 0
5 *1484:I 0.000455376
6 *1639:Z 0
7 *354:53 0.00145918
8 *354:29 0.000618234
9 *354:23 0.00143824
10 *354:4 0.000807414
11 *1467:I *1469:I 3.59561e-05
12 *1467:I *430:36 3.00299e-05
13 *1468:I *1469:I 2.09793e-05
14 *1473:I *1262:A4 0.000241013
15 *1473:I *377:6 4.50449e-05
16 *1484:I *1289:A2 0.000254326
17 *1484:I *357:27 0.00162706
18 *1484:I *385:10 4.68042e-05
19 *1484:I *432:14 4.83975e-05
20 *354:23 *1236:I 1.15244e-05
21 *354:23 *1291:A1 0
22 *354:23 *357:27 4.76572e-05
23 *354:23 *432:14 8.91093e-05
24 *354:29 *389:8 0
25 *354:53 *1236:I 0
26 *354:53 *1378:A1 4.03131e-05
27 *354:53 *1469:I 0.000844245
28 *354:53 *1477:I 0.000362211
29 *354:53 *389:8 0
30 *1281:A1 *354:23 0
31 *1281:A1 *354:53 1.33998e-05
32 *1287:A1 *1484:I 0
33 *1287:C *1484:I 0.00013058
34 *1292:A1 *1484:I 4.04248e-05
35 *1370:A1 *1484:I 5.13352e-06
36 *1378:A2 *354:29 8.68662e-05
37 *1378:A2 *354:53 3.83192e-05
38 *1379:A1 *354:29 2.94028e-05
39 *1381:B *1473:I 8.38119e-05
40 *1438:A1 *1468:I 0
41 *1438:A2 *1468:I 3.73535e-05
42 *1443:A3 *354:53 0
43 *1474:I *1473:I 0.000106715
44 *1474:I *354:29 7.46179e-05
45 *1513:D *1468:I 2.94167e-05
46 *1513:RN *1467:I 0.000134622
47 *1513:RN *1468:I 0.000288164
48 *1519:RN *1473:I 0.000103857
49 *1523:CLK *1473:I 0.000171106
50 *1523:CLK *354:29 6.9566e-05
51 *1531:SETN *354:23 9.404e-05
52 *1531:SETN *354:29 0.000146811
53 *1585:I *354:29 0.000129399
54 *1586:I *354:23 7.10298e-05
55 *1586:I *354:53 1.94106e-05
56 *1600:I *354:53 0.000279493
57 *1606:I *1468:I 0
58 *1607:I *1484:I 0
59 *145:6 *354:23 7.71175e-06
60 *316:25 *1468:I 0.000128373
*RES
1 *1639:Z *354:4 4.5 
2 *354:4 *1484:I 18.896 
3 *354:4 *354:23 7.16 
4 *354:23 *354:29 6.932 
5 *354:29 *1485:I 4.5 
6 *354:29 *1473:I 8.376 
7 *354:23 *354:53 12.632 
8 *354:53 *1467:I 5.032 
9 *354:53 *1468:I 8.68 
*END

*D_NET *355 0.00293898
*CONN
*I *1660:I I *D gf180mcu_fd_sc_mcu7t5v0__dlyb_1
*I *1359:I1 I *D gf180mcu_fd_sc_mcu7t5v0__mux2_2
*I *1532:Q O *D gf180mcu_fd_sc_mcu7t5v0__dffrnq_1
*CAP
1 *1660:I 0.00033334
2 *1359:I1 0.000217025
3 *1532:Q 0.000255041
4 *355:10 0.000805406
5 *355:10 *1641:I 4.07337e-05
6 *355:10 *358:14 4.63109e-05
7 cap_ctrl[0] *1660:I 0
8 *1357:S *1660:I 0
9 *1358:S *1359:I1 0
10 *1358:S *355:10 0
11 *1359:I0 *355:10 8.82422e-05
12 *1359:S *1660:I 7.54445e-06
13 *1532:RN *355:10 0
14 *1534:D *1359:I1 0.000129342
15 *1534:D *1660:I 6.12935e-05
16 *1534:D *355:10 0.000170075
17 *1653:I *1359:I1 0
18 *311:30 *1660:I 0
19 *345:56 *355:10 0.000193942
20 *351:6 *1660:I 0.00059069
*RES
1 *1532:Q *355:10 11.432 
2 *355:10 *1359:I1 10.596 
3 *355:10 *1660:I 11.66 
*END

*D_NET *356 0.00774153
*CONN
*I *1476:I I *D gf180mcu_fd_sc_mcu7t5v0__clkinv_1
*I *1469:I I *D gf180mcu_fd_sc_mcu7t5v0__clkinv_1
*I *1477:I I *D gf180mcu_fd_sc_mcu7t5v0__clkinv_1
*I *1640:Z O *D gf180mcu_fd_sc_mcu7t5v0__dlyb_1
*CAP
1 *1476:I 0.000149228
2 *1469:I 0.000750433
3 *1477:I 7.77923e-05
4 *1640:Z 0
5 *356:8 0.00101061
6 *356:4 0.000331611
7 *1469:I *1439:A2 7.45328e-07
8 *1469:I *430:8 0.000103773
9 *1469:I *430:14 3.71904e-05
10 *1469:I *430:36 2.57365e-05
11 *1469:I *431:29 0.000283447
12 *1476:I *381:27 0.000379003
13 *1477:I *431:29 7.90729e-05
14 *356:8 *1281:A2 3.73627e-05
15 *356:8 *1284:A2 3.83835e-06
16 *356:8 *381:10 3.23347e-05
17 *356:8 *381:27 0.000673033
18 *1281:A1 *1477:I 0.000639564
19 *1467:I *1469:I 3.59561e-05
20 *1468:I *1469:I 2.09793e-05
21 *1513:D *1469:I 0.00112948
22 *1515:RN *1469:I 0.000157845
23 *1522:RN *1476:I 0.000376901
24 *308:26 *356:8 1.15312e-05
25 *308:35 *1476:I 0.000103957
26 *308:35 *356:8 8.36431e-05
27 *354:53 *1469:I 0.000844245
28 *354:53 *1477:I 0.000362211
*RES
1 *1640:Z *356:4 4.5 
2 *356:4 *356:8 6.704 
3 *356:8 *1477:I 11.052 
4 *356:8 *1469:I 17.512 
5 *356:4 *1476:I 6.932 
*END

*D_NET *357 0.0201479
*CONN
*I *1638:I I *D gf180mcu_fd_sc_mcu7t5v0__dlyb_1
*I *1640:I I *D gf180mcu_fd_sc_mcu7t5v0__dlyb_1
*I *1639:I I *D gf180mcu_fd_sc_mcu7t5v0__dlyb_1
*I *1637:I I *D gf180mcu_fd_sc_mcu7t5v0__dlyb_1
*I *1641:Z O *D gf180mcu_fd_sc_mcu7t5v0__dlyb_1
*CAP
1 *1638:I 0.000505498
2 *1640:I 0.000846922
3 *1639:I 0.000168674
4 *1637:I 0.000474291
5 *1641:Z 0.000157517
6 *357:27 0.00146016
7 *357:10 0.000955815
8 *357:8 0.000699977
9 *1637:I *1290:A4 0.000408032
10 *1637:I *384:19 5.66946e-05
11 *1638:I *1242:I 9.91488e-05
12 *1638:I *1274:B2 2.23783e-05
13 *1639:I *1291:A1 0.00011135
14 *1639:I *388:8 9.88736e-06
15 *1639:I *389:8 2.68029e-05
16 *1640:I *1236:I 1.81243e-06
17 *1640:I *1284:B1 0.000290605
18 *1640:I *1437:A1 2.88187e-05
19 *1640:I *389:8 1.72372e-05
20 *1640:I *432:8 0.000141359
21 *1640:I *432:14 0.000260693
22 *357:8 *1274:B2 1.50458e-05
23 *357:8 *1279:B1 3.18069e-05
24 *357:8 *1290:A1 6.44826e-05
25 *357:27 *1274:B2 1.02823e-05
26 *357:27 *1275:A1 2.59105e-05
27 *357:27 *1279:B1 0.000594688
28 *357:27 *1290:A1 0.000119712
29 *357:27 *1291:A1 0
30 *357:27 *388:8 4.68103e-05
31 cap_ctrl[1] *1637:I 0.000429153
32 *1278:A1 *1637:I 0.000784345
33 *1280:A2 *1638:I 0.000102943
34 *1292:B1 *1637:I 8.04139e-05
35 *1364:A1 *1639:I 0.000130638
36 *1364:A1 *1640:I 0.000134089
37 *1422:A2 *357:8 2.96977e-05
38 *1422:A3 *1637:I 0.000155293
39 *1429:A3 *1638:I 0.001331
40 *1432:A1 *1638:I 9.42703e-06
41 *1432:A2 *1638:I 0.000113238
42 *1441:A2 *1640:I 0
43 *1442:A2 *1640:I 0.000396912
44 *1481:I *1637:I 0.000142809
45 *1481:I *1638:I 5.43763e-05
46 *1481:I *357:8 0.00095815
47 *1481:I *357:10 0.000228948
48 *1481:I *357:27 0.0011612
49 *1484:I *357:27 0.00162706
50 *1509:D *1637:I 0.000305265
51 *1509:CLK *1637:I 0.000263503
52 *1514:D *1640:I 2.57058e-06
53 *1530:RN *357:27 0
54 *1533:D *1637:I 0.000106772
55 *1621:I *1640:I 0.00194239
56 *146:19 *1640:I 0.000136691
57 *167:8 *1638:I 6.53153e-05
58 *287:33 *1640:I 0
59 *294:19 *1637:I 2.54419e-05
60 *313:35 *357:8 0.000577161
61 *335:26 *1637:I 7.73199e-05
62 *335:26 *1638:I 0.000561823
63 *335:26 *357:10 0.000107038
64 *335:26 *357:27 0.00012749
65 *335:44 *1638:I 0.00027939
66 *353:17 *1638:I 0
67 *354:23 *357:27 4.76572e-05
*RES
1 *1641:Z *357:8 11.812 
2 *357:8 *357:10 0.684 
3 *357:10 *1637:I 15.688 
4 *357:10 *357:27 16.524 
5 *357:27 *1639:I 10.672 
6 *357:27 *1640:I 18.728 
7 *357:8 *1638:I 15.992 
*END

*D_NET *358 0.00714563
*CONN
*I *1641:I I *D gf180mcu_fd_sc_mcu7t5v0__dlyb_1
*I *1636:I I *D gf180mcu_fd_sc_mcu7t5v0__dlyb_1
*I *1642:Z O *D gf180mcu_fd_sc_mcu7t5v0__dlyb_1
*CAP
1 *1641:I 0.000824888
2 *1636:I 0.000121755
3 *1642:Z 0.000289972
4 *358:14 0.00123662
5 *1641:I *1358:I1 2.25184e-05
6 *1641:I *1661:I 6.48283e-06
7 *1641:I *425:18 0
8 *358:14 *370:10 7.3049e-05
9 *1278:B2 *1641:I 0.000386371
10 *1359:I0 *1641:I 0.000145096
11 *1374:A1 *1641:I 0
12 *1375:A1 *1641:I 0.000317373
13 *1376:A1 *1641:I 0.000670559
14 *1425:A3 *1641:I 0.000376901
15 *1491:I *358:14 0.000306656
16 *1524:D *1641:I 0
17 *1524:D *358:14 0.000244556
18 *1532:RN *1636:I 3.94624e-05
19 *1532:RN *1641:I 0
20 *1533:D *1641:I 0.000493324
21 *1653:I *1641:I 2.21384e-05
22 *311:30 *1636:I 8.62664e-05
23 *311:30 *358:14 0.000878525
24 *345:56 *1636:I 2.96621e-05
25 *345:56 *358:14 8.05339e-05
26 *347:14 *1641:I 0.000166397
27 *347:34 *1641:I 0.000109493
28 *348:33 *358:14 0.000129992
29 *355:10 *1641:I 4.07337e-05
30 *355:10 *358:14 4.63109e-05
*RES
1 *1642:Z *358:14 17.376 
2 *358:14 *1636:I 5.488 
3 *358:14 *1641:I 22.772 
*END

*D_NET *359 0.00985857
*CONN
*I *1494:I I *D gf180mcu_fd_sc_mcu7t5v0__clkinv_1
*I *1470:I I *D gf180mcu_fd_sc_mcu7t5v0__clkinv_1
*I *1452:I I *D gf180mcu_fd_sc_mcu7t5v0__clkinv_1
*I *1455:I I *D gf180mcu_fd_sc_mcu7t5v0__clkinv_1
*I *1472:I I *D gf180mcu_fd_sc_mcu7t5v0__clkinv_1
*I *1643:Z O *D gf180mcu_fd_sc_mcu7t5v0__dlyb_1
*CAP
1 *1494:I 0.000672481
2 *1470:I 0
3 *1452:I 0.000269562
4 *1455:I 0.000291471
5 *1472:I 0
6 *1643:Z 0.000136403
7 *359:33 0.000666038
8 *359:26 0.00050805
9 *359:14 0.000633008
10 *359:10 0.00103885
11 *1452:I *1646:I 0
12 *1452:I *405:10 0.000193933
13 *1455:I *1257:I 7.24795e-05
14 *1455:I *376:10 0.000469575
15 *1494:I *1235:I 0.000307974
16 *1494:I *1387:I1 0.000300192
17 *1494:I *1390:I0 2.59502e-05
18 *1494:I *374:19 2.67803e-05
19 *1494:I *399:8 0.000147313
20 *359:10 *1390:I0 0.000130638
21 *359:26 *1651:I 0.000126113
22 *1383:B *1494:I 0.00031512
23 *1388:A1 *1494:I 1.18942e-05
24 *1444:I0 *1452:I 0
25 *1516:SETN *359:14 0
26 *1517:CLK *359:26 0.000383049
27 *1518:D *359:26 5.76749e-06
28 *1518:SETN *359:26 0.000141897
29 *1521:CLK *359:26 8.55327e-05
30 *1540:RN *1494:I 0.000325637
31 *1542:D *1494:I 0.000324966
32 *1553:D *1455:I 0
33 *1562:D *1452:I 3.16765e-06
34 *1610:I *1494:I 0.000209085
35 *1610:I *359:10 0
36 *1610:I *359:14 0.000278308
37 *1619:I *1494:I 0.000338727
38 *143:12 *1494:I 0.000102192
39 *294:99 *359:26 5.10632e-05
40 *298:25 *1452:I 0.000363661
41 *298:25 *359:26 0.000379283
42 *298:25 *359:33 0.000417311
43 *311:30 *359:10 0.000105105
44 *311:30 *359:14 0
45 *323:12 *1494:I 0
46 *323:12 *359:10 0
47 *323:21 *1494:I 0
*RES
1 *1643:Z *359:10 10.52 
2 *359:10 *359:14 6.248 
3 *359:14 *359:26 13.104 
4 *359:26 *1472:I 4.5 
5 *359:26 *359:33 1.14 
6 *359:33 *1455:I 16.312 
7 *359:33 *1452:I 15.552 
8 *359:14 *1470:I 4.5 
9 *359:10 *1494:I 25.752 
*END

*D_NET *360 0.00816639
*CONN
*I *1643:I I *D gf180mcu_fd_sc_mcu7t5v0__dlyb_1
*I *1489:I I *D gf180mcu_fd_sc_mcu7t5v0__clkinv_1
*I *1457:I I *D gf180mcu_fd_sc_mcu7t5v0__clkinv_1
*I *1449:I I *D gf180mcu_fd_sc_mcu7t5v0__clkinv_1
*I *1460:I I *D gf180mcu_fd_sc_mcu7t5v0__clkinv_1
*I *1644:Z O *D gf180mcu_fd_sc_mcu7t5v0__dlyb_1
*CAP
1 *1643:I 0.000322958
2 *1489:I 6.24175e-05
3 *1457:I 8.58095e-05
4 *1449:I 3.31738e-05
5 *1460:I 8.87475e-05
6 *1644:Z 0.000437054
7 *360:41 0.000763397
8 *360:25 0.000770668
9 *360:21 0.00109564
10 *360:8 0.000591736
11 *1449:I *1645:I 6.00687e-06
12 *1489:I *1644:I 4.59706e-06
13 *1489:I *406:10 0.00026286
14 *1643:I *1390:I0 2.4706e-05
15 *1643:I *1652:I 0
16 *360:8 *1647:I 0.000191693
17 *360:25 *1644:I 0
18 *360:25 *1645:I 0.000985302
19 *360:25 *1647:I 7.70843e-05
20 *360:25 *1651:I 0.000137776
21 *360:25 *363:27 0
22 *360:41 *1652:I 0
23 *1355:I0 *1460:I 2.18834e-05
24 *1355:I0 *1643:I 2.91798e-05
25 *1355:I0 *360:21 2.45791e-05
26 *1355:I0 *360:41 4.07495e-05
27 *1390:S *1643:I 0.000269857
28 *1516:D *1489:I 7.53241e-05
29 *1516:CLK *1489:I 8.0352e-06
30 *1535:CLK *360:25 0
31 *1559:RN *1449:I 0
32 *1559:RN *1457:I 0
33 *1568:D *1460:I 0.000448201
34 *1568:D *360:8 7.40448e-05
35 *1568:D *360:25 0
36 *1570:SETN *1460:I 0.00053326
37 *1570:SETN *360:8 8.7332e-05
38 *1570:SETN *360:21 0.0003062
39 *1570:SETN *360:41 0.000119284
40 *1587:I *360:25 0
41 *239:16 *360:8 0
42 *310:35 *1643:I 0
43 *346:12 *1643:I 0.000186829
*RES
1 *1644:Z *360:8 12.268 
2 *360:8 *1460:I 10.824 
3 *360:8 *360:21 0.836 
4 *360:21 *360:25 9.592 
5 *360:25 *1449:I 4.728 
6 *360:25 *1457:I 5.032 
7 *360:21 *360:41 2.052 
8 *360:41 *1489:I 9.836 
9 *360:41 *1643:I 11.812 
*END

*D_NET *361 0.0112035
*CONN
*I *1451:I I *D gf180mcu_fd_sc_mcu7t5v0__clkinv_1
*I *1450:I I *D gf180mcu_fd_sc_mcu7t5v0__clkinv_1
*I *1500:I I *D gf180mcu_fd_sc_mcu7t5v0__clkinv_1
*I *1499:I I *D gf180mcu_fd_sc_mcu7t5v0__clkinv_1
*I *1453:I I *D gf180mcu_fd_sc_mcu7t5v0__clkinv_1
*I *1645:Z O *D gf180mcu_fd_sc_mcu7t5v0__dlyb_1
*CAP
1 *1451:I 0
2 *1450:I 0
3 *1500:I 0.000619072
4 *1499:I 0
5 *1453:I 0.000930764
6 *1645:Z 0.000266413
7 *361:51 0.00149117
8 *361:37 0.000902419
9 *361:22 0.00136284
10 *361:10 0.000668174
11 *1453:I *1646:I 9.32131e-05
12 *1453:I *409:8 0.000127345
13 *361:22 *1308:A1 0.000101787
14 *361:22 *1308:A3 3.08902e-05
15 *361:22 *409:8 0
16 *361:51 *373:10 0
17 *1316:A1 *1453:I 2.6126e-05
18 *1316:B *1453:I 0
19 *1317:A2 *1453:I 0.000199573
20 *1328:A2 *1453:I 5.76373e-06
21 *1333:B *361:51 0.00017596
22 *1334:B *361:51 1.23313e-05
23 *1337:A1 *361:51 4.63109e-05
24 *1337:A2 *361:51 4.22591e-05
25 *1417:A1 *1453:I 0
26 *1420:B1 *1453:I 0.000884859
27 *1545:SETN *361:51 2.22758e-05
28 *1546:D *1500:I 0.000134564
29 *1546:D *361:51 0.000830398
30 *1546:CLK *361:51 0
31 *1560:RN *361:22 3.78032e-05
32 *1560:RN *361:37 4.58601e-06
33 *1561:RN *361:10 0.000469992
34 *1659:I *361:51 0
35 *209:12 *361:10 9.03605e-05
36 *212:12 *361:51 0
37 *213:16 *361:22 7.78223e-05
38 *213:20 *1453:I 0.000709837
39 *213:33 *1453:I 7.90644e-05
40 *222:10 *1453:I 5.3266e-05
41 *237:29 *361:10 4.50736e-05
42 *237:29 *361:22 9.34475e-05
43 *237:29 *361:37 5.87561e-06
44 *237:29 *361:51 1.53727e-05
45 *273:12 *1453:I 0.000288172
46 *296:8 *361:22 9.56768e-06
47 *297:25 *1453:I 4.16594e-05
48 *297:29 *1453:I 6.79543e-05
49 *312:16 *361:22 0.00013908
*RES
1 *1645:Z *361:10 6.856 
2 *361:10 *361:22 12.192 
3 *361:22 *1453:I 22.316 
4 *361:22 *361:37 0.228 
5 *361:37 *361:51 15.308 
6 *361:51 *1499:I 4.5 
7 *361:51 *1500:I 17.3 
8 *361:37 *1450:I 4.5 
9 *361:10 *1451:I 4.5 
*END

*D_NET *362 0.00142341
*CONN
*I *1501:I I *D gf180mcu_fd_sc_mcu7t5v0__clkinv_1
*I *1454:I I *D gf180mcu_fd_sc_mcu7t5v0__clkinv_1
*I *1646:Z O *D gf180mcu_fd_sc_mcu7t5v0__dlyb_1
*CAP
1 *1501:I 0.00038486
2 *1454:I 0.000326843
3 *1646:Z 0
4 *362:6 0.000711703
5 *1454:I *413:12 0
6 *1329:A1 *1501:I 0
*RES
1 *1646:Z *362:6 9 
2 *362:6 *1454:I 11.356 
3 *362:6 *1501:I 11.432 
*END

*D_NET *363 0.0180582
*CONN
*I *1459:I I *D gf180mcu_fd_sc_mcu7t5v0__clkinv_1
*I *1646:I I *D gf180mcu_fd_sc_mcu7t5v0__dlyb_1
*I *1645:I I *D gf180mcu_fd_sc_mcu7t5v0__dlyb_1
*I *1644:I I *D gf180mcu_fd_sc_mcu7t5v0__dlyb_1
*I *1647:Z O *D gf180mcu_fd_sc_mcu7t5v0__dlyb_1
*CAP
1 *1459:I 9.84103e-05
2 *1646:I 0.00207353
3 *1645:I 0.000957369
4 *1644:I 0.000944547
5 *1647:Z 0
6 *363:52 0.00297365
7 *363:27 0.00197399
8 *363:4 0.00115947
9 *1644:I *1647:I 0
10 *1644:I *1652:I 0
11 *1644:I *406:10 5.12005e-05
12 *1645:I *1308:A3 0.000121396
13 *1645:I *1335:A1 7.71175e-06
14 *1645:I *408:12 4.63109e-05
15 *1645:I *408:21 5.8721e-05
16 *1646:I *1624:I 0.00089396
17 *1646:I *405:37 0.00113844
18 *363:27 *406:10 6.53483e-05
19 *363:52 *1651:I 0
20 *1310:A2 *1646:I 5.09899e-05
21 *1310:A3 *1646:I 6.63909e-05
22 *1314:A2 *1646:I 5.14116e-06
23 *1315:A2 *1646:I 0
24 *1316:A1 *1646:I 8.99026e-05
25 *1317:A2 *1646:I 1.7295e-05
26 *1328:A2 *1646:I 0
27 *1329:A1 *1646:I 6.088e-05
28 *1340:A2 *1645:I 0.000316011
29 *1355:S *1645:I 0.000539385
30 *1355:S *363:52 0.00023401
31 *1449:I *1645:I 6.00687e-06
32 *1452:I *1646:I 0
33 *1453:I *1646:I 9.32131e-05
34 *1489:I *1644:I 4.59706e-06
35 *1516:CLK *1644:I 0
36 *1518:D *363:52 0
37 *1535:CLK *1645:I 4.28586e-06
38 *1547:D *1646:I 4.13816e-05
39 *1547:CLK *1646:I 0
40 *1559:RN *1645:I 0.000169363
41 *1563:RN *1646:I 5.48085e-05
42 *1564:RN *1646:I 0
43 *1565:CLK *1646:I 4.63447e-05
44 *1567:CLK *1645:I 2.57332e-05
45 *1568:D *1645:I 0
46 *1569:SETN *1646:I 5.29084e-05
47 *1575:I *1646:I 0.000175135
48 *1587:I *1645:I 2.08286e-05
49 *1587:I *363:52 0.000894158
50 *159:6 *1645:I 0
51 *217:16 *1646:I 0
52 *222:10 *1646:I 0
53 *239:12 *1645:I 9.51781e-05
54 *294:99 *363:52 5.26649e-05
55 *294:115 *1646:I 0.000409033
56 *294:115 *363:52 0.000221741
57 *294:131 *1646:I 0.000447609
58 *309:6 *1645:I 2.23825e-05
59 *311:30 *363:52 1.20899e-05
60 *334:27 *363:52 0.000279408
61 *360:25 *1644:I 0
62 *360:25 *1645:I 0.000985302
63 *360:25 *363:27 0
*RES
1 *1647:Z *363:4 4.5 
2 *363:4 *1644:I 10.2 
3 *363:4 *363:27 5.792 
4 *363:27 *1645:I 17.816 
5 *363:27 *363:52 12.1 
6 *363:52 *1646:I 22.208 
7 *363:52 *1459:I 5.184 
*END

*D_NET *364 0.0133347
*CONN
*I *1507:I I *D gf180mcu_fd_sc_mcu7t5v0__clkinv_1
*I *1447:I I *D gf180mcu_fd_sc_mcu7t5v0__clkinv_1
*I *1471:I I *D gf180mcu_fd_sc_mcu7t5v0__clkinv_1
*I *1456:I I *D gf180mcu_fd_sc_mcu7t5v0__clkinv_1
*I *1475:I I *D gf180mcu_fd_sc_mcu7t5v0__clkinv_1
*I *1648:Z O *D gf180mcu_fd_sc_mcu7t5v0__dlyb_1
*CAP
1 *1507:I 0
2 *1447:I 0.000434904
3 *1471:I 0.000449824
4 *1456:I 0
5 *1475:I 0
6 *1648:Z 7.86616e-05
7 *364:24 0.00109724
8 *364:20 0.000458543
9 *364:13 0.000987771
10 *364:6 0.000820404
11 *1447:I *1257:I 0
12 *1447:I *421:8 0
13 *1447:I *421:37 0.000641859
14 *1471:I *1227:I 5.48085e-05
15 *1471:I *1269:A1 0.000155235
16 *1471:I *418:12 0.00189402
17 *364:13 *1270:B1 5.47649e-05
18 *364:13 *374:27 0
19 *364:13 *376:14 5.1111e-05
20 *364:13 *423:12 2.9378e-06
21 *364:20 *1227:I 0
22 *364:20 *1269:A1 0
23 *364:20 *423:12 0.000124754
24 *1270:C *1471:I 0
25 *1270:C *364:13 0.000246228
26 *1271:A2 *364:13 0
27 *1296:A1 *1447:I 3.17618e-05
28 *1296:A1 *364:24 0.000340241
29 *1391:A1 *1447:I 0.000479869
30 *1396:A2 *1447:I 0.000632712
31 *1521:RN *364:6 5.1289e-05
32 *1553:D *1447:I 1.72827e-05
33 *1553:D *364:24 6.02616e-05
34 *1553:RN *364:20 0.00020108
35 *1566:RN *364:13 2.5879e-05
36 *1572:I *1447:I 0.000313838
37 *136:19 *1447:I 0.000346856
38 *154:23 *364:13 7.59633e-05
39 *203:26 *1447:I 8.34666e-05
40 *294:7 *364:13 0.000203653
41 *294:97 *364:13 0.000447932
42 *298:10 *364:13 3.73627e-05
43 *316:57 *1447:I 0.00207609
44 *319:29 *1447:I 0.000356142
*RES
1 *1648:Z *364:6 5.184 
2 *364:6 *1475:I 4.5 
3 *364:6 *364:13 6.46 
4 *364:13 *1456:I 4.5 
5 *364:13 *364:20 1.9 
6 *364:20 *364:24 6.248 
7 *364:24 *1471:I 14.168 
8 *364:24 *1447:I 18.652 
9 *364:20 *1507:I 4.5 
*END

*D_NET *365 0.00414572
*CONN
*I *1505:I I *D gf180mcu_fd_sc_mcu7t5v0__clkinv_1
*I *1448:I I *D gf180mcu_fd_sc_mcu7t5v0__clkinv_1
*I *1506:I I *D gf180mcu_fd_sc_mcu7t5v0__clkinv_1
*I *1649:Z O *D gf180mcu_fd_sc_mcu7t5v0__dlyb_1
*CAP
1 *1505:I 3.95939e-05
2 *1448:I 0.000207751
3 *1506:I 0
4 *1649:Z 4.46572e-05
5 *365:23 0.00059132
6 *365:10 0.000388633
7 *1448:I *415:29 6.22405e-05
8 *365:23 *415:29 2.23477e-05
9 *1294:A2 *1448:I 2.23385e-05
10 *1294:A2 *365:23 3.08902e-05
11 *1551:RN *1505:I 3.00299e-05
12 *1551:RN *365:23 0.000207346
13 *1552:D *365:23 0.000251207
14 *1552:RN *365:10 0.000530811
15 *1552:CLK *365:23 0.000117082
16 *1558:CLK *1448:I 0.000136871
17 *1558:CLK *365:23 1.31249e-05
18 *1609:I *1448:I 7.49908e-05
19 *1609:I *365:10 0.00020334
20 *1609:I *365:23 6.41092e-05
21 *316:25 *365:23 0.000622275
22 *316:42 *1448:I 7.81498e-05
23 *316:42 *365:23 0.000406612
*RES
1 *1649:Z *365:10 14.944 
2 *365:10 *1506:I 4.5 
3 *365:10 *365:23 4.712 
4 *365:23 *1448:I 6.552 
5 *365:23 *1505:I 4.88 
*END

*D_NET *366 0.00283063
*CONN
*I *1358:I1 I *D gf180mcu_fd_sc_mcu7t5v0__mux2_2
*I *1661:I I *D gf180mcu_fd_sc_mcu7t5v0__dlyb_1
*I *1533:Q O *D gf180mcu_fd_sc_mcu7t5v0__dffrnq_1
*CAP
1 *1358:I1 0.00040934
2 *1661:I 0.000331403
3 *1533:Q 0
4 *366:4 0.000740743
5 *1358:I1 *1278:B1 0.000413632
6 *1358:I1 *1424:A1 1.2018e-05
7 *1358:I1 *1424:A2 0.000379274
8 *1358:I1 *383:14 0.000126447
9 *1425:A3 *1358:I1 0.000112444
10 *1533:D *1358:I1 8.70206e-05
11 *1533:D *1661:I 0.000189311
12 *1533:RN *1661:I 0
13 *1641:I *1358:I1 2.25184e-05
14 *1641:I *1661:I 6.48283e-06
15 *352:30 *1661:I 0
*RES
1 *1533:Q *366:4 4.5 
2 *366:4 *1661:I 15.78 
3 *366:4 *1358:I1 8.3 
*END

*D_NET *367 0.00781331
*CONN
*I *1503:I I *D gf180mcu_fd_sc_mcu7t5v0__clkinv_1
*I *1445:I I *D gf180mcu_fd_sc_mcu7t5v0__clkinv_1
*I *1504:I I *D gf180mcu_fd_sc_mcu7t5v0__clkinv_1
*I *1502:I I *D gf180mcu_fd_sc_mcu7t5v0__clkinv_1
*I *1260:I I *D gf180mcu_fd_sc_mcu7t5v0__clkinv_1
*I *1650:Z O *D gf180mcu_fd_sc_mcu7t5v0__dlyb_1
*CAP
1 *1503:I 0.000342471
2 *1445:I 0.000335608
3 *1504:I 0
4 *1502:I 0.00108915
5 *1260:I 0.000207516
6 *1650:Z 2.73362e-05
7 *367:47 0.000875195
8 *367:34 0.000350444
9 *367:23 0.00169113
10 *367:6 0.000683501
11 *1445:I *393:10 0.000142809
12 *1502:I *1324:B 0
13 *1502:I *391:10 0
14 *367:23 *393:10 4.89423e-05
15 *367:34 *393:10 0.000119771
16 *367:47 *393:10 8.0332e-05
17 *1296:A1 *1260:I 0
18 *1325:A1 *1502:I 0
19 *1325:A2 *1502:I 0
20 *1391:A2 *367:47 0
21 *1402:A3 *1445:I 0.000469575
22 *1444:I0 *1260:I 5.14116e-06
23 *1549:RN *1502:I 5.48085e-05
24 *1550:RN *1502:I 0
25 *1550:RN *1503:I 2.30549e-05
26 *1550:RN *367:47 3.36987e-05
27 *1554:RN *1260:I 0
28 *1554:RN *367:23 0
29 *1555:D *1445:I 4.64596e-05
30 *1555:CLK *1445:I 9.34472e-05
31 *1555:CLK *1503:I 0.000209093
32 *1555:CLK *367:47 0.000362608
33 *1578:I *1503:I 6.32837e-05
34 *1579:I *1503:I 0
35 *29:8 *1260:I 0.000243346
36 *301:10 *1445:I 0.000214589
*RES
1 *1650:Z *367:6 4.728 
2 *367:6 *1260:I 6.096 
3 *367:6 *367:23 7.236 
4 *367:23 *1502:I 15.308 
5 *367:23 *367:34 1.444 
6 *367:34 *1504:I 9 
7 *367:34 *367:47 6.476 
8 *367:47 *1445:I 17.376 
9 *367:47 *1503:I 7.084 
*END

*D_NET *368 0.0133391
*CONN
*I *1446:I I *D gf180mcu_fd_sc_mcu7t5v0__clkinv_1
*I *1650:I I *D gf180mcu_fd_sc_mcu7t5v0__dlyb_1
*I *1649:I I *D gf180mcu_fd_sc_mcu7t5v0__dlyb_1
*I *1648:I I *D gf180mcu_fd_sc_mcu7t5v0__dlyb_1
*I *1651:Z O *D gf180mcu_fd_sc_mcu7t5v0__dlyb_1
*CAP
1 *1446:I 0.000680603
2 *1650:I 0.000209549
3 *1649:I 0.000365805
4 *1648:I 0.000193742
5 *1651:Z 0
6 *368:36 0.00219803
7 *368:8 0.00066583
8 *368:4 0.00141417
9 *1446:I *1392:A1 5.19228e-05
10 *1446:I *1401:A1 0.000124167
11 *1446:I *419:10 5.6986e-05
12 *1446:I *420:14 0.00025069
13 *1446:I *421:8 0
14 *1648:I *1265:A1 0
15 *1650:I *418:6 0.000140167
16 *368:36 *1272:A2 0.000571762
17 *368:36 *421:37 1.41392e-05
18 *1263:A1 *1648:I 0.000324241
19 *1263:A1 *368:8 5.87561e-06
20 *1264:A2 *368:8 0.000244438
21 *1268:B2 *1648:I 0
22 *1268:B2 *1649:I 0
23 *1272:B2 *368:8 0.000351478
24 *1272:B2 *368:36 0.00032536
25 *1273:A1 *1649:I 0.000712235
26 *1273:A3 *1649:I 0.000147377
27 *1273:A4 *368:8 0.000246139
28 *1273:A4 *368:36 0.000239827
29 *1298:A2 *1446:I 0
30 *1391:A2 *1446:I 2.77032e-05
31 *1391:A2 *1650:I 0.00010503
32 *1392:A2 *1446:I 0.000371749
33 *1400:A3 *1446:I 0.000403764
34 *1402:A1 *1446:I 4.47565e-05
35 *1404:A3 *1650:I 0.000206333
36 *1444:I1 *1650:I 0.00015576
37 *1522:CLK *1648:I 1.78185e-05
38 *1522:CLK *1649:I 4.1074e-05
39 *1552:RN *1649:I 1.12495e-05
40 *1554:D *1650:I 0.00015172
41 *1554:RN *1650:I 4.97712e-06
42 *1572:I *368:36 0.000175235
43 *1609:I *1649:I 0.000657859
44 *153:23 *368:8 0.000627583
45 *153:23 *368:36 3.2235e-05
46 *154:23 *1648:I 0
47 *261:19 *1446:I 5.40848e-05
48 *261:19 *1650:I 0.000252955
49 *320:10 *1446:I 0.000462714
*RES
1 *1651:Z *368:4 4.5 
2 *368:4 *368:8 7.008 
3 *368:8 *1648:I 10.444 
4 *368:8 *1649:I 13.332 
5 *368:4 *368:36 22.164 
6 *368:36 *1650:I 11.432 
7 *368:36 *1446:I 16.524 
*END

*D_NET *369 0.0088152
*CONN
*I *1651:I I *D gf180mcu_fd_sc_mcu7t5v0__dlyb_1
*I *1647:I I *D gf180mcu_fd_sc_mcu7t5v0__dlyb_1
*I *1652:Z O *D gf180mcu_fd_sc_mcu7t5v0__dlyb_1
*CAP
1 *1651:I 0.00146158
2 *1647:I 0.00170284
3 *1652:Z 0.00024126
4 *1651:I *1247:I 0.000301618
5 *1651:I *1261:A2 0.00100244
6 *1651:I *1387:I0 0.000270604
7 *1651:I *1390:I0 0.00049479
8 *1651:I *374:19 0.000213675
9 *1651:I *374:27 4.22854e-06
10 *1270:A1 *1651:I 8.81341e-06
11 *1270:B2 *1651:I 0.000759767
12 *1272:C2 *1651:I 9.17202e-06
13 *1355:I0 *1651:I 0.0011614
14 *1355:S *1651:I 0
15 *1388:A2 *1651:I 0.000460436
16 *1389:A1 *1651:I 0.000115041
17 *1568:D *1647:I 0
18 *1568:D *1651:I 0
19 *1644:I *1647:I 0
20 *155:25 *1651:I 2.22657e-05
21 *334:27 *1651:I 0
22 *346:12 *1651:I 5.26075e-05
23 *359:26 *1651:I 0.000126113
24 *360:8 *1647:I 0.000191693
25 *360:25 *1647:I 7.70843e-05
26 *360:25 *1651:I 0.000137776
27 *363:52 *1651:I 0
*RES
1 *1652:Z *1647:I 10.9 
2 *1647:I *1651:I 33.58 
*END

*D_NET *370 0.0125384
*CONN
*I *1652:I I *D gf180mcu_fd_sc_mcu7t5v0__dlyb_1
*I *1642:I I *D gf180mcu_fd_sc_mcu7t5v0__dlyb_1
*I *1653:Z O *D gf180mcu_fd_sc_mcu7t5v0__dlyb_1
*CAP
1 *1652:I 0.00206062
2 *1642:I 0.000117095
3 *1653:Z 0.00103524
4 *370:10 0.00321296
5 *1652:I *1356:A1 7.42484e-05
6 *1652:I *1360:A2 0.0010571
7 *1652:I *1630:I 0
8 *1652:I *414:8 4.52293e-05
9 *1652:I *414:27 0.000241516
10 *370:10 *396:14 0.000110314
11 *1343:A1 *1652:I 0.000729763
12 *1346:A2 *1652:I 3.6058e-06
13 *1350:A1 *1652:I 7.71175e-06
14 *1352:S *1652:I 0.000205721
15 *1357:I0 *1642:I 0.000188746
16 *1357:I0 *1652:I 0.000244096
17 *1360:A1 *1652:I 0.000193942
18 *1366:A1 *1652:I 0.000369754
19 *1377:A1 *1652:I 5.19077e-05
20 *1377:A2 *1652:I 0.000585539
21 *1388:A1 *1652:I 9.5126e-05
22 *1491:I *370:10 3.79102e-05
23 *1532:CLK *1652:I 0
24 *1536:CLK *1652:I 0.000201957
25 *1537:RN *370:10 0.000219822
26 *1538:D *1652:I 0.000157257
27 *1539:D *1652:I 6.74908e-05
28 *1539:CLK *1652:I 0
29 *1541:D *1652:I 2.2086e-05
30 *1541:RN *1652:I 1.33594e-05
31 *1568:RN *1652:I 2.63978e-05
32 *1596:I *1652:I 0.000204353
33 *1643:I *1652:I 0
34 *1644:I *1652:I 0
35 *144:41 *1652:I 0.000293265
36 *245:24 *1642:I 7.04345e-05
37 *245:24 *1652:I 0.000209573
38 *302:27 *370:10 0.000158508
39 *305:20 *370:10 7.42489e-05
40 *334:27 *1652:I 4.68103e-05
41 *348:33 *370:10 3.16905e-05
42 *358:14 *370:10 7.3049e-05
43 *360:41 *1652:I 0
*RES
1 *1653:Z *370:10 20.264 
2 *370:10 *1642:I 5.64 
3 *370:10 *1652:I 40.892 
*END

*D_NET *371 0.00882857
*CONN
*I *1357:I1 I *D gf180mcu_fd_sc_mcu7t5v0__mux2_2
*I *1662:I I *D gf180mcu_fd_sc_mcu7t5v0__dlyb_1
*I *1534:Q O *D gf180mcu_fd_sc_mcu7t5v0__dffrnq_1
*CAP
1 *1357:I1 0.00046322
2 *1662:I 0.00187959
3 *1534:Q 0.000199111
4 *371:6 0.00254192
5 *1373:A1 *371:6 7.45328e-07
6 *1462:I *1662:I 0
7 *1479:I *1662:I 0.000603474
8 *1524:RN *371:6 4.90885e-05
9 *1525:RN *371:6 0
10 *1533:D *1662:I 0
11 *1533:CLK *371:6 1.34435e-05
12 *1534:RN *1662:I 0
13 *1534:RN *371:6 0
14 *1632:I *1357:I1 0
15 *1653:I *1357:I1 0.00127323
16 *1653:I *1662:I 0
17 *311:30 *1357:I1 0.000204973
18 *347:8 *1662:I 6.12935e-05
19 *347:8 *371:6 4.1343e-05
20 *352:8 *1662:I 0.000381142
21 *352:30 *1662:I 0.001116
22 *352:34 *1662:I 0
*RES
1 *1534:Q *371:6 5.792 
2 *371:6 *1662:I 28.928 
3 *371:6 *1357:I1 19.96 
*END

*D_NET *372 0.00242561
*CONN
*I *1626:I I *D gf180mcu_fd_sc_mcu7t5v0__dlyb_1
*I *1546:Q O *D gf180mcu_fd_sc_mcu7t5v0__dffrnq_1
*CAP
1 *1626:I 0.000713061
2 *1546:Q 0.000713061
3 *1626:I *413:12 0.000126898
4 *1626:I *413:18 0.00020953
5 *1408:B1 *1626:I 1.72912e-05
6 *1408:B2 *1626:I 3.82054e-05
7 *1409:A1 *1626:I 2.05156e-05
8 *1409:A2 *1626:I 0.000186796
9 *1546:RN *1626:I 1.30476e-05
10 *1563:D *1626:I 0.00024311
11 *1564:D *1626:I 0
12 *1663:I *1626:I 0
13 *339:30 *1626:I 0.000144093
*RES
1 *1546:Q *1626:I 15.004 
*END

*D_NET *373 0.00516499
*CONN
*I *1231:I I *D gf180mcu_fd_sc_mcu7t5v0__clkinv_1
*I *1664:I I *D gf180mcu_fd_sc_mcu7t5v0__dlyb_1
*I *1545:Q O *D gf180mcu_fd_sc_mcu7t5v0__dffsnq_1
*CAP
1 *1231:I 6.00942e-05
2 *1664:I 0.000327756
3 *1545:Q 0.000636425
4 *373:10 0.00102427
5 *1664:I *409:14 0.000239048
6 *1664:I *409:21 0.000832188
7 *1333:A2 *1664:I 0.000111659
8 *1338:C *373:10 0
9 *1339:A1 *1664:I 2.57058e-06
10 *1339:A2 *1231:I 4.60244e-05
11 *1339:A2 *1664:I 0.000190366
12 *1408:A1 *373:10 6.73849e-05
13 *1409:A1 *373:10 0
14 *1414:A2 *1664:I 0.00018816
15 *1546:CLK *373:10 9.50253e-05
16 *1659:I *1231:I 0.000111867
17 *1659:I *1664:I 0.00011528
18 *233:24 *1664:I 0.000663505
19 *312:16 *1664:I 0.00045336
20 *361:51 *373:10 0
*RES
1 *1545:Q *373:10 17.072 
2 *373:10 *1664:I 10.58 
3 *373:10 *1231:I 5.184 
*END

*D_NET *374 0.00930309
*CONN
*I *1261:A3 I *D gf180mcu_fd_sc_mcu7t5v0__nor3_1
*I *1267:B1 I *D gf180mcu_fd_sc_mcu7t5v0__oai221_1
*I *1270:A2 I *D gf180mcu_fd_sc_mcu7t5v0__aoi221_1
*I *1390:I0 I *D gf180mcu_fd_sc_mcu7t5v0__mux2_2
*I *1516:Q O *D gf180mcu_fd_sc_mcu7t5v0__dffsnq_1
*CAP
1 *1261:A3 6.77727e-05
2 *1267:B1 0.000269187
3 *1270:A2 0
4 *1390:I0 0.000396683
5 *1516:Q 0
6 *374:27 0.000603243
7 *374:19 0.000674317
8 *374:6 0.000669171
9 *1261:A3 *1387:I0 1.52768e-05
10 *1267:B1 *1247:I 8.05328e-06
11 *1267:B1 *1270:B1 0.000320465
12 *1267:B1 *1272:B1 0.00039118
13 *1267:B1 *1272:C1 0.00037861
14 *1267:B1 *375:8 0.000177992
15 *1390:I0 *1630:I 0.000239772
16 *374:19 *1387:I0 0.00063272
17 *374:27 *1270:B1 2.9378e-06
18 *374:27 *1387:I0 7.01785e-05
19 *1263:A1 *1261:A3 1.91917e-06
20 *1264:A1 *1267:B1 1.97166e-05
21 *1270:A1 *1267:B1 0.00161551
22 *1270:A1 *374:27 9.88736e-06
23 *1270:C *1267:B1 3.95805e-05
24 *1271:A2 *374:27 1.08266e-05
25 *1273:A4 *1267:B1 0
26 *1388:A2 *374:19 5.66946e-05
27 *1389:A1 *1261:A3 4.58601e-06
28 *1389:A1 *374:27 0.000851356
29 *1389:B *1261:A3 9.88736e-06
30 *1494:I *1390:I0 2.59502e-05
31 *1494:I *374:19 2.67803e-05
32 *1517:D *374:19 0.000173891
33 *1517:D *374:27 0.000126947
34 *1517:RN *1267:B1 1.71854e-05
35 *1643:I *1390:I0 2.4706e-05
36 *1651:I *1390:I0 0.00049479
37 *1651:I *374:19 0.000213675
38 *1651:I *374:27 4.22854e-06
39 *137:20 *1267:B1 6.35236e-05
40 *154:23 *374:27 4.84492e-05
41 *155:25 *374:27 0
42 *334:27 *1390:I0 0.000103141
43 *346:12 *1390:I0 0.000311663
44 *359:10 *1390:I0 0.000130638
45 *364:13 *374:27 0
*RES
1 *1516:Q *374:6 9 
2 *374:6 *1390:I0 13.712 
3 *374:6 *374:19 3.572 
4 *374:19 *374:27 7.92 
5 *374:27 *1270:A2 4.5 
6 *374:27 *1267:B1 18.82 
7 *374:19 *1261:A3 9.38 
*END

*D_NET *375 0.00355475
*CONN
*I *1247:I I *D gf180mcu_fd_sc_mcu7t5v0__clkinv_1
*I *1261:A2 I *D gf180mcu_fd_sc_mcu7t5v0__nor3_1
*I *1517:Q O *D gf180mcu_fd_sc_mcu7t5v0__dffrnq_1
*CAP
1 *1247:I 0.000174312
2 *1261:A2 0.000197729
3 *1517:Q 2.95537e-05
4 *375:8 0.000401595
5 *1247:I *1270:B1 0.000126956
6 *1247:I *1272:B1 0.000255557
7 *1247:I *1272:C1 0.00014815
8 *1261:A2 *1270:B1 0.000142176
9 *1264:A2 *1247:I 0.000130247
10 *1267:B1 *1247:I 8.05328e-06
11 *1267:B1 *375:8 0.000177992
12 *1270:A1 *375:8 0.000177992
13 *1270:B2 *1247:I 0.000149731
14 *1389:A1 *1247:I 0.000130647
15 *1651:I *1247:I 0.000301618
16 *1651:I *1261:A2 0.00100244
17 *294:99 *1261:A2 0
18 *294:161 *1261:A2 0
*RES
1 *1517:Q *375:8 9.532 
2 *375:8 *1261:A2 11.508 
3 *375:8 *1247:I 12.42 
*END

*D_NET *376 0.00527155
*CONN
*I *1269:A2 I *D gf180mcu_fd_sc_mcu7t5v0__xor2_1
*I *1261:A1 I *D gf180mcu_fd_sc_mcu7t5v0__nor3_1
*I *1387:I0 I *D gf180mcu_fd_sc_mcu7t5v0__mux2_2
*I *1518:Q O *D gf180mcu_fd_sc_mcu7t5v0__dffsnq_1
*CAP
1 *1269:A2 8.20065e-05
2 *1261:A1 0
3 *1387:I0 0.000120089
4 *1518:Q 0.000421886
5 *376:14 0.000626356
6 *376:10 0.00101016
7 *1269:A2 *1257:I 6.20928e-05
8 *1269:A2 *423:12 0.000594335
9 *376:10 *1257:I 8.03759e-06
10 *1261:A3 *1387:I0 1.52768e-05
11 *1263:A1 *1387:I0 2.6126e-05
12 *1388:A2 *1387:I0 0.000340241
13 *1389:A1 *1387:I0 8.84331e-05
14 *1455:I *376:10 0.000469575
15 *1518:SETN *376:10 0
16 *1553:D *1269:A2 0
17 *1553:D *376:10 0
18 *1566:RN *1269:A2 0.000158886
19 *1566:RN *376:14 8.18373e-05
20 *1651:I *1387:I0 0.000270604
21 *294:97 *1387:I0 2.62421e-05
22 *294:97 *376:14 0.000115353
23 *364:13 *376:14 5.1111e-05
24 *374:19 *1387:I0 0.00063272
25 *374:27 *1387:I0 7.01785e-05
*RES
1 *1518:Q *376:10 12.192 
2 *376:10 *376:14 8.528 
3 *376:14 *1387:I0 16.236 
4 *376:14 *1261:A1 4.5 
5 *376:10 *1269:A2 10.748 
*END

*D_NET *377 0.00112477
*CONN
*I *1262:A4 I *D gf180mcu_fd_sc_mcu7t5v0__nor4_1
*I *1246:I I *D gf180mcu_fd_sc_mcu7t5v0__clkinv_1
*I *1519:Q O *D gf180mcu_fd_sc_mcu7t5v0__dffrnq_1
*CAP
1 *1262:A4 0.000216447
2 *1246:I 0
3 *1519:Q 4.02556e-05
4 *377:6 0.000256703
5 *1262:A4 *1245:I 0
6 *1262:A4 *378:25 0.000134048
7 *1473:I *1262:A4 0.000241013
8 *1473:I *377:6 4.50449e-05
9 *1474:I *1262:A4 0
10 *1519:RN *1262:A4 1.02578e-05
11 *155:8 *1262:A4 0.000111858
12 *155:25 *1262:A4 6.91409e-05
*RES
1 *1519:Q *377:6 4.88 
2 *377:6 *1246:I 4.5 
3 *377:6 *1262:A4 6.704 
*END

*D_NET *378 0.00609267
*CONN
*I *1265:A1 I *D gf180mcu_fd_sc_mcu7t5v0__xor2_1
*I *1262:A3 I *D gf180mcu_fd_sc_mcu7t5v0__nor4_1
*I *1384:I0 I *D gf180mcu_fd_sc_mcu7t5v0__mux2_2
*I *1520:Q O *D gf180mcu_fd_sc_mcu7t5v0__dffrnq_1
*CAP
1 *1265:A1 0.000445271
2 *1262:A3 0
3 *1384:I0 0.000573716
4 *1520:Q 0
5 *378:25 0.000774305
6 *378:6 0.000902749
7 *1265:A1 *1244:I 1.91917e-06
8 *1265:A1 *1262:A1 9.45142e-05
9 *1265:A1 *1262:A2 0.000151957
10 *1265:A1 *380:8 8.29574e-05
11 *378:25 *1245:I 9.34472e-05
12 *378:25 *1262:A2 7.95952e-05
13 *1262:A4 *378:25 0.000134048
14 *1263:A1 *1265:A1 0
15 *1271:A1 *1265:A1 0.000326292
16 *1271:A2 *1265:A1 3.00299e-05
17 *1273:A1 *1265:A1 1.5015e-05
18 *1273:A3 *1265:A1 0
19 *1383:A1 *378:25 2.64841e-05
20 *1385:A2 *378:25 6.73903e-05
21 *1386:A1 *1265:A1 0
22 *1386:A1 *378:25 0.000319277
23 *1386:B *378:25 0.000252266
24 *1520:D *1384:I0 1.5961e-05
25 *1520:RN *1384:I0 7.35651e-05
26 *1520:RN *378:25 4.88658e-05
27 *1521:D *1384:I0 0.000180841
28 *1522:CLK *1265:A1 0.000571475
29 *1540:RN *1384:I0 1.84387e-05
30 *1619:I *1384:I0 0
31 *1648:I *1265:A1 0
32 *153:23 *1265:A1 2.40654e-06
33 *154:6 *1265:A1 0
34 *155:25 *1265:A1 1.3758e-05
35 *155:25 *378:25 2.79106e-05
36 *311:30 *1384:I0 0.000367372
37 *324:26 *1384:I0 0.000271446
38 *324:26 *378:25 3.4631e-05
39 *324:37 *378:25 9.47676e-05
*RES
1 *1520:Q *378:6 9 
2 *378:6 *1384:I0 14.32 
3 *378:6 *378:25 9.288 
4 *378:25 *1262:A3 4.5 
5 *378:25 *1265:A1 17.832 
*END

*D_NET *379 0.0010373
*CONN
*I *1262:A2 I *D gf180mcu_fd_sc_mcu7t5v0__nor4_1
*I *1245:I I *D gf180mcu_fd_sc_mcu7t5v0__clkinv_1
*I *1521:Q O *D gf180mcu_fd_sc_mcu7t5v0__dffrnq_1
*CAP
1 *1262:A2 9.44555e-05
2 *1245:I 0.000158695
3 *1521:Q 0
4 *379:6 0.00025315
5 *1262:A4 *1245:I 0
6 *1263:A1 *1245:I 0
7 *1263:A1 *1262:A2 0
8 *1265:A1 *1262:A2 0.000151957
9 *1385:A2 *1245:I 4.22854e-06
10 *1386:A1 *1262:A2 7.82924e-06
11 *154:6 *1245:I 0.000193942
12 *378:25 *1245:I 9.34472e-05
13 *378:25 *1262:A2 7.95952e-05
*RES
1 *1521:Q *379:6 9 
2 *379:6 *1245:I 10.368 
3 *379:6 *1262:A2 9.988 
*END

*D_NET *380 0.0023626
*CONN
*I *1244:I I *D gf180mcu_fd_sc_mcu7t5v0__clkinv_1
*I *1262:A1 I *D gf180mcu_fd_sc_mcu7t5v0__nor4_1
*I *1522:Q O *D gf180mcu_fd_sc_mcu7t5v0__dffrnq_1
*CAP
1 *1244:I 0.000116571
2 *1262:A1 0.000199105
3 *1522:Q 0.000528126
4 *380:8 0.000843803
5 *1265:A1 *1244:I 1.91917e-06
6 *1265:A1 *1262:A1 9.45142e-05
7 *1265:A1 *380:8 8.29574e-05
8 *1381:A1 *1244:I 5.83188e-05
9 *1381:B *1262:A1 0
10 *1522:CLK *1262:A1 4.63109e-05
11 *1522:CLK *380:8 0.000189896
12 *1609:I *380:8 0
13 *155:25 *1262:A1 0.00020108
*RES
1 *1522:Q *380:8 13.18 
2 *380:8 *1262:A1 10.672 
3 *380:8 *1244:I 9.684 
*END

*D_NET *381 0.0062904
*CONN
*I *1264:B I *D gf180mcu_fd_sc_mcu7t5v0__aoi21_1
*I *1268:A1 I *D gf180mcu_fd_sc_mcu7t5v0__aoi221_1
*I *1378:A1 I *D gf180mcu_fd_sc_mcu7t5v0__nor2_1
*I *1523:Q O *D gf180mcu_fd_sc_mcu7t5v0__dffrnq_1
*CAP
1 *1264:B 0.000166895
2 *1268:A1 0
3 *1378:A1 0.000243449
4 *1523:Q 0.000125071
5 *381:27 0.000858981
6 *381:10 0.00106061
7 *1378:A1 *431:29 0.000279004
8 *381:10 *431:29 0.000308479
9 *381:27 *1265:A2 0
10 *1264:A1 *1264:B 0.000213194
11 *1267:A2 *1264:B 0
12 *1268:A2 *1264:B 0.000236987
13 *1268:A2 *381:27 1.5015e-05
14 *1268:C *381:27 5.14116e-06
15 *1273:A2 *1264:B 0.000315174
16 *1273:A2 *381:27 0.000286002
17 *1273:A3 *381:27 0.000300828
18 *1273:A4 *1264:B 8.93946e-05
19 *1273:A4 *381:27 0.000190359
20 *1281:A1 *1378:A1 0.000268218
21 *1381:A2 *1378:A1 6.57222e-06
22 *1476:I *381:27 0.000379003
23 *1621:I *381:27 0
24 *308:35 *381:10 0.000193942
25 *308:35 *381:27 2.40328e-06
26 *354:53 *1378:A1 4.03131e-05
27 *356:8 *381:10 3.23347e-05
28 *356:8 *381:27 0.000673033
*RES
1 *1523:Q *381:10 10.368 
2 *381:10 *1378:A1 11.66 
3 *381:10 *381:27 11.112 
4 *381:27 *1268:A1 4.5 
5 *381:27 *1264:B 15.628 
*END

*D_NET *382 0.00471511
*CONN
*I *1290:A4 I *D gf180mcu_fd_sc_mcu7t5v0__nor4_1
*I *1243:I I *D gf180mcu_fd_sc_mcu7t5v0__clkinv_1
*I *1524:Q O *D gf180mcu_fd_sc_mcu7t5v0__dffrnq_1
*CAP
1 *1290:A4 0.000541485
2 *1243:I 0.00012298
3 *1524:Q 3.52667e-05
4 *382:8 0.000699731
5 *1290:A4 *1424:A1 0.000166243
6 *1290:A4 *426:29 9.72053e-05
7 *1358:S *1290:A4 0.000604811
8 *1358:S *382:8 0.000347565
9 *1373:A1 *1243:I 9.19281e-05
10 *1374:A1 *1290:A4 0.000178927
11 *1374:A2 *1290:A4 8.36287e-05
12 *1374:A2 *382:8 0.00035118
13 *1422:A3 *1290:A4 3.14282e-05
14 *1509:D *1290:A4 2.6126e-05
15 *1525:D *1243:I 0.000283208
16 *1525:RN *1243:I 0.000438681
17 *1637:I *1290:A4 0.000408032
18 *1653:I *1243:I 6.90695e-05
19 *151:12 *1290:A4 3.80391e-05
20 *335:26 *1290:A4 9.95783e-05
*RES
1 *1524:Q *382:8 9.988 
2 *382:8 *1243:I 10.748 
3 *382:8 *1290:A4 14.016 
*END

*D_NET *383 0.00537164
*CONN
*I *1242:I I *D gf180mcu_fd_sc_mcu7t5v0__clkinv_1
*I *1290:A3 I *D gf180mcu_fd_sc_mcu7t5v0__nor4_1
*I *1525:Q O *D gf180mcu_fd_sc_mcu7t5v0__dffrnq_1
*CAP
1 *1242:I 0.000580869
2 *1290:A3 0
3 *1525:Q 0.000362539
4 *383:14 0.000943408
5 *1242:I *426:29 9.11266e-06
6 *383:14 *1278:A2 9.22456e-05
7 *383:14 *1278:B1 7.54293e-05
8 *383:14 *1424:A1 3.60988e-06
9 *383:14 *384:19 1.12136e-05
10 *1280:A2 *1242:I 0.00105611
11 *1280:A2 *383:14 0.000150279
12 *1358:I1 *383:14 0.000126447
13 *1425:A3 *383:14 0.00043472
14 *1429:A3 *1242:I 0.000272884
15 *1432:A1 *1242:I 8.07371e-05
16 *1638:I *1242:I 9.91488e-05
17 *168:14 *1242:I 0.000368173
18 *313:35 *1242:I 0.000474364
19 *313:53 *1242:I 0.000230351
*RES
1 *1525:Q *383:14 12.344 
2 *383:14 *1290:A3 9 
3 *383:14 *1242:I 15.916 
*END

*D_NET *384 0.00526054
*CONN
*I *1274:B2 I *D gf180mcu_fd_sc_mcu7t5v0__oai22_1
*I *1290:A2 I *D gf180mcu_fd_sc_mcu7t5v0__nor4_1
*I *1241:I I *D gf180mcu_fd_sc_mcu7t5v0__clkinv_1
*I *1526:Q O *D gf180mcu_fd_sc_mcu7t5v0__dffrnq_1
*CAP
1 *1274:B2 0.000265157
2 *1290:A2 1.08147e-05
3 *1241:I 0
4 *1526:Q 0.000197508
5 *384:19 0.000475399
6 *384:10 0.000396935
7 *1274:B2 *1275:A1 1.29518e-05
8 *1274:B2 *1279:A2 0.000147313
9 *1274:B2 *1290:A1 0.000101181
10 *1290:A2 *1279:B1 7.83779e-05
11 *1274:B1 *1274:B2 0.00114006
12 *1278:A1 *384:19 0.000333372
13 *1280:A2 *1274:B2 0.000342282
14 *1280:A2 *384:19 0.000550894
15 *1280:B *1274:B2 3.98828e-05
16 *1481:I *1274:B2 0.000386603
17 *1481:I *384:19 0.000142801
18 *1637:I *384:19 5.66946e-05
19 *1638:I *1274:B2 2.23783e-05
20 *150:6 *384:10 2.98535e-05
21 *294:19 *384:10 5.80857e-05
22 *294:19 *384:19 9.42185e-05
23 *305:10 *384:10 0
24 *335:26 *1290:A2 7.83779e-05
25 *347:43 *384:10 0.00026286
26 *357:8 *1274:B2 1.50458e-05
27 *357:27 *1274:B2 1.02823e-05
28 *383:14 *384:19 1.12136e-05
*RES
1 *1526:Q *384:10 10.672 
2 *384:10 *1241:I 9 
3 *384:10 *384:19 2.66 
4 *384:19 *1290:A2 9.228 
5 *384:19 *1274:B2 13.104 
*END

*D_NET *385 0.00461176
*CONN
*I *1240:I I *D gf180mcu_fd_sc_mcu7t5v0__clkinv_1
*I *1274:A1 I *D gf180mcu_fd_sc_mcu7t5v0__oai22_1
*I *1275:A1 I *D gf180mcu_fd_sc_mcu7t5v0__nand2_1
*I *1290:A1 I *D gf180mcu_fd_sc_mcu7t5v0__nor4_1
*I *1527:Q O *D gf180mcu_fd_sc_mcu7t5v0__dffrnq_1
*CAP
1 *1240:I 0.000154131
2 *1274:A1 2.7146e-05
3 *1275:A1 2.21595e-05
4 *1290:A1 0.000226882
5 *1527:Q 0.000130556
6 *385:28 0.000246183
7 *385:12 0.000249041
8 *385:10 0.000195461
9 *1240:I *1279:A2 5.94709e-06
10 *1240:I *429:18 1.11891e-05
11 *1290:A1 *1279:A2 2.05156e-05
12 *1290:A1 *1279:B1 0.000749693
13 *1274:B1 *1274:A1 1.93526e-05
14 *1274:B2 *1275:A1 1.29518e-05
15 *1274:B2 *1290:A1 0.000101181
16 *1275:A2 *1240:I 2.39679e-05
17 *1275:A2 *385:28 0.000197892
18 *1276:A2 *385:10 3.16765e-06
19 *1276:A2 *385:28 7.33934e-06
20 *1280:B *1290:A1 9.14686e-05
21 *1292:A1 *385:10 0
22 *1292:B1 *385:10 2.79132e-05
23 *1370:A1 *385:10 0.000142185
24 *1370:A1 *385:28 2.95445e-05
25 *1481:I *385:10 0.000127484
26 *1484:I *385:10 4.68042e-05
27 *1598:I *1240:I 5.79443e-05
28 *149:8 *1240:I 0.000389679
29 *149:8 *385:28 0.000220336
30 *167:31 *1274:A1 3.2657e-05
31 *182:12 *1240:I 0.000634485
32 *335:20 *1240:I 0.000196402
33 *357:8 *1290:A1 6.44826e-05
34 *357:27 *1275:A1 2.59105e-05
35 *357:27 *1290:A1 0.000119712
*RES
1 *1527:Q *385:10 10.216 
2 *385:10 *385:12 4.5 
3 *385:12 *1290:A1 7.312 
4 *385:12 *1275:A1 4.728 
5 *385:10 *385:28 1.292 
6 *385:28 *1274:A1 9.228 
7 *385:28 *1240:I 11.888 
*END

*D_NET *386 0.00123498
*CONN
*I *1291:A4 I *D gf180mcu_fd_sc_mcu7t5v0__nor4_1
*I *1239:I I *D gf180mcu_fd_sc_mcu7t5v0__clkinv_1
*I *1528:Q O *D gf180mcu_fd_sc_mcu7t5v0__dffrnq_1
*CAP
1 *1291:A4 0
2 *1239:I 6.81063e-05
3 *1528:Q 0.000193444
4 *386:10 0.000261551
5 *1239:I *1363:A1 0.000379274
6 *1364:B *386:10 2.65777e-05
7 *1368:A1 *386:10 0
8 *1529:SETN *386:10 0.000134113
9 *148:25 *1239:I 0.000171918
*RES
1 *1528:Q *386:10 14.944 
2 *386:10 *1239:I 5.716 
3 *386:10 *1291:A4 4.5 
*END

*D_NET *387 0.00366423
*CONN
*I *1365:A1 I *D gf180mcu_fd_sc_mcu7t5v0__nand2_1
*I *1238:I I *D gf180mcu_fd_sc_mcu7t5v0__clkinv_1
*I *1291:A3 I *D gf180mcu_fd_sc_mcu7t5v0__nor4_1
*I *1529:Q O *D gf180mcu_fd_sc_mcu7t5v0__dffsnq_1
*CAP
1 *1365:A1 0.000269025
2 *1238:I 0.000208777
3 *1291:A3 6.41069e-05
4 *1529:Q 0
5 *387:12 0.000558147
6 *387:4 0.000554288
7 *1238:I *1237:I 2.62889e-05
8 *1238:I *1291:A2 6.67198e-05
9 *1291:A3 *1291:A2 0.000171918
10 *1291:A3 *1363:A1 0.000116355
11 *387:12 *1291:A1 2.8394e-05
12 *387:12 *1291:A2 0.000141897
13 *387:12 *1363:A1 0.000127288
14 *387:12 *400:36 0.000528573
15 *1363:A2 *387:12 5.96987e-05
16 *1364:A1 *1238:I 8.64281e-06
17 *1364:A1 *387:12 0.000439956
18 *1474:I *387:12 4.08125e-05
19 *1519:CLK *1365:A1 7.83779e-05
20 *1530:CLK *1365:A1 0.000135685
21 *148:25 *1238:I 0
22 *329:16 *1365:A1 3.92836e-05
*RES
1 *1529:Q *387:4 4.5 
2 *387:4 *387:12 13.56 
3 *387:12 *1291:A3 5.488 
4 *387:12 *1238:I 15.096 
5 *387:4 *1365:A1 6.4 
*END

*D_NET *388 0.00280121
*CONN
*I *1237:I I *D gf180mcu_fd_sc_mcu7t5v0__clkinv_1
*I *1291:A2 I *D gf180mcu_fd_sc_mcu7t5v0__nor4_1
*I *1530:Q O *D gf180mcu_fd_sc_mcu7t5v0__dffrnq_1
*CAP
1 *1237:I 8.86853e-05
2 *1291:A2 0.00015084
3 *1530:Q 8.7423e-05
4 *388:8 0.000326949
5 *1291:A2 *1291:A1 9.68431e-05
6 *388:8 *1291:A1 4.38725e-05
7 *1238:I *1237:I 2.62889e-05
8 *1238:I *1291:A2 6.67198e-05
9 *1291:A3 *1291:A2 0.000171918
10 *1364:A1 *1237:I 0.00063272
11 *1364:A1 *1291:A2 0.000380912
12 *1530:RN *1291:A2 0.000438681
13 *1639:I *388:8 9.88736e-06
14 *147:8 *1237:I 9.0764e-05
15 *357:27 *388:8 4.68103e-05
16 *387:12 *1291:A2 0.000141897
*RES
1 *1530:Q *388:8 9.684 
2 *388:8 *1291:A2 11.736 
3 *388:8 *1237:I 10.596 
*END

*D_NET *389 0.00396399
*CONN
*I *1236:I I *D gf180mcu_fd_sc_mcu7t5v0__clkinv_1
*I *1291:A1 I *D gf180mcu_fd_sc_mcu7t5v0__nor4_1
*I *1361:A1 I *D gf180mcu_fd_sc_mcu7t5v0__nand2_1
*I *1531:Q O *D gf180mcu_fd_sc_mcu7t5v0__dffsnq_1
*CAP
1 *1236:I 5.14315e-05
2 *1291:A1 0.000388509
3 *1361:A1 0.000260608
4 *1531:Q 0
5 *389:8 0.000923636
6 *389:6 0.00032595
7 *1236:I *432:14 4.84492e-05
8 *1291:A1 *1363:A1 0
9 *1291:A1 *1380:A1 0
10 *1291:A2 *1291:A1 9.68431e-05
11 *1361:A2 *1361:A1 0.000134636
12 *1364:A1 *1361:A1 0
13 *1364:A1 *389:8 0
14 *1474:I *1291:A1 3.77875e-05
15 *1474:I *1361:A1 9.16934e-05
16 *1530:RN *1291:A1 0.000438681
17 *1531:D *1361:A1 2.58957e-05
18 *1531:SETN *1291:A1 2.30518e-05
19 *1585:I *1361:A1 0.000143665
20 *1585:I *389:8 8.66794e-05
21 *1586:I *1236:I 6.87085e-05
22 *1586:I *389:8 1.00624e-05
23 *1616:I *1361:A1 0.000193942
24 *1639:I *1291:A1 0.00011135
25 *1639:I *389:8 2.68029e-05
26 *1640:I *1236:I 1.81243e-06
27 *1640:I *389:8 1.72372e-05
28 *145:6 *1236:I 8.55242e-05
29 *294:65 *1361:A1 4.21332e-05
30 *307:19 *1361:A1 0.000245108
31 *354:23 *1236:I 1.15244e-05
32 *354:23 *1291:A1 0
33 *354:29 *389:8 0
34 *354:53 *1236:I 0
35 *354:53 *389:8 0
36 *357:27 *1291:A1 0
37 *387:12 *1291:A1 2.8394e-05
38 *388:8 *1291:A1 4.38725e-05
*RES
1 *1531:Q *389:6 9 
2 *389:6 *389:8 1.9 
3 *389:8 *1361:A1 12.192 
4 *389:8 *1291:A1 12.268 
5 *389:6 *1236:I 9.76 
*END

*D_NET *390 0.00226739
*CONN
*I *1230:I I *D gf180mcu_fd_sc_mcu7t5v0__clkinv_1
*I *1318:A3 I *D gf180mcu_fd_sc_mcu7t5v0__nand3_1
*I *1328:A1 I *D gf180mcu_fd_sc_mcu7t5v0__nor2_1
*I *1547:Q O *D gf180mcu_fd_sc_mcu7t5v0__dffrnq_1
*CAP
1 *1230:I 0
2 *1318:A3 0.000243784
3 *1328:A1 0.000215944
4 *1547:Q 0.000153212
5 *390:23 0.000316432
6 *390:8 0.000441804
7 *1319:A1 *1318:A3 5.14116e-06
8 *1323:A1 *1318:A3 1.02578e-05
9 *1326:A1 *1318:A3 5.20307e-05
10 *1326:A2 *1318:A3 0.000330116
11 *1329:A1 *1318:A3 0
12 *1329:A1 *1328:A1 0
13 *1329:A2 *1318:A3 0
14 *1329:A2 *1328:A1 0.00020108
15 *1329:A2 *390:23 0
16 *1548:CLK *1318:A3 4.42433e-05
17 *1548:CLK *390:23 4.68103e-05
18 *227:21 *1318:A3 0.000169178
19 *227:21 *1328:A1 0
20 *227:21 *390:8 0
21 *321:17 *1318:A3 3.73535e-05
*RES
1 *1547:Q *390:8 10.292 
2 *390:8 *1328:A1 10.52 
3 *390:8 *390:23 5.184 
4 *390:23 *1318:A3 16.084 
5 *390:23 *1230:I 4.5 
*END

*D_NET *391 0.00320459
*CONN
*I *1324:A1 I *D gf180mcu_fd_sc_mcu7t5v0__aoi21_1
*I *1327:A1 I *D gf180mcu_fd_sc_mcu7t5v0__aoi21_1
*I *1326:B2 I *D gf180mcu_fd_sc_mcu7t5v0__oai22_1
*I *1318:A2 I *D gf180mcu_fd_sc_mcu7t5v0__nand3_1
*I *1548:Q O *D gf180mcu_fd_sc_mcu7t5v0__dffrnq_1
*CAP
1 *1324:A1 0
2 *1327:A1 9.1248e-05
3 *1326:B2 1.2593e-05
4 *1318:A2 0.000159722
5 *1548:Q 0.000673282
6 *391:25 0.000103841
7 *391:12 0.000336909
8 *391:10 0.00085047
9 *391:12 *1318:A1 0
10 *1325:A2 *1318:A2 0
11 *1326:A1 *1318:A2 0.000356669
12 *1326:B1 *1318:A2 0.000196417
13 *1327:A2 *1326:B2 2.23385e-05
14 *1327:A2 *1327:A1 0.000141897
15 *1327:B *1327:A1 5.3266e-05
16 *1502:I *391:10 0
17 *1548:RN *391:10 0
18 *1548:CLK *1318:A2 5.14116e-06
19 *1548:CLK *1327:A1 0
20 *1549:D *391:10 0
21 *1549:D *391:12 0
22 *223:6 *1318:A2 9.26705e-05
23 *227:21 *1318:A2 9.50296e-06
24 *227:36 *1318:A2 2.85938e-05
25 *227:36 *1326:B2 1.5015e-05
26 *227:36 *391:12 1.76629e-05
27 *321:17 *1318:A2 3.73535e-05
*RES
1 *1548:Q *391:10 13.256 
2 *391:10 *391:12 1.14 
3 *391:12 *1318:A2 10.824 
4 *391:12 *391:25 4.5 
5 *391:25 *1326:B2 4.728 
6 *391:25 *1327:A1 5.488 
7 *391:10 *1324:A1 9 
*END

*D_NET *392 0.00136381
*CONN
*I *1324:B I *D gf180mcu_fd_sc_mcu7t5v0__aoi21_1
*I *1318:A1 I *D gf180mcu_fd_sc_mcu7t5v0__nand3_1
*I *1549:Q O *D gf180mcu_fd_sc_mcu7t5v0__dffrnq_1
*CAP
1 *1324:B 0.000169734
2 *1318:A1 0.000134185
3 *1549:Q 4.33704e-05
4 *392:8 0.000347289
5 *1325:A1 *1318:A1 2.90023e-05
6 *1325:A2 *1324:B 0.000149579
7 *1502:I *1324:B 0
8 *1549:D *1318:A1 0.000151949
9 *1549:D *392:8 0.00021548
10 *223:6 *1324:B 0
11 *224:8 *1318:A1 6.68441e-05
12 *227:36 *1318:A1 5.63729e-05
13 *391:12 *1318:A1 0
*RES
1 *1549:Q *392:8 9.532 
2 *392:8 *1318:A1 10.444 
3 *392:8 *1324:B 10.292 
*END

*D_NET *393 0.00289212
*CONN
*I *1320:A1 I *D gf180mcu_fd_sc_mcu7t5v0__nor2_1
*I *1229:I I *D gf180mcu_fd_sc_mcu7t5v0__clkinv_1
*I *1550:Q O *D gf180mcu_fd_sc_mcu7t5v0__dffrnq_1
*CAP
1 *1320:A1 0.00018052
2 *1229:I 0.000111715
3 *1550:Q 0.000666131
4 *393:10 0.000958367
5 *1322:A1 *393:10 8.30278e-05
6 *1406:A2 *1229:I 0
7 *1406:A2 *1320:A1 0
8 *1445:I *393:10 0.000142809
9 *1548:CLK *1320:A1 0.000126956
10 *1548:CLK *393:10 0
11 *1554:CLK *393:10 1.31444e-05
12 *1665:I *1320:A1 4.02664e-05
13 *225:8 *1320:A1 2.79106e-05
14 *300:10 *1320:A1 2.17248e-05
15 *300:12 *1229:I 4.68103e-05
16 *300:12 *1320:A1 2.976e-05
17 *321:6 *1320:A1 0.000193933
18 *367:23 *393:10 4.89423e-05
19 *367:34 *393:10 0.000119771
20 *367:47 *393:10 8.0332e-05
*RES
1 *1550:Q *393:10 19.048 
2 *393:10 *1229:I 5.184 
3 *393:10 *1320:A1 15.324 
*END

*D_NET *394 0.00520565
*CONN
*I *1631:I I *D gf180mcu_fd_sc_mcu7t5v0__dlyb_1
*I *1630:I I *D gf180mcu_fd_sc_mcu7t5v0__dlyb_1
*I *1535:Q O *D gf180mcu_fd_sc_mcu7t5v0__dffrnq_1
*CAP
1 *1631:I 0.000519782
2 *1630:I 0.000557458
3 *1535:Q 0
4 *394:4 0.00107724
5 *1630:I *1356:A1 3.08902e-05
6 *1630:I *1623:I 0.000812812
7 *1630:I *398:44 7.02696e-05
8 *1630:I *414:8 6.34531e-05
9 *1631:I *1250:I 1.46159e-05
10 *1631:I *1623:I 0.00046769
11 *1343:A1 *1630:I 0.000115032
12 *1350:A1 *1630:I 2.22758e-05
13 *1350:B *1630:I 0.000441055
14 *1356:A2 *1630:I 1.20079e-05
15 *1390:I0 *1630:I 0.000239772
16 *1410:B2 *1631:I 0
17 *1497:I *1630:I 8.55327e-05
18 *1540:D *1630:I 5.48455e-05
19 *1543:RN *1630:I 6.42585e-05
20 *1587:I *1631:I 0
21 *1620:I *1631:I 0.000269699
22 *1652:I *1630:I 0
23 *334:27 *1630:I 0.000233917
24 *334:27 *1631:I 5.30391e-05
*RES
1 *1535:Q *394:4 4.5 
2 *394:4 *1630:I 20.492 
3 *394:4 *1631:I 18.212 
*END

*D_NET *395 0.00491774
*CONN
*I *1628:I I *D gf180mcu_fd_sc_mcu7t5v0__dlyb_1
*I *1629:I I *D gf180mcu_fd_sc_mcu7t5v0__dlyb_1
*I *1536:Q O *D gf180mcu_fd_sc_mcu7t5v0__dffrnq_1
*CAP
1 *1628:I 0.000130769
2 *1629:I 0.000796765
3 *1536:Q 0.000552337
4 *395:10 0.00147987
5 *1628:I *1623:I 0.000268963
6 *1341:A1 *1629:I 0
7 *1490:I *1628:I 0.000223855
8 *1490:I *395:10 0.000235101
9 *1495:I *1628:I 1.90918e-05
10 *1536:RN *395:10 9.67157e-05
11 *1539:CLK *1629:I 1.28529e-05
12 *1544:RN *1629:I 0.000225314
13 *1571:D *395:10 0
14 *1571:SETN *395:10 8.95196e-05
15 *1571:CLK *1629:I 0
16 *1571:CLK *395:10 0.000435281
17 *1634:I *1629:I 3.38043e-05
18 *303:34 *1629:I 0
19 *349:23 *1629:I 0.000317503
*RES
1 *1536:Q *395:10 13.408 
2 *395:10 *1629:I 14.7 
3 *395:10 *1628:I 10.444 
*END

*D_NET *396 0.00983924
*CONN
*I *1627:I I *D gf180mcu_fd_sc_mcu7t5v0__dlyb_1
*I *1387:I1 I *D gf180mcu_fd_sc_mcu7t5v0__mux2_2
*I *1537:Q O *D gf180mcu_fd_sc_mcu7t5v0__dffrnq_1
*CAP
1 *1627:I 9.50728e-05
2 *1387:I1 0.00186081
3 *1537:Q 0.00070956
4 *396:14 0.00266544
5 *1366:B *1387:I1 1.65795e-06
6 *1368:A2 *1387:I1 0.000202089
7 *1370:A1 *1387:I1 0.000165379
8 *1370:B *1387:I1 0.000317494
9 *1372:B *396:14 0
10 *1383:B *1387:I1 7.195e-05
11 *1494:I *1387:I1 0.000300192
12 *1517:CLK *1387:I1 0
13 *1519:CLK *1387:I1 0
14 *1521:D *1387:I1 3.73535e-05
15 *1521:CLK *1387:I1 0.000142329
16 *1524:CLK *396:14 3.08902e-05
17 *1526:D *396:14 1.45682e-05
18 *1528:CLK *1387:I1 0
19 *1542:D *1387:I1 0.000205231
20 *1610:I *1387:I1 4.97635e-05
21 *1612:I *1387:I1 0.000356083
22 *1613:I *1387:I1 5.09739e-06
23 *1613:I *1627:I 7.83779e-05
24 *1613:I *396:14 0.00013053
25 *1617:I *1387:I1 0
26 *1618:I *1387:I1 7.21157e-05
27 *1619:I *1387:I1 0.000893968
28 *1635:I *1387:I1 6.71768e-05
29 *302:19 *1387:I1 0
30 *302:27 *396:14 0.000632712
31 *326:8 *396:14 0
32 *328:47 *1387:I1 0.000129292
33 *330:6 *1387:I1 0.000194113
34 *330:10 *1387:I1 0.000259583
35 *332:16 *1387:I1 0
36 *341:12 *1387:I1 7.43773e-06
37 *341:12 *396:14 4.97386e-06
38 *341:18 *396:14 1.34641e-06
39 *348:16 *396:14 9.08121e-06
40 *351:6 *396:14 1.72572e-05
41 *370:10 *396:14 0.000110314
*RES
1 *1537:Q *396:14 18.744 
2 *396:14 *1387:I1 21.372 
3 *396:14 *1627:I 5.26 
*END

*D_NET *397 0.0176111
*CONN
*I *1369:A1 I *D gf180mcu_fd_sc_mcu7t5v0__nor2_1
*I *1351:I1 I *D gf180mcu_fd_sc_mcu7t5v0__mux2_2
*I *1330:A3 I *D gf180mcu_fd_sc_mcu7t5v0__nor4_1
*I *1385:A1 I *D gf180mcu_fd_sc_mcu7t5v0__nand2_1
*I *1352:I0 I *D gf180mcu_fd_sc_mcu7t5v0__mux2_2
*I *1538:Q O *D gf180mcu_fd_sc_mcu7t5v0__dffrnq_1
*CAP
1 *1369:A1 0.000323254
2 *1351:I1 0
3 *1330:A3 0.000101558
4 *1385:A1 0.000972737
5 *1352:I0 0.000313378
6 *1538:Q 0
7 *397:39 0.00162315
8 *397:27 0.000603128
9 *397:12 0.000684619
10 *397:4 0.000640226
11 *1330:A3 *398:27 0.000387694
12 *1385:A1 *1380:A1 0.000163817
13 *397:39 *1347:A1 2.39622e-05
14 *397:39 *1623:I 0.000154785
15 *397:39 *398:27 1.3493e-05
16 *1330:A4 *1330:A3 0.000263791
17 *1330:A4 *397:39 7.43287e-05
18 *1331:A1 *1330:A3 5.98923e-05
19 *1331:A1 *397:39 0.00153873
20 *1331:A2 *1385:A1 0.000100584
21 *1346:A1 *1385:A1 1.33998e-05
22 *1346:B *1385:A1 0.000366028
23 *1362:B *1385:A1 0.000235573
24 *1366:A1 *397:39 5.8775e-05
25 *1369:A2 *1369:A1 0.000188405
26 *1370:A1 *1369:A1 0.00101787
27 *1370:B *1369:A1 0.000130952
28 *1474:I *1385:A1 0.00012695
29 *1492:I *1352:I0 5.07443e-05
30 *1492:I *1369:A1 0.00174088
31 *1492:I *397:12 3.08808e-05
32 *1527:RN *1369:A1 8.04285e-05
33 *1528:CLK *397:12 0.000100539
34 *1529:CLK *397:39 0.000308746
35 *1530:RN *1369:A1 3.16765e-06
36 *1542:D *1385:A1 0.00026436
37 *1573:I *397:12 0.000410412
38 *1581:I *1385:A1 4.83197e-05
39 *1585:I *1385:A1 6.12154e-05
40 *143:8 *1385:A1 0.000317503
41 *143:10 *1385:A1 2.46507e-05
42 *143:12 *1385:A1 0.000306071
43 *245:24 *1352:I0 0.000443114
44 *245:24 *397:27 4.1381e-05
45 *245:24 *397:39 5.56314e-05
46 *294:7 *1385:A1 0.000177098
47 *294:41 *1369:A1 6.00886e-05
48 *294:65 *1385:A1 0.000293974
49 *302:19 *1369:A1 0.000132634
50 *302:19 *397:12 3.47988e-05
51 *304:8 *397:39 0.000241166
52 *329:10 *1385:A1 0.000306401
53 *331:10 *1385:A1 0.000300071
54 *331:16 *397:12 3.24312e-05
55 *331:18 *1352:I0 1.59363e-05
56 *331:18 *397:12 3.56597e-05
57 *341:12 *1369:A1 0.00020133
58 *342:8 *397:39 0.00018401
59 *345:35 *1385:A1 0.000140663
60 *345:56 *1369:A1 2.33289e-05
61 *345:56 *397:12 8.71673e-05
62 *351:12 *1352:I0 0.000177239
63 *351:12 *397:27 0.000317503
64 *351:12 *397:39 0.000380481
*RES
1 *1538:Q *397:4 4.5 
2 *397:4 *397:12 7.92 
3 *397:12 *1352:I0 12.192 
4 *397:12 *397:27 5.336 
5 *397:27 *397:39 16.144 
6 *397:39 *1385:A1 24.976 
7 *397:39 *1330:A3 6.324 
8 *397:27 *1351:I1 4.5 
9 *397:4 *1369:A1 21.024 
*END

*D_NET *398 0.00850018
*CONN
*I *1351:I0 I *D gf180mcu_fd_sc_mcu7t5v0__mux2_2
*I *1384:I1 I *D gf180mcu_fd_sc_mcu7t5v0__mux2_2
*I *1349:A1 I *D gf180mcu_fd_sc_mcu7t5v0__nand2_1
*I *1330:A2 I *D gf180mcu_fd_sc_mcu7t5v0__nor4_1
*I *1367:A1 I *D gf180mcu_fd_sc_mcu7t5v0__nor2_1
*I *1539:Q O *D gf180mcu_fd_sc_mcu7t5v0__dffrnq_1
*CAP
1 *1351:I0 0.000122411
2 *1384:I1 0.000114719
3 *1349:A1 0
4 *1330:A2 0
5 *1367:A1 0
6 *1539:Q 0.000146253
7 *398:44 0.000355921
8 *398:27 0.000550181
9 *398:16 0.000475627
10 *398:10 0.000435312
11 *1384:I1 *1623:I 0.000355531
12 *398:27 *1623:I 0.000219326
13 *398:44 *1623:I 0.000202974
14 *1330:A3 *398:27 0.000387694
15 *1330:A4 *1351:I0 0.000283877
16 *1330:A4 *398:16 4.5452e-05
17 *1330:A4 *398:27 7.13715e-06
18 *1331:A1 *398:27 0.00124811
19 *1332:A1 *398:27 0.000261337
20 *1332:A1 *398:44 0.000454941
21 *1332:A2 *398:27 1.39031e-05
22 *1332:A2 *398:44 8.73674e-05
23 *1343:A1 *398:44 1.43729e-05
24 *1346:B *398:27 0.000187262
25 *1349:A2 *1384:I1 0.000317494
26 *1350:A1 *1384:I1 5.59457e-05
27 *1354:I1 *398:10 0.000174115
28 *1367:A2 *398:27 3.07734e-05
29 *1368:B *398:10 7.22395e-05
30 *1490:I *398:10 7.52388e-05
31 *1520:D *1384:I1 4.09047e-05
32 *1520:D *398:44 1.28891e-05
33 *1630:I *398:44 7.02696e-05
34 *144:8 *1384:I1 0.000138153
35 *144:25 *1384:I1 3.00299e-05
36 *144:25 *398:44 9.14686e-05
37 *144:41 *398:27 0.000298114
38 *345:56 *398:10 0.000110254
39 *351:12 *1351:I0 8.03017e-05
40 *351:12 *398:16 0.000121745
41 *351:12 *398:27 0.000797041
42 *397:39 *398:27 1.3493e-05
*RES
1 *1539:Q *398:10 15.096 
2 *398:10 *398:16 1.444 
3 *398:16 *1367:A1 4.5 
4 *398:16 *398:27 6.004 
5 *398:27 *1330:A2 4.5 
6 *398:27 *398:44 11.736 
7 *398:44 *1349:A1 4.5 
8 *398:44 *1384:I1 15.628 
9 *398:10 *1351:I0 5.792 
*END

*D_NET *399 0.000896949
*CONN
*I *1382:A1 I *D gf180mcu_fd_sc_mcu7t5v0__nand2_1
*I *1235:I I *D gf180mcu_fd_sc_mcu7t5v0__clkinv_1
*I *1540:Q O *D gf180mcu_fd_sc_mcu7t5v0__dffrnq_1
*CAP
1 *1382:A1 0
2 *1235:I 0.000101324
3 *1540:Q 8.23828e-05
4 *399:8 0.000183707
5 *1494:I *1235:I 0.000307974
6 *1494:I *399:8 0.000147313
7 *1540:RN *1235:I 6.39906e-05
8 *1540:RN *399:8 1.02578e-05
9 *311:30 *1235:I 0
10 *311:30 *399:8 0
*RES
1 *1540:Q *399:8 5.412 
2 *399:8 *1235:I 5.564 
3 *399:8 *1382:A1 4.5 
*END

*D_NET *400 0.0139795
*CONN
*I *1345:A1 I *D gf180mcu_fd_sc_mcu7t5v0__nand2_1
*I *1380:A1 I *D gf180mcu_fd_sc_mcu7t5v0__nand2_1
*I *1363:A1 I *D gf180mcu_fd_sc_mcu7t5v0__nor2_1
*I *1331:A4 I *D gf180mcu_fd_sc_mcu7t5v0__nor4_1
*I *1347:A1 I *D gf180mcu_fd_sc_mcu7t5v0__nor2_1
*I *1541:Q O *D gf180mcu_fd_sc_mcu7t5v0__dffrnq_1
*CAP
1 *1345:A1 0.000181681
2 *1380:A1 0.000385274
3 *1363:A1 0.000353535
4 *1331:A4 7.21936e-05
5 *1347:A1 0.000185105
6 *1541:Q 0
7 *400:36 0.00128981
8 *400:12 0.000302883
9 *400:8 0.000617414
10 *400:4 0.000202515
11 *1239:I *1363:A1 0.000379274
12 *1291:A1 *1363:A1 0
13 *1291:A1 *1380:A1 0
14 *1291:A3 *1363:A1 0.000116355
15 *1330:A4 *1331:A4 0.000838861
16 *1330:A4 *1347:A1 0.000372422
17 *1331:A1 *1347:A1 0.00024941
18 *1345:A2 *1345:A1 0.000346011
19 *1346:B *1345:A1 4.83191e-05
20 *1363:A2 *1363:A1 0.00115761
21 *1366:A1 *1347:A1 6.57222e-06
22 *1366:B *400:36 0.00114682
23 *1367:A2 *1347:A1 6.05474e-05
24 *1385:A1 *1380:A1 0.000163817
25 *1474:I *1380:A1 0.000462011
26 *1474:I *400:36 0.000102185
27 *1483:I *1363:A1 2.9378e-06
28 *1496:I *400:36 0.000122849
29 *1529:D *1347:A1 6.73926e-05
30 *1530:RN *1363:A1 1.10309e-05
31 *1599:I *1363:A1 9.70146e-05
32 *1599:I *1380:A1 6.80237e-05
33 *1635:I *400:12 6.48268e-05
34 *1635:I *400:36 2.41778e-05
35 *148:25 *1363:A1 1.2018e-05
36 *245:24 *1347:A1 1.5961e-05
37 *294:7 *1380:A1 8.44693e-06
38 *294:9 *1363:A1 3.92183e-05
39 *307:6 *1380:A1 0.000211495
40 *307:23 *400:36 7.73886e-05
41 *328:10 *1347:A1 1.12495e-05
42 *328:10 *400:36 0
43 *328:47 *400:36 5.45907e-06
44 *331:16 *1345:A1 0.000880464
45 *331:16 *400:8 8.04285e-05
46 *332:16 *1347:A1 7.23444e-05
47 *332:16 *400:12 0.000261987
48 *332:16 *400:36 0.000279752
49 *345:10 *1345:A1 0.000369754
50 *345:35 *1331:A4 0.000859397
51 *345:35 *1345:A1 0.00016977
52 *345:35 *1347:A1 0.000156625
53 *345:35 *400:8 1.93526e-05
54 *350:19 *400:36 0.00026966
55 *387:12 *1363:A1 0.000127288
56 *387:12 *400:36 0.000528573
57 *397:39 *1347:A1 2.39622e-05
*RES
1 *1541:Q *400:4 4.5 
2 *400:4 *400:8 4.728 
3 *400:8 *400:12 5.184 
4 *400:12 *1347:A1 15.932 
5 *400:12 *1331:A4 6.856 
6 *400:8 *400:36 11.416 
7 *400:36 *1363:A1 9.44 
8 *400:36 *1380:A1 8.376 
9 *400:4 *1345:A1 7.768 
*END

*D_NET *401 0.000485287
*CONN
*I *1234:I I *D gf180mcu_fd_sc_mcu7t5v0__clkinv_1
*I *1542:Q O *D gf180mcu_fd_sc_mcu7t5v0__dffrnq_1
*CAP
1 *1234:I 5.90134e-05
2 *1542:Q 5.90134e-05
3 *143:10 *1234:I 2.70198e-05
4 *325:10 *1234:I 0.000340241
*RES
1 *1542:Q *1234:I 18.836 
*END

*D_NET *402 0.00329812
*CONN
*I *1233:I I *D gf180mcu_fd_sc_mcu7t5v0__clkinv_1
*I *1360:A2 I *D gf180mcu_fd_sc_mcu7t5v0__nand3_1
*I *1543:Q O *D gf180mcu_fd_sc_mcu7t5v0__dffrnq_1
*CAP
1 *1233:I 0.000129005
2 *1360:A2 0.000179052
3 *1543:Q 0
4 *402:4 0.000308057
5 *1233:I *1356:A3 1.5015e-05
6 *1233:I *414:8 0.000210769
7 *1233:I *414:27 3.07734e-05
8 *1360:A2 *1356:A3 4.26315e-06
9 *1360:A2 *1360:A3 0.000841708
10 *1360:A2 *414:27 3.49356e-05
11 *1377:A2 *1233:I 0.00020973
12 *1377:A2 *1360:A2 0.00027771
13 *1652:I *1360:A2 0.0010571
*RES
1 *1543:Q *402:4 4.5 
2 *402:4 *1360:A2 8.224 
3 *402:4 *1233:I 5.944 
*END

*D_NET *403 0.00201978
*CONN
*I *1356:A1 I *D gf180mcu_fd_sc_mcu7t5v0__nand3_1
*I *1232:I I *D gf180mcu_fd_sc_mcu7t5v0__clkinv_1
*I *1544:Q O *D gf180mcu_fd_sc_mcu7t5v0__dffrnq_1
*CAP
1 *1356:A1 0.000346868
2 *1232:I 0.000157038
3 *1544:Q 0
4 *403:6 0.000503905
5 *1356:A1 *1623:I 4.84632e-05
6 *1356:A1 *414:8 1.02578e-05
7 *1356:A1 *414:27 0.000229258
8 *1377:A1 *1232:I 0.000231978
9 *1388:A1 *1232:I 1.51256e-05
10 *1388:A1 *1356:A1 1.4587e-05
11 *1544:RN *1232:I 0.000157386
12 *1581:I *1232:I 0
13 *1581:I *1356:A1 0
14 *1630:I *1356:A1 3.08902e-05
15 *1652:I *1356:A1 7.42484e-05
16 *245:24 *1356:A1 0.000199776
*RES
1 *1544:Q *403:6 9 
2 *403:6 *1232:I 10.824 
3 *403:6 *1356:A1 12.04 
*END

*D_NET *404 0.0162444
*CONN
*I *1624:I I *D gf180mcu_fd_sc_mcu7t5v0__dlyb_1
*I *1623:I I *D gf180mcu_fd_sc_mcu7t5v0__dlyb_1
*I *1571:Q O *D gf180mcu_fd_sc_mcu7t5v0__dffsnq_1
*CAP
1 *1624:I 0.000591888
2 *1623:I 0.00199702
3 *1571:Q 0.00140513
4 *1623:I *1250:I 0.000255714
5 *1624:I *1311:A1 0.000164305
6 *1624:I *1313:A2 0.000125645
7 *1624:I *1416:A1 0.000135941
8 *1311:A2 *1624:I 0.000186882
9 *1331:A1 *1623:I 5.43087e-05
10 *1346:B *1623:I 0.000193889
11 *1348:A2 *1623:I 7.97399e-05
12 *1349:A2 *1623:I 0.000102182
13 *1350:B *1623:I 0.000441055
14 *1356:A1 *1623:I 4.84632e-05
15 *1366:A1 *1623:I 0.000235582
16 *1384:I1 *1623:I 0.000355531
17 *1410:B2 *1623:I 0.000175376
18 *1421:A2 *1624:I 4.91711e-05
19 *1490:I *1623:I 0.000135843
20 *1495:I *1623:I 5.80445e-05
21 *1518:CLK *1623:I 2.9965e-05
22 *1569:D *1623:I 2.68145e-05
23 *1569:CLK *1623:I 0.000345016
24 *1569:CLK *1624:I 0.000759222
25 *1574:I *1624:I 0
26 *1575:I *1624:I 7.4207e-05
27 *1620:I *1623:I 1.2339e-05
28 *1620:I *1624:I 0.000379274
29 *1628:I *1623:I 0.000268963
30 *1630:I *1623:I 0.000812812
31 *1631:I *1623:I 0.00046769
32 *1646:I *1624:I 0.00089396
33 *144:25 *1623:I 0.000144729
34 *144:41 *1623:I 0.000558033
35 *233:18 *1623:I 1.21383e-05
36 *245:24 *1623:I 0.00185801
37 *294:131 *1624:I 0.00016664
38 *304:23 *1623:I 0
39 *323:6 *1623:I 4.53295e-05
40 *323:12 *1623:I 0.000137545
41 *337:19 *1624:I 0.000602412
42 *346:12 *1623:I 0.000607069
43 *351:12 *1623:I 0.000673425
44 *397:39 *1623:I 0.000154785
45 *398:27 *1623:I 0.000219326
46 *398:44 *1623:I 0.000202974
*RES
1 *1571:Q *1623:I 39.28 
2 *1623:I *1624:I 25.98 
*END

*D_NET *405 0.00922803
*CONN
*I *1315:A1 I *D gf180mcu_fd_sc_mcu7t5v0__nor3_1
*I *1310:A1 I *D gf180mcu_fd_sc_mcu7t5v0__and4_1
*I *1251:I I *D gf180mcu_fd_sc_mcu7t5v0__clkinv_1
*I *1314:A1 I *D gf180mcu_fd_sc_mcu7t5v0__nor2_1
*I *1311:A1 I *D gf180mcu_fd_sc_mcu7t5v0__nand2_1
*I *1569:Q O *D gf180mcu_fd_sc_mcu7t5v0__dffsnq_1
*CAP
1 *1315:A1 0.00011662
2 *1310:A1 0.000234331
3 *1251:I 8.26341e-05
4 *1314:A1 0.000137455
5 *1311:A1 0.000327891
6 *1569:Q 0.000599595
7 *405:39 0.000487452
8 *405:37 0.000424562
9 *405:10 0.000927486
10 *1311:A1 *1413:A1 0.000203643
11 *1305:A3 *1251:I 0.000142801
12 *1305:A3 *1310:A1 8.81341e-06
13 *1310:A2 *1310:A1 0.000144931
14 *1310:A3 *1251:I 0.000394617
15 *1310:A3 *1310:A1 0.000301014
16 *1310:A3 *405:39 0.000120187
17 *1311:A2 *1311:A1 3.08902e-05
18 *1312:A3 *1311:A1 3.16765e-06
19 *1313:B *1310:A1 2.9378e-06
20 *1314:A2 *405:37 0.000480606
21 *1315:A2 *1315:A1 0.00026757
22 *1315:A3 *1315:A1 0.000117421
23 *1316:B *1251:I 5.69191e-05
24 *1316:B *405:39 0.000119227
25 *1317:A2 *1315:A1 3.22131e-05
26 *1406:A1 *1311:A1 1.5961e-05
27 *1406:A1 *405:10 0.000433149
28 *1421:A2 *1311:A1 9.26705e-05
29 *1444:I0 *405:10 0
30 *1452:I *405:10 0.000193933
31 *1553:CLK *405:10 9.26705e-05
32 *1562:D *405:10 3.08702e-05
33 *1565:CLK *405:10 0
34 *1620:I *1311:A1 0.000730544
35 *1624:I *1311:A1 0.000164305
36 *1646:I *405:37 0.00113844
37 *1665:I *1315:A1 0
38 *217:16 *1311:A1 0
39 *217:16 *405:37 2.57173e-05
40 *218:10 *1315:A1 5.43087e-05
41 *218:10 *405:39 0.000219595
42 *233:18 *1310:A1 0.00010391
43 *298:25 *405:10 4.24903e-05
44 *312:16 *1315:A1 5.70962e-05
45 *337:19 *1311:A1 6.73903e-05
*RES
1 *1569:Q *405:10 13.712 
2 *405:10 *1311:A1 13.256 
3 *405:10 *1314:A1 9 
4 *1314:A1 *405:37 12.116 
5 *405:37 *405:39 1.596 
6 *405:39 *1251:I 9.988 
7 *405:39 *1310:A1 11.204 
8 *405:37 *1315:A1 10.444 
*END

*D_NET *406 0.00846227
*CONN
*I *1312:A1 I *D gf180mcu_fd_sc_mcu7t5v0__nor3_1
*I *1335:A1 I *D gf180mcu_fd_sc_mcu7t5v0__xor2_1
*I *1410:A1 I *D gf180mcu_fd_sc_mcu7t5v0__oai32_1
*I *1567:D I *D gf180mcu_fd_sc_mcu7t5v0__dffsnq_1
*I *1355:I1 I *D gf180mcu_fd_sc_mcu7t5v0__mux2_2
*I *1570:Q O *D gf180mcu_fd_sc_mcu7t5v0__dffsnq_1
*CAP
1 *1312:A1 1.16172e-05
2 *1335:A1 0.000330452
3 *1410:A1 0
4 *1567:D 0
5 *1355:I1 0.000544385
6 *1570:Q 0.000537739
7 *406:45 0.000473857
8 *406:36 0.000370813
9 *406:12 0.000978446
10 *406:10 0.00121082
11 *1335:A1 *408:12 5.55772e-05
12 *1335:A1 *410:8 0
13 *406:36 *1250:I 2.69281e-06
14 *1312:A3 *1335:A1 3.45972e-05
15 *1355:I0 *1355:I1 1.72912e-05
16 *1410:A2 *1312:A1 1.97747e-05
17 *1410:A2 *406:45 0.000285981
18 *1410:B1 *1312:A1 8.55327e-05
19 *1410:B1 *406:45 0.000777537
20 *1421:A2 *1335:A1 0
21 *1489:I *406:10 0.00026286
22 *1516:D *406:10 1.90005e-05
23 *1535:RN *406:10 0.000162031
24 *1559:CLK *1355:I1 0
25 *1567:SETN *406:10 1.91917e-06
26 *1567:SETN *406:12 5.64165e-05
27 *1567:SETN *406:36 0.000372443
28 *1570:CLK *1355:I1 0
29 *1587:I *406:10 2.30587e-05
30 *1587:I *406:12 0
31 *1587:I *406:36 0
32 *1620:I *406:36 5.67574e-05
33 *1644:I *406:10 5.12005e-05
34 *1645:I *1335:A1 7.71175e-06
35 *159:6 *1335:A1 1.75557e-05
36 *159:12 *1335:A1 0.000584467
37 *217:16 *1335:A1 0.000206333
38 *239:12 *1355:I1 4.724e-05
39 *239:16 *1355:I1 0.0003776
40 *334:8 *406:10 0.000413211
41 *363:27 *406:10 6.53483e-05
*RES
1 *1570:Q *406:10 13.256 
2 *406:10 *406:12 2.204 
3 *406:12 *1355:I1 13.104 
4 *406:12 *1567:D 9 
5 *406:10 *406:36 6.628 
6 *406:36 *1410:A1 4.5 
7 *406:36 *406:45 2.28 
8 *406:45 *1335:A1 16.084 
9 *406:45 *1312:A1 4.728 
*END

*D_NET *407 0.00179142
*CONN
*I *1250:I I *D gf180mcu_fd_sc_mcu7t5v0__clkinv_1
*I *1567:Q O *D gf180mcu_fd_sc_mcu7t5v0__dffsnq_1
*CAP
1 *1250:I 0.000405365
2 *1567:Q 0.000405365
3 *1410:B2 *1250:I 8.30371e-05
4 *1421:A2 *1250:I 0
5 *1567:SETN *1250:I 0.000557809
6 *1620:I *1250:I 6.68164e-05
7 *1623:I *1250:I 0.000255714
8 *1631:I *1250:I 1.46159e-05
9 *406:36 *1250:I 2.69281e-06
*RES
1 *1567:Q *1250:I 21.496 
*END

*D_NET *408 0.00557057
*CONN
*I *1308:A2 I *D gf180mcu_fd_sc_mcu7t5v0__or3_1
*I *1420:B2 I *D gf180mcu_fd_sc_mcu7t5v0__aoi22_1
*I *1307:A1 I *D gf180mcu_fd_sc_mcu7t5v0__nor2_1
*I *1340:A1 I *D gf180mcu_fd_sc_mcu7t5v0__nand2_1
*I *1559:Q O *D gf180mcu_fd_sc_mcu7t5v0__dffrnq_1
*CAP
1 *1308:A2 0.000101363
2 *1420:B2 0.000478473
3 *1307:A1 0.000105382
4 *1340:A1 0
5 *1559:Q 0.000397316
6 *408:32 0.00062369
7 *408:21 0.000533006
8 *408:12 0.000781086
9 *1308:A2 *1308:A3 0.000191711
10 *408:21 *1307:A2 0
11 *408:21 *1308:A3 6.63588e-05
12 *408:21 *1412:A1 0
13 *408:21 *1414:B 4.33045e-05
14 *1335:A1 *408:12 5.55772e-05
15 *1340:A2 *408:21 0.000715757
16 *1412:A2 *408:21 0
17 *1419:A1 *1307:A1 8.0332e-05
18 *1419:A1 *1420:B2 0.000319529
19 *1419:A1 *408:32 3.11649e-05
20 *1421:A2 *408:12 0.000237624
21 *1574:I *1420:B2 0.000104569
22 *1645:I *408:12 4.63109e-05
23 *1645:I *408:21 5.8721e-05
24 *212:12 *408:21 1.15275e-05
25 *237:29 *1420:B2 9.13083e-05
26 *239:12 *408:12 8.95196e-05
27 *272:31 *1420:B2 0.000140167
28 *296:8 *1308:A2 7.87299e-05
29 *296:8 *408:21 8.55242e-05
30 *312:16 *1307:A1 6.67198e-05
31 *312:16 *1420:B2 0
32 *312:16 *408:32 3.57979e-05
*RES
1 *1559:Q *408:12 16.388 
2 *408:12 *1340:A1 4.5 
3 *408:12 *408:21 8.072 
4 *408:21 *1307:A1 9.988 
5 *408:21 *408:32 0.532 
6 *408:32 *1420:B2 12.876 
7 *408:32 *1308:A2 10.14 
*END

*D_NET *409 0.00592509
*CONN
*I *1308:A1 I *D gf180mcu_fd_sc_mcu7t5v0__or3_1
*I *1338:A1 I *D gf180mcu_fd_sc_mcu7t5v0__aoi211_1
*I *1253:I I *D gf180mcu_fd_sc_mcu7t5v0__clkinv_1
*I *1418:B I *D gf180mcu_fd_sc_mcu7t5v0__oai21_1
*I *1560:Q O *D gf180mcu_fd_sc_mcu7t5v0__dffrnq_1
*CAP
1 *1308:A1 9.55872e-05
2 *1338:A1 0
3 *1253:I 0.000319095
4 *1418:B 0
5 *1560:Q 0.000373131
6 *409:21 0.000470091
7 *409:14 0.000428043
8 *409:8 0.000745765
9 *1309:A1 *1253:I 0
10 *1337:A1 *1253:I 0.000112977
11 *1338:B *1253:I 3.99571e-05
12 *1338:B *409:21 9.68523e-05
13 *1338:C *1253:I 0.000489649
14 *1339:A2 *409:21 9.26705e-05
15 *1414:A2 *409:14 8.18282e-05
16 *1418:A2 *409:21 1.52691e-05
17 *1453:I *409:8 0.000127345
18 *1664:I *409:14 0.000239048
19 *1664:I *409:21 0.000832188
20 *213:16 *409:8 0
21 *214:8 *1253:I 4.41053e-06
22 *214:10 *1253:I 2.62889e-05
23 *273:12 *409:8 5.69191e-05
24 *273:12 *409:14 8.09458e-05
25 *296:8 *1308:A1 0.000231978
26 *296:14 *409:14 0.000107224
27 *296:38 *409:21 0
28 *339:30 *1253:I 0.000631274
29 *339:32 *1253:I 0.000124769
30 *361:22 *1308:A1 0.000101787
31 *361:22 *409:8 0
*RES
1 *1560:Q *409:8 11.204 
2 *409:8 *409:14 6.78 
3 *409:14 *1418:B 4.5 
4 *409:14 *409:21 2.204 
5 *409:21 *1253:I 16.768 
6 *409:21 *1338:A1 4.5 
7 *409:8 *1308:A1 10.292 
*END

*D_NET *410 0.00510083
*CONN
*I *1307:A2 I *D gf180mcu_fd_sc_mcu7t5v0__nor2_1
*I *1308:A3 I *D gf180mcu_fd_sc_mcu7t5v0__or3_1
*I *1414:B I *D gf180mcu_fd_sc_mcu7t5v0__oai21_1
*I *1412:A1 I *D gf180mcu_fd_sc_mcu7t5v0__and2_1
*I *1561:Q O *D gf180mcu_fd_sc_mcu7t5v0__dffrnq_1
*CAP
1 *1307:A2 0.00018249
2 *1308:A3 0.000402446
3 *1414:B 0.00032567
4 *1412:A1 0.000175426
5 *1561:Q 0.000192821
6 *410:10 0.000470349
7 *410:8 0.00074701
8 *1308:A2 *1308:A3 0.000191711
9 *1335:A1 *410:8 0
10 *1412:A2 *1307:A2 3.08902e-05
11 *1412:A2 *1412:A1 0.000379274
12 *1412:A2 *1414:B 4.69752e-05
13 *1414:A2 *1307:A2 9.65242e-05
14 *1414:A2 *1414:B 1.65795e-06
15 *1415:A1 *1412:A1 0.000262996
16 *1415:A1 *410:8 0.000590289
17 *1415:A1 *410:10 0.00062586
18 *1561:D *1412:A1 2.17248e-05
19 *1561:RN *1308:A3 4.50469e-05
20 *1645:I *1308:A3 0.000121396
21 *159:12 *410:8 0
22 *212:12 *1307:A2 1.02578e-05
23 *237:29 *1308:A3 3.94624e-05
24 *361:22 *1308:A3 3.08902e-05
25 *408:21 *1307:A2 0
26 *408:21 *1308:A3 6.63588e-05
27 *408:21 *1412:A1 0
28 *408:21 *1414:B 4.33045e-05
*RES
1 *1561:Q *410:8 10.596 
2 *410:8 *410:10 1.596 
3 *410:10 *1412:A1 10.824 
4 *410:10 *1414:B 9.988 
5 *410:8 *1308:A3 12.116 
6 *1414:B *1307:A2 10.444 
*END

*D_NET *411 0.00252543
*CONN
*I *1416:A1 I *D gf180mcu_fd_sc_mcu7t5v0__nand2_1
*I *1306:A1 I *D gf180mcu_fd_sc_mcu7t5v0__nor3_1
*I *1313:A1 I *D gf180mcu_fd_sc_mcu7t5v0__oai31_1
*I *1254:I I *D gf180mcu_fd_sc_mcu7t5v0__clkinv_1
*I *1562:Q O *D gf180mcu_fd_sc_mcu7t5v0__dffrnq_1
*CAP
1 *1416:A1 0.000110958
2 *1306:A1 0
3 *1313:A1 9.00067e-05
4 *1254:I 0
5 *1562:Q 0
6 *411:19 0.000275735
7 *411:12 0.000403466
8 *411:4 0.000328696
9 *1313:A1 *1313:A2 0.000145014
10 *1313:A1 *1313:A3 1.53727e-05
11 *1416:A1 *1413:A1 1.3758e-05
12 *411:12 *1413:A1 3.10545e-05
13 *411:19 *1413:A1 0.000200585
14 *411:19 *412:23 5.48978e-05
15 *1562:RN *411:19 1.74362e-05
16 *1569:D *411:12 0
17 *1569:CLK *1416:A1 5.22519e-05
18 *1569:CLK *411:12 0.000292033
19 *1574:I *1313:A1 0.000151728
20 *1574:I *1416:A1 0
21 *1624:I *1416:A1 0.000135941
22 *233:18 *1313:A1 5.97012e-05
23 *233:18 *411:19 6.07375e-05
24 *271:18 *1416:A1 1.04132e-05
25 *337:19 *1416:A1 1.57353e-05
26 *337:19 *411:12 8.0352e-06
27 *337:19 *411:19 5.18759e-05
*RES
1 *1562:Q *411:4 4.5 
2 *411:4 *411:12 1.976 
3 *411:12 *1254:I 4.5 
4 *411:12 *411:19 1.748 
5 *411:19 *1313:A1 14.716 
6 *411:19 *1306:A1 4.5 
7 *411:4 *1416:A1 14.26 
*END

*D_NET *412 0.00740188
*CONN
*I *1306:A2 I *D gf180mcu_fd_sc_mcu7t5v0__nor3_1
*I *1313:A2 I *D gf180mcu_fd_sc_mcu7t5v0__oai31_1
*I *1413:A1 I *D gf180mcu_fd_sc_mcu7t5v0__nand2_1
*I *1255:I I *D gf180mcu_fd_sc_mcu7t5v0__clkinv_1
*I *1563:Q O *D gf180mcu_fd_sc_mcu7t5v0__dffrnq_1
*CAP
1 *1306:A2 0
2 *1313:A2 0.000262707
3 *1413:A1 0.000413229
4 *1255:I 0.000250012
5 *1563:Q 0.000515928
6 *412:23 0.000742212
7 *412:21 0.000573536
8 *412:8 0.0012732
9 *1313:A2 *1313:A3 3.08902e-05
10 *412:21 *1306:A3 3.99265e-05
11 *412:21 *413:18 0.000661799
12 *412:23 *1306:A3 9.88736e-06
13 *1252:I *412:8 0
14 *1310:A3 *412:21 0.000292033
15 *1311:A1 *1413:A1 0.000203643
16 *1312:A3 *1413:A1 0
17 *1313:A1 *1313:A2 0.000145014
18 *1329:A1 *412:8 4.02664e-05
19 *1408:B2 *1255:I 0
20 *1416:A1 *1413:A1 1.3758e-05
21 *1419:A1 *1413:A1 0
22 *1547:CLK *412:21 0.000132782
23 *1569:CLK *1413:A1 6.44932e-05
24 *1569:CLK *412:23 5.8349e-05
25 *1574:I *1313:A2 7.01371e-05
26 *1624:I *1313:A2 0.000125645
27 *1625:I *412:21 0.000105696
28 *159:12 *1413:A1 0
29 *210:8 *412:21 0.000118659
30 *233:18 *1313:A2 4.57504e-06
31 *233:18 *412:21 7.26983e-05
32 *233:18 *412:23 1.72881e-05
33 *271:18 *1413:A1 3.78197e-05
34 *294:131 *1313:A2 1.63277e-05
35 *337:19 *1413:A1 0.000164555
36 *339:30 *1255:I 0.00045128
37 *340:17 *1255:I 0.000144663
38 *340:17 *412:8 3.26302e-05
39 *340:17 *412:21 2.96977e-05
40 *411:12 *1413:A1 3.10545e-05
41 *411:19 *1413:A1 0.000200585
42 *411:19 *412:23 5.48978e-05
*RES
1 *1563:Q *412:8 12.42 
2 *412:8 *1255:I 11.204 
3 *412:8 *412:21 9.744 
4 *412:21 *412:23 0.684 
5 *412:23 *1413:A1 17.148 
6 *412:23 *1313:A2 15.628 
7 *412:21 *1306:A2 4.5 
*END

*D_NET *413 0.00714814
*CONN
*I *1256:I I *D gf180mcu_fd_sc_mcu7t5v0__clkinv_1
*I *1313:A3 I *D gf180mcu_fd_sc_mcu7t5v0__oai31_1
*I *1420:A1 I *D gf180mcu_fd_sc_mcu7t5v0__aoi22_1
*I *1306:A3 I *D gf180mcu_fd_sc_mcu7t5v0__nor3_1
*I *1564:Q O *D gf180mcu_fd_sc_mcu7t5v0__dffrnq_1
*CAP
1 *1256:I 0
2 *1313:A3 0.000220186
3 *1420:A1 6.73402e-05
4 *1306:A3 2.92328e-05
5 *1564:Q 0.000557661
6 *413:27 0.000287526
7 *413:18 0.000583793
8 *413:12 0.00111222
9 *1310:A3 *1306:A3 7.32209e-05
10 *1310:A3 *413:18 0.000248677
11 *1313:A1 *1313:A3 1.53727e-05
12 *1313:A2 *1313:A3 3.08902e-05
13 *1420:B1 *1420:A1 8.69862e-05
14 *1454:I *413:12 0
15 *1547:D *413:12 6.54913e-05
16 *1547:CLK *413:12 6.44359e-05
17 *1547:CLK *413:18 7.95726e-05
18 *1569:CLK *1306:A3 0.000187262
19 *1569:CLK *1420:A1 5.69968e-06
20 *1569:CLK *413:18 0.000373079
21 *1574:I *1420:A1 1.81924e-05
22 *1575:I *1313:A3 5.74966e-05
23 *1626:I *413:12 0.000126898
24 *1626:I *413:18 0.00020953
25 *218:10 *1313:A3 2.85028e-05
26 *233:18 *1313:A3 0
27 *271:10 *1313:A3 0.000834471
28 *271:10 *1420:A1 0.000256307
29 *271:12 *1420:A1 3.08902e-05
30 *294:131 *1313:A3 4.08693e-05
31 *297:25 *413:18 3.73535e-05
32 *312:16 *1313:A3 0.000375114
33 *312:16 *1420:A1 0.000131421
34 *337:44 *413:18 0.000187377
35 *339:30 *413:18 1.34535e-05
36 *412:21 *1306:A3 3.99265e-05
37 *412:21 *413:18 0.000661799
38 *412:23 *1306:A3 9.88736e-06
*RES
1 *1564:Q *413:12 17.756 
2 *413:12 *413:18 6.46 
3 *413:18 *1306:A3 5.032 
4 *413:18 *413:27 4.5 
5 *413:27 *1420:A1 10.064 
6 *413:27 *1313:A3 12.268 
7 *413:12 *1256:I 4.5 
*END

*D_NET *414 0.00371747
*CONN
*I *1377:A3 I *D gf180mcu_fd_sc_mcu7t5v0__and3_1
*I *1360:A3 I *D gf180mcu_fd_sc_mcu7t5v0__nand3_1
*I *1356:A3 I *D gf180mcu_fd_sc_mcu7t5v0__nand3_1
*I *1568:Q O *D gf180mcu_fd_sc_mcu7t5v0__dffrnq_1
*CAP
1 *1377:A3 0
2 *1360:A3 0.000116636
3 *1356:A3 2.3481e-05
4 *1568:Q 0.000241237
5 *414:27 0.000287238
6 *414:8 0.000435319
7 *1233:I *1356:A3 1.5015e-05
8 *1233:I *414:8 0.000210769
9 *1233:I *414:27 3.07734e-05
10 *1356:A1 *414:8 1.02578e-05
11 *1356:A1 *414:27 0.000229258
12 *1356:A2 *414:8 0.000300836
13 *1360:A2 *1356:A3 4.26315e-06
14 *1360:A2 *1360:A3 0.000841708
15 *1360:A2 *414:27 3.49356e-05
16 *1377:A1 *1360:A3 0.000356305
17 *1377:A2 *1360:A3 3.08902e-05
18 *1377:A2 *414:8 8.02751e-06
19 *1388:A1 *414:27 0.000190317
20 *1630:I *414:8 6.34531e-05
21 *1652:I *414:8 4.52293e-05
22 *1652:I *414:27 0.000241516
*RES
1 *1568:Q *414:8 6.78 
2 *414:8 *1356:A3 4.728 
3 *414:8 *414:27 11.128 
4 *414:27 *1360:A3 6.932 
5 *414:27 *1377:A3 4.5 
*END

*D_NET *415 0.00631325
*CONN
*I *1228:I I *D gf180mcu_fd_sc_mcu7t5v0__clkinv_1
*I *1295:A2 I *D gf180mcu_fd_sc_mcu7t5v0__nand4_1
*I *1294:A1 I *D gf180mcu_fd_sc_mcu7t5v0__nand2_1
*I *1551:Q O *D gf180mcu_fd_sc_mcu7t5v0__dffrnq_1
*CAP
1 *1228:I 0.000146979
2 *1295:A2 0
3 *1294:A1 0
4 *1551:Q 0.000273105
5 *415:29 0.000865297
6 *415:12 0.000991423
7 *1228:I *1257:I 1.44832e-05
8 *1228:I *1272:A2 5.76373e-06
9 *1228:I *1295:A1 2.6126e-05
10 *1228:I *421:37 2.79476e-05
11 *415:29 *1295:A1 1.97747e-05
12 *415:29 *421:37 6.48407e-05
13 *1267:C *415:29 6.01476e-05
14 *1294:A2 *415:12 4.07337e-05
15 *1294:A2 *415:29 0.000199721
16 *1295:A4 *1228:I 9.51114e-05
17 *1295:A4 *415:29 8.55242e-05
18 *1301:A2 *415:29 0.000192602
19 *1302:A3 *415:29 0
20 *1391:A3 *1228:I 0.000630043
21 *1396:A3 *415:29 0
22 *1448:I *415:29 6.22405e-05
23 *1558:D *415:12 0
24 *1558:D *415:29 0.000467288
25 *1558:RN *415:29 5.89152e-05
26 *1566:CLK *415:29 0.000442157
27 *1609:I *415:12 0.000255714
28 *137:14 *1228:I 0.000441063
29 *157:12 *415:29 0.000197186
30 *201:14 *415:29 0.000151697
31 *299:48 *415:12 9.81205e-05
32 *316:42 *415:29 0.000376901
33 *365:23 *415:29 2.23477e-05
*RES
1 *1551:Q *415:12 15.476 
2 *415:12 *1294:A1 4.5 
3 *415:12 *415:29 17.056 
4 *415:29 *1295:A2 4.5 
5 *415:29 *1228:I 7.084 
*END

*D_NET *416 0.00345249
*CONN
*I *1267:A1 I *D gf180mcu_fd_sc_mcu7t5v0__oai221_1
*I *1295:A1 I *D gf180mcu_fd_sc_mcu7t5v0__nand4_1
*I *1266:A1 I *D gf180mcu_fd_sc_mcu7t5v0__aoi22_1
*I *1299:A1 I *D gf180mcu_fd_sc_mcu7t5v0__xor2_1
*I *1552:Q O *D gf180mcu_fd_sc_mcu7t5v0__dffrnq_1
*CAP
1 *1267:A1 0
2 *1295:A1 0.000113283
3 *1266:A1 0
4 *1299:A1 0.00016035
5 *1552:Q 7.22572e-05
6 *416:28 0.000381813
7 *416:20 0.000356622
8 *1295:A1 *1266:B1 6.00599e-05
9 *1295:A1 *420:30 4.05218e-05
10 *1295:A1 *421:37 0.000129653
11 *416:28 *1266:B1 1.5015e-05
12 *416:28 *420:30 2.89664e-05
13 *1228:I *1295:A1 2.6126e-05
14 *1266:A2 *416:28 0.000255722
15 *1266:B2 *416:28 0.000106097
16 *1267:A2 *416:28 0.000623581
17 *1267:C *416:28 0
18 *1268:A2 *416:20 1.5015e-05
19 *1270:A1 *416:28 2.9536e-05
20 *1273:A2 *1299:A1 0.00032464
21 *1273:A2 *416:20 0.000386421
22 *1551:CLK *416:20 1.15244e-05
23 *1572:I *1295:A1 0
24 *1621:I *1299:A1 9.58397e-05
25 *1621:I *416:20 2.57058e-06
26 *157:12 *416:20 0.000124452
27 *299:35 *416:28 7.2647e-05
28 *415:29 *1295:A1 1.97747e-05
*RES
1 *1552:Q *1299:A1 10.064 
2 *1299:A1 *416:20 5.792 
3 *416:20 *416:28 12.04 
4 *416:28 *1266:A1 4.5 
5 *416:28 *1295:A1 5.64 
6 *416:20 *1267:A1 4.5 
*END

*D_NET *417 0.000947644
*CONN
*I *1227:I I *D gf180mcu_fd_sc_mcu7t5v0__clkinv_1
*I *1269:A1 I *D gf180mcu_fd_sc_mcu7t5v0__xor2_1
*I *1553:Q O *D gf180mcu_fd_sc_mcu7t5v0__dffrnq_1
*CAP
1 *1227:I 0.000155675
2 *1269:A1 0.000209111
3 *1553:Q 0
4 *417:4 0.000364786
5 *1227:I *418:12 8.02751e-06
6 *1471:I *1227:I 5.48085e-05
7 *1471:I *1269:A1 0.000155235
8 *1553:RN *1227:I 0
9 *1553:RN *1269:A1 0
10 *364:20 *1227:I 0
11 *364:20 *1269:A1 0
*RES
1 *1553:Q *417:4 4.5 
2 *417:4 *1269:A1 5.944 
3 *417:4 *1227:I 5.564 
*END

*D_NET *418 0.00699122
*CONN
*I *1249:I I *D gf180mcu_fd_sc_mcu7t5v0__clkinv_1
*I *1403:A1 I *D gf180mcu_fd_sc_mcu7t5v0__nor2_1
*I *1272:C1 I *D gf180mcu_fd_sc_mcu7t5v0__oai222_1
*I *1270:B1 I *D gf180mcu_fd_sc_mcu7t5v0__aoi221_1
*I *1554:Q O *D gf180mcu_fd_sc_mcu7t5v0__dffrnq_1
*CAP
1 *1249:I 8.99497e-05
2 *1403:A1 0
3 *1272:C1 4.78407e-05
4 *1270:B1 0.0001833
5 *1554:Q 0
6 *418:12 0.000879084
7 *418:6 0.000846755
8 *418:4 0.000288761
9 *1249:I *1401:A1 2.57058e-06
10 *1272:C1 *1272:B1 7.3227e-05
11 *418:12 *1257:I 0.000143193
12 *418:12 *1566:D 2.68145e-05
13 *1227:I *418:12 8.02751e-06
14 *1247:I *1270:B1 0.000126956
15 *1247:I *1272:C1 0.00014815
16 *1261:A2 *1270:B1 0.000142176
17 *1267:B1 *1270:B1 0.000320465
18 *1267:B1 *1272:C1 0.00037861
19 *1270:A1 *418:12 1.99986e-05
20 *1270:C *1270:B1 0.000127484
21 *1270:C *418:12 0
22 *1272:C2 *1272:C1 2.49387e-05
23 *1272:C2 *418:12 1.23587e-05
24 *1296:A1 *418:12 1.783e-05
25 *1296:A2 *418:12 4.52251e-05
26 *1297:A2 *418:12 1.76898e-05
27 *1298:A2 *418:12 1.66121e-06
28 *1298:A4 *418:12 0.000131633
29 *1401:A2 *1249:I 0
30 *1401:A2 *418:6 0
31 *1403:A2 *418:12 0.000186796
32 *1404:A4 *1249:I 2.88187e-05
33 *1404:A4 *418:6 0.000376901
34 *1404:A4 *418:12 6.00599e-05
35 *1471:I *418:12 0.00189402
36 *1517:RN *1270:B1 3.33335e-05
37 *1553:D *418:12 3.25336e-05
38 *1554:D *418:6 2.60662e-05
39 *1554:RN *1249:I 0
40 *1554:RN *418:6 0
41 *1572:I *418:12 0
42 *1579:I *418:12 0
43 *1650:I *418:6 0.000140167
44 *204:10 *418:12 1.15275e-05
45 *294:161 *418:12 1.01183e-05
46 *294:171 *418:12 2.84711e-05
47 *364:13 *1270:B1 5.47649e-05
48 *374:27 *1270:B1 2.9378e-06
*RES
1 *1554:Q *418:4 4.5 
2 *418:4 *418:6 1.748 
3 *418:6 *418:12 11.796 
4 *418:12 *1270:B1 11.128 
5 *418:12 *1272:C1 10.216 
6 *418:6 *1403:A1 4.5 
7 *418:4 *1249:I 5.26 
*END

*D_NET *419 0.0109911
*CONN
*I *1392:A1 I *D gf180mcu_fd_sc_mcu7t5v0__nand2_1
*I *1393:A2 I *D gf180mcu_fd_sc_mcu7t5v0__nand3_1
*I *1394:A3 I *D gf180mcu_fd_sc_mcu7t5v0__nand4_1
*I *1265:A2 I *D gf180mcu_fd_sc_mcu7t5v0__xor2_1
*I *1401:A1 I *D gf180mcu_fd_sc_mcu7t5v0__xnor2_1
*I *1555:Q O *D gf180mcu_fd_sc_mcu7t5v0__dffrnq_1
*CAP
1 *1392:A1 0.000168024
2 *1393:A2 0
3 *1394:A3 0
4 *1265:A2 0.000982578
5 *1401:A1 0.000325485
6 *1555:Q 0.000287481
7 *419:29 0.00108055
8 *419:27 0.000100701
9 *419:25 0.000204214
10 *419:10 0.000646425
11 *1265:A2 *1268:B1 0.000121051
12 *1265:A2 *1395:A1 0
13 *1265:A2 *420:30 0.000400831
14 *1265:A2 *421:37 3.36956e-05
15 *1392:A1 *1397:A1 9.17274e-06
16 *1392:A1 *421:8 1.24299e-05
17 *419:10 *420:14 0.000689383
18 *419:25 *420:16 0.00041486
19 *419:27 *420:16 5.4634e-05
20 *419:27 *420:20 3.08902e-05
21 *419:29 *420:20 0.000820269
22 *419:29 *421:37 2.23598e-06
23 *1249:I *1401:A1 2.57058e-06
24 *1267:C *1265:A2 0.000433917
25 *1268:A2 *1265:A2 5.81364e-05
26 *1268:B2 *1265:A2 8.84331e-05
27 *1268:C *1265:A2 0.00026286
28 *1271:A1 *1265:A2 9.57657e-05
29 *1273:A1 *1265:A2 0.000442721
30 *1273:A3 *1265:A2 7.45328e-07
31 *1273:A4 *1265:A2 0.000268315
32 *1302:A3 *1265:A2 1.15275e-05
33 *1391:A2 *1401:A1 0.000324241
34 *1392:A2 *1392:A1 0.000262996
35 *1394:A4 *419:29 0.000144093
36 *1395:A2 *1265:A2 4.22854e-06
37 *1400:A3 *419:10 9.15568e-05
38 *1401:A2 *1401:A1 2.6126e-05
39 *1402:A1 *1401:A1 0
40 *1402:A2 *419:25 0.000391116
41 *1402:A2 *419:27 6.17803e-05
42 *1402:A2 *419:29 0.000379283
43 *1446:I *1392:A1 5.19228e-05
44 *1446:I *1401:A1 0.000124167
45 *1446:I *419:10 5.6986e-05
46 *1555:D *1401:A1 0
47 *1556:D *419:10 2.96621e-05
48 *1557:CLK *419:10 1.3758e-05
49 *1566:CLK *1265:A2 6.73926e-05
50 *1579:I *1401:A1 1.76898e-05
51 *137:14 *1265:A2 0.000269914
52 *137:20 *1265:A2 3.95494e-05
53 *157:12 *1265:A2 0.00028343
54 *299:6 *1265:A2 0.00016061
55 *299:35 *1265:A2 1.2339e-05
56 *301:48 *419:10 0.000128373
57 *315:32 *1392:A1 0
58 *381:27 *1265:A2 0
*RES
1 *1555:Q *419:10 12.192 
2 *419:10 *1401:A1 11.736 
3 *419:10 *419:25 5.64 
4 *419:25 *419:27 0.228 
5 *419:27 *419:29 2.204 
6 *419:29 *1265:A2 23.38 
7 *419:29 *1394:A3 4.5 
8 *419:27 *1393:A2 4.5 
9 *419:25 *1392:A1 14.716 
*END

*D_NET *420 0.0100485
*CONN
*I *1399:A1 I *D gf180mcu_fd_sc_mcu7t5v0__xor2_1
*I *1393:A1 I *D gf180mcu_fd_sc_mcu7t5v0__nand3_1
*I *1394:A2 I *D gf180mcu_fd_sc_mcu7t5v0__nand4_1
*I *1272:B1 I *D gf180mcu_fd_sc_mcu7t5v0__oai222_1
*I *1268:B1 I *D gf180mcu_fd_sc_mcu7t5v0__aoi221_1
*I *1556:Q O *D gf180mcu_fd_sc_mcu7t5v0__dffrnq_1
*CAP
1 *1399:A1 0
2 *1393:A1 3.28034e-05
3 *1394:A2 0
4 *1272:B1 0.000252812
5 *1268:B1 0.000254238
6 *1556:Q 0.000687816
7 *420:30 0.00119463
8 *420:20 0.000858142
9 *420:16 0.000330682
10 *420:14 0.000815137
11 *420:20 *421:21 8.34204e-05
12 *420:30 *421:37 0.000464706
13 *1247:I *1272:B1 0.000255557
14 *1264:A2 *1272:B1 5.69191e-05
15 *1265:A2 *1268:B1 0.000121051
16 *1265:A2 *420:30 0.000400831
17 *1266:A2 *420:30 7.59985e-05
18 *1267:B1 *1272:B1 0.00039118
19 *1268:C *1268:B1 2.88187e-05
20 *1272:C1 *1272:B1 7.3227e-05
21 *1272:C2 *1272:B1 1.03353e-05
22 *1273:A1 *1268:B1 0.000144867
23 *1273:A4 *1272:B1 5.85165e-06
24 *1295:A1 *420:30 4.05218e-05
25 *1392:A2 *420:16 1.88477e-05
26 *1395:A2 *420:30 6.7501e-05
27 *1397:A2 *420:16 1.5015e-05
28 *1397:A2 *420:20 0.000171927
29 *1399:A2 *420:16 6.36589e-05
30 *1402:A1 *420:14 1.34641e-06
31 *1402:A2 *420:16 2.74753e-05
32 *1446:I *420:14 0.00025069
33 *1555:D *420:14 0
34 *1566:CLK *420:30 0.000147313
35 *1572:I *1272:B1 2.69779e-05
36 *1572:I *420:30 0.00018365
37 *137:14 *420:30 0
38 *156:21 *1268:B1 7.98102e-05
39 *156:21 *420:30 3.85754e-05
40 *201:14 *420:30 0
41 *299:6 *420:30 0.000337207
42 *416:28 *420:30 2.89664e-05
43 *419:10 *420:14 0.000689383
44 *419:25 *420:16 0.00041486
45 *419:27 *420:16 5.4634e-05
46 *419:27 *420:20 3.08902e-05
47 *419:29 *420:20 0.000820269
*RES
1 *1556:Q *420:14 19.96 
2 *420:14 *420:16 1.444 
3 *420:16 *420:20 2.432 
4 *420:20 *420:30 15.764 
5 *420:30 *1268:B1 6.552 
6 *420:30 *1272:B1 16.236 
7 *420:20 *1394:A2 4.5 
8 *420:16 *1393:A1 4.728 
9 *420:14 *1399:A1 4.5 
*END

*D_NET *421 0.00791261
*CONN
*I *1394:A1 I *D gf180mcu_fd_sc_mcu7t5v0__nand4_1
*I *1266:B1 I *D gf180mcu_fd_sc_mcu7t5v0__aoi22_1
*I *1272:A2 I *D gf180mcu_fd_sc_mcu7t5v0__oai222_1
*I *1397:A1 I *D gf180mcu_fd_sc_mcu7t5v0__xor2_1
*I *1557:Q O *D gf180mcu_fd_sc_mcu7t5v0__dffrnq_1
*CAP
1 *1394:A1 0
2 *1266:B1 3.31577e-06
3 *1272:A2 5.69196e-05
4 *1397:A1 3.82373e-05
5 *1557:Q 0.000735599
6 *421:37 0.000507469
7 *421:21 0.000582205
8 *421:8 0.000908807
9 *1228:I *1272:A2 5.76373e-06
10 *1228:I *421:37 2.79476e-05
11 *1265:A2 *421:37 3.36956e-05
12 *1266:B2 *1266:B1 3.08902e-05
13 *1266:B2 *1272:A2 0.000417311
14 *1267:C *421:37 4.78829e-05
15 *1272:A1 *1272:A2 0
16 *1295:A1 *1266:B1 6.00599e-05
17 *1295:A1 *421:37 0.000129653
18 *1295:A4 *1272:A2 2.17248e-05
19 *1391:A3 *421:37 0.000857495
20 *1392:A1 *1397:A1 9.17274e-06
21 *1392:A1 *421:8 1.24299e-05
22 *1394:A4 *421:37 2.9378e-06
23 *1396:A2 *421:8 0
24 *1397:A2 *421:21 7.83779e-05
25 *1398:A3 *421:21 0.000111858
26 *1446:I *421:8 0
27 *1447:I *421:8 0
28 *1447:I *421:37 0.000641859
29 *1557:CLK *421:21 1.91917e-06
30 *153:23 *1272:A2 3.08902e-05
31 *315:32 *1397:A1 0.000142801
32 *315:32 *421:8 0.000553434
33 *315:34 *421:21 0
34 *319:29 *421:8 1.99755e-05
35 *319:29 *421:37 0.00062586
36 *368:36 *1272:A2 0.000571762
37 *368:36 *421:37 1.41392e-05
38 *415:29 *421:37 6.48407e-05
39 *416:28 *1266:B1 1.5015e-05
40 *419:29 *421:37 2.23598e-06
41 *420:20 *421:21 8.34204e-05
42 *420:30 *421:37 0.000464706
*RES
1 *1557:Q *421:8 14.7 
2 *421:8 *1397:A1 9.38 
3 *421:8 *421:21 5.64 
4 *421:21 *421:37 24.384 
5 *421:37 *1272:A2 6.324 
6 *421:37 *1266:B1 4.88 
7 *421:21 *1394:A1 4.5 
*END

*D_NET *422 0.000896519
*CONN
*I *1395:A1 I *D gf180mcu_fd_sc_mcu7t5v0__xor2_1
*I *1248:I I *D gf180mcu_fd_sc_mcu7t5v0__clkinv_1
*I *1558:Q O *D gf180mcu_fd_sc_mcu7t5v0__dffrnq_1
*CAP
1 *1395:A1 0.000263461
2 *1248:I 7.06572e-05
3 *1558:Q 0
4 *422:4 0.000334118
5 *1265:A2 *1395:A1 0
6 *1302:A3 *1248:I 4.90452e-05
7 *1302:A3 *1395:A1 4.83079e-05
8 *1395:A2 *1395:A1 3.07734e-05
9 *1396:A3 *1395:A1 5.3266e-05
10 *1551:D *1395:A1 4.00328e-06
11 *1608:I *1395:A1 0
12 *201:14 *1248:I 1.15275e-05
13 *201:14 *1395:A1 3.13603e-05
14 *316:57 *1395:A1 0
*RES
1 *1558:Q *422:4 4.5 
2 *422:4 *1248:I 5.108 
3 *422:4 *1395:A1 6.4 
*END

*D_NET *423 0.00383666
*CONN
*I *1293:A1 I *D gf180mcu_fd_sc_mcu7t5v0__and2_1
*I *1295:A3 I *D gf180mcu_fd_sc_mcu7t5v0__nand4_1
*I *1566:D I *D gf180mcu_fd_sc_mcu7t5v0__dffrnq_1
*I *1565:Q O *D gf180mcu_fd_sc_mcu7t5v0__dffrnq_1
*CAP
1 *1293:A1 0
2 *1295:A3 0.000250977
3 *1566:D 4.14365e-05
4 *1565:Q 0.000541128
5 *423:14 0.000322805
6 *423:12 0.000571519
7 *1295:A3 *1257:I 0
8 *1566:D *1257:I 0.00013405
9 *423:12 *1257:I 6.86579e-05
10 *423:14 *1257:I 0.000238087
11 *1269:A2 *423:12 0.000594335
12 *1293:A2 *1295:A3 1.93308e-05
13 *1295:A4 *1295:A3 8.04139e-05
14 *1553:D *423:12 9.67349e-05
15 *1565:RN *423:12 9.23709e-05
16 *1566:CLK *1295:A3 8.40344e-05
17 *1572:I *1295:A3 1.9339e-05
18 *1579:I *423:14 5.76063e-06
19 *201:14 *1295:A3 0.000313511
20 *294:171 *1566:D 0.000114943
21 *294:171 *423:14 9.27168e-05
22 *364:13 *423:12 2.9378e-06
23 *364:20 *423:12 0.000124754
24 *418:12 *1566:D 2.68145e-05
*RES
1 *1565:Q *423:12 18.364 
2 *423:12 *423:14 0.684 
3 *423:14 *1566:D 5.184 
4 *423:14 *1295:A3 15.628 
5 *423:12 *1293:A1 4.5 
*END

*D_NET *424 0.00305461
*CONN
*I *1257:I I *D gf180mcu_fd_sc_mcu7t5v0__clkinv_1
*I *1566:Q O *D gf180mcu_fd_sc_mcu7t5v0__dffrnq_1
*CAP
1 *1257:I 0.000922509
2 *1566:Q 0.000922509
3 *1228:I *1257:I 1.44832e-05
4 *1269:A2 *1257:I 6.20928e-05
5 *1293:A2 *1257:I 0.000206527
6 *1295:A3 *1257:I 0
7 *1447:I *1257:I 0
8 *1455:I *1257:I 7.24795e-05
9 *1553:D *1257:I 6.04444e-06
10 *1566:D *1257:I 0.00013405
11 *1566:RN *1257:I 0.000105545
12 *1572:I *1257:I 4.19931e-05
13 *1579:I *1257:I 8.61613e-06
14 *137:14 *1257:I 1.93526e-05
15 *166:6 *1257:I 8.04285e-05
16 *201:14 *1257:I 0
17 *298:10 *1257:I 0
18 *298:14 *1257:I 0
19 *316:57 *1257:I 0
20 *376:10 *1257:I 8.03759e-06
21 *418:12 *1257:I 0.000143193
22 *423:12 *1257:I 6.86579e-05
23 *423:14 *1257:I 0.000238087
*RES
1 *1566:Q *1257:I 34.6 
*END

*D_NET *425 0.00767045
*CONN
*I *1426:A3 I *D gf180mcu_fd_sc_mcu7t5v0__nand3_1
*I *1423:A2 I *D gf180mcu_fd_sc_mcu7t5v0__nand2_1
*I *1422:A1 I *D gf180mcu_fd_sc_mcu7t5v0__nor3_1
*I *1278:B1 I *D gf180mcu_fd_sc_mcu7t5v0__oai22_1
*I *1424:A2 I *D gf180mcu_fd_sc_mcu7t5v0__xnor2_1
*I *1508:Q O *D gf180mcu_fd_sc_mcu7t5v0__dffrnq_1
*CAP
1 *1426:A3 0
2 *1423:A2 0
3 *1422:A1 0.00015324
4 *1278:B1 0.000200463
5 *1424:A2 2.96163e-05
6 *1508:Q 0.000342824
7 *425:18 0.000603835
8 *425:14 0.000686409
9 *425:12 0.000256128
10 *425:10 0.000439539
11 *1278:B1 *1278:A2 8.83282e-06
12 *1278:B1 *1424:A1 0.000163165
13 *1424:A2 *1424:A1 0.000179609
14 *425:10 *426:12 8.8425e-05
15 *425:12 *426:12 0.000127047
16 *425:12 *426:14 0.000331102
17 *425:14 *426:14 6.35236e-05
18 *425:14 *426:18 0.00064872
19 *1278:B2 *1278:B1 7.8255e-05
20 *1358:I1 *1278:B1 0.000413632
21 *1358:I1 *1424:A2 0.000379274
22 *1374:A1 *425:18 0.000216477
23 *1481:I *1422:A1 0.000851228
24 *1508:D *1422:A1 0.000329225
25 *1510:D *425:10 4.50189e-05
26 *1641:I *425:18 0
27 *151:10 *425:10 0.000330422
28 *151:12 *425:14 2.47727e-05
29 *151:12 *425:18 0.000286747
30 *352:30 *1422:A1 0.000317494
31 *383:14 *1278:B1 7.54293e-05
*RES
1 *1508:Q *425:10 11.736 
2 *425:10 *425:12 1.14 
3 *425:12 *425:14 1.9 
4 *425:14 *425:18 7.464 
5 *425:18 *1424:A2 5.488 
6 *425:18 *1278:B1 6.78 
7 *425:14 *1422:A1 11.964 
8 *425:12 *1423:A2 9 
9 *425:10 *1426:A3 9 
*END

*D_NET *426 0.0073205
*CONN
*I *1426:A2 I *D gf180mcu_fd_sc_mcu7t5v0__nand3_1
*I *1423:A1 I *D gf180mcu_fd_sc_mcu7t5v0__nand2_1
*I *1278:A2 I *D gf180mcu_fd_sc_mcu7t5v0__oai22_1
*I *1424:A1 I *D gf180mcu_fd_sc_mcu7t5v0__xnor2_1
*I *1277:A2 I *D gf180mcu_fd_sc_mcu7t5v0__nand2_1
*I *1509:Q O *D gf180mcu_fd_sc_mcu7t5v0__dffrnq_1
*CAP
1 *1426:A2 0
2 *1423:A1 0
3 *1278:A2 0.000112461
4 *1424:A1 0.000308338
5 *1277:A2 0
6 *1509:Q 0.000175377
7 *426:29 0.000830206
8 *426:18 0.000422272
9 *426:14 2.36275e-05
10 *426:12 0.00018614
11 *426:12 *1259:I 0
12 *426:29 *1279:B1 5.19098e-05
13 *1242:I *426:29 9.11266e-06
14 *1278:B1 *1278:A2 8.83282e-06
15 *1278:B1 *1424:A1 0.000163165
16 *1278:B2 *1424:A1 0.000711643
17 *1290:A4 *1424:A1 0.000166243
18 *1290:A4 *426:29 9.72053e-05
19 *1358:I1 *1424:A1 1.2018e-05
20 *1424:A2 *1424:A1 0.000179609
21 *1425:A3 *1278:A2 7.83779e-05
22 *1425:A3 *1424:A1 7.79953e-05
23 *1425:A3 *426:29 0.000351087
24 *1481:I *426:29 0.000137319
25 *1508:D *426:29 0.000139515
26 *1508:RN *426:12 4.52224e-05
27 *1508:CLK *426:29 0.000104121
28 *1509:CLK *1278:A2 0.000167017
29 *1510:CLK *426:12 7.83779e-05
30 *151:10 *426:12 0.000215472
31 *151:10 *426:14 0.000394625
32 *151:10 *426:18 0.000553434
33 *151:12 *426:18 8.84331e-05
34 *151:12 *426:29 3.87347e-05
35 *282:8 *426:12 2.11447e-05
36 *313:35 *426:29 1.67943e-05
37 *347:34 *1424:A1 0
38 *347:43 *1424:A1 0
39 *383:14 *1278:A2 9.22456e-05
40 *383:14 *1424:A1 3.60988e-06
41 *425:10 *426:12 8.8425e-05
42 *425:12 *426:12 0.000127047
43 *425:12 *426:14 0.000331102
44 *425:14 *426:14 6.35236e-05
45 *425:14 *426:18 0.00064872
*RES
1 *1509:Q *426:12 10.748 
2 *426:12 *426:14 0.988 
3 *426:14 *426:18 6.096 
4 *426:18 *1277:A2 4.5 
5 *426:18 *426:29 7.844 
6 *426:29 *1424:A1 12.344 
7 *426:29 *1278:A2 10.14 
8 *426:14 *1423:A1 9 
9 *426:12 *1426:A2 9 
*END

*D_NET *427 0.0084397
*CONN
*I *1426:A1 I *D gf180mcu_fd_sc_mcu7t5v0__nand3_1
*I *1259:I I *D gf180mcu_fd_sc_mcu7t5v0__clkinv_1
*I *1279:B1 I *D gf180mcu_fd_sc_mcu7t5v0__oai22_1
*I *1510:Q O *D gf180mcu_fd_sc_mcu7t5v0__dffrnq_1
*CAP
1 *1426:A1 1.61991e-05
2 *1259:I 0.000352121
3 *1279:B1 0.000424932
4 *1510:Q 0.00101916
5 *427:14 0.000802834
6 *427:12 0.00106114
7 *1290:A1 *1279:B1 0.000749693
8 *1290:A2 *1279:B1 7.83779e-05
9 *1422:A3 *1279:B1 2.74753e-05
10 *1425:A1 *1279:B1 0.000252269
11 *1508:D *1259:I 0
12 *1508:CLK *1279:B1 0.000103992
13 *1508:CLK *427:12 5.55653e-05
14 *1508:CLK *427:14 1.6671e-05
15 *1509:RN *1259:I 8.95196e-05
16 *1510:RN *427:12 6.95491e-06
17 *151:10 *1279:B1 0.000687088
18 *151:10 *427:12 0.000613141
19 *151:10 *427:14 0.000117908
20 *151:12 *1279:B1 0.000376331
21 *168:14 *1259:I 0.000238526
22 *282:8 *1259:I 3.60237e-05
23 *282:8 *1426:A1 7.32209e-05
24 *313:35 *1279:B1 0.000409183
25 *335:26 *1279:B1 0.000152965
26 *357:8 *1279:B1 3.18069e-05
27 *357:27 *1279:B1 0.000594688
28 *426:12 *1259:I 0
29 *426:29 *1279:B1 5.19098e-05
*RES
1 *1510:Q *427:12 15.612 
2 *427:12 *427:14 0.38 
3 *427:14 *1279:B1 15.688 
4 *427:14 *1259:I 11.888 
5 *427:12 *1426:A1 9.228 
*END

*D_NET *428 0.00436977
*CONN
*I *1258:I I *D gf180mcu_fd_sc_mcu7t5v0__clkinv_1
*I *1279:A2 I *D gf180mcu_fd_sc_mcu7t5v0__oai22_1
*I *1511:Q O *D gf180mcu_fd_sc_mcu7t5v0__dffrnq_1
*CAP
1 *1258:I 9.11504e-05
2 *1279:A2 0.000660681
3 *1511:Q 0.000213729
4 *428:8 0.000965561
5 *1279:A2 *429:10 0
6 *1279:A2 *429:18 0
7 *428:8 *429:10 0
8 *1240:I *1279:A2 5.94709e-06
9 *1274:B2 *1279:A2 0.000147313
10 *1280:B *1279:A2 0.000217233
11 *1290:A1 *1279:A2 2.05156e-05
12 *1428:A1 *1279:A2 0.000723715
13 *1430:A2 *1279:A2 0.000257276
14 *1466:I *1258:I 0.000111858
15 *1511:D *1279:A2 0.00019722
16 *149:8 *1279:A2 0.000248352
17 *167:8 *1279:A2 0.000128852
18 *167:10 *1279:A2 8.05328e-06
19 *282:21 *1279:A2 0.000372314
*RES
1 *1511:Q *428:8 10.292 
2 *428:8 *1279:A2 16.6 
3 *428:8 *1258:I 9.684 
*END

*D_NET *429 0.00628665
*CONN
*I *1434:A1 I *D gf180mcu_fd_sc_mcu7t5v0__nor2_1
*I *1282:B1 I *D gf180mcu_fd_sc_mcu7t5v0__aoi22_1
*I *1285:B1 I *D gf180mcu_fd_sc_mcu7t5v0__oai22_1
*I *1433:A1 I *D gf180mcu_fd_sc_mcu7t5v0__and2_1
*I *1512:Q O *D gf180mcu_fd_sc_mcu7t5v0__dffrnq_1
*CAP
1 *1434:A1 0
2 *1282:B1 4.06636e-05
3 *1285:B1 0.000131293
4 *1433:A1 0
5 *1512:Q 0.000551792
6 *429:29 0.000419792
7 *429:18 0.000667887
8 *429:10 0.000971844
9 *1240:I *429:18 1.11891e-05
10 *1276:A2 *429:18 4.97386e-06
11 *1276:A2 *429:29 6.63508e-06
12 *1279:A2 *429:10 0
13 *1279:A2 *429:18 0
14 *1282:A1 *1285:B1 0.0003473
15 *1282:B2 *1282:B1 0.000121764
16 *1282:B2 *1285:B1 7.01371e-05
17 *1282:B2 *429:29 8.82632e-05
18 *1283:A1 *429:29 2.05156e-05
19 *1433:A2 *429:18 0.000170075
20 *1435:A1 *429:29 0.000360235
21 *1466:I *429:10 4.71484e-05
22 *1598:I *429:18 0.000199473
23 *147:8 *1285:B1 0.000111727
24 *148:25 *1285:B1 0
25 *189:10 *429:29 2.88466e-05
26 *190:14 *1282:B1 0.000307983
27 *190:14 *1285:B1 3.06951e-05
28 *190:14 *429:29 0.000187314
29 *335:12 *1285:B1 0.000324241
30 *335:12 *429:29 0.000156682
31 *335:20 *429:18 7.83779e-05
32 *335:20 *429:29 0.000829806
33 *428:8 *429:10 0
*RES
1 *1512:Q *429:10 12.648 
2 *429:10 *429:18 7.616 
3 *429:18 *1433:A1 4.5 
4 *429:18 *429:29 3.572 
5 *429:29 *1285:B1 15.856 
6 *429:29 *1282:B1 5.336 
7 *429:10 *1434:A1 9 
*END

*D_NET *430 0.00868732
*CONN
*I *1282:A2 I *D gf180mcu_fd_sc_mcu7t5v0__aoi22_1
*I *1284:B1 I *D gf180mcu_fd_sc_mcu7t5v0__oai22_1
*I *1439:A2 I *D gf180mcu_fd_sc_mcu7t5v0__nand3_1
*I *1436:A1 I *D gf180mcu_fd_sc_mcu7t5v0__nand2_1
*I *1437:A1 I *D gf180mcu_fd_sc_mcu7t5v0__xnor2_1
*I *1513:Q O *D gf180mcu_fd_sc_mcu7t5v0__dffrnq_1
*CAP
1 *1282:A2 2.3925e-05
2 *1284:B1 0.000181524
3 *1439:A2 2.85038e-05
4 *1436:A1 0
5 *1437:A1 0.000104429
6 *1513:Q 0.000129546
7 *430:47 0.000317597
8 *430:36 0.000386617
9 *430:14 0.000227988
10 *430:8 0.000499071
11 *1437:A1 *431:29 0.00010336
12 *1439:A2 *1439:A1 3.73535e-05
13 *430:14 *1439:A1 0.000317373
14 *430:14 *431:25 6.5393e-05
15 *430:14 *431:29 0.000151949
16 *430:36 *1439:A1 0.000478595
17 *430:47 *432:8 8.03759e-06
18 *1282:A1 *1284:B1 4.07675e-05
19 *1436:A2 *1437:A1 0.000172284
20 *1437:A2 *1437:A1 0.000260517
21 *1438:A2 *1437:A1 8.15645e-05
22 *1438:A2 *430:8 3.35674e-05
23 *1438:A2 *430:14 0.000282716
24 *1438:A3 *430:8 6.33531e-06
25 *1439:A3 *430:47 0.000651006
26 *1442:A2 *1284:B1 0.000278996
27 *1442:A2 *430:47 0.00150377
28 *1443:A2 *430:14 0.000134622
29 *1467:I *430:36 3.00299e-05
30 *1469:I *1439:A2 7.45328e-07
31 *1469:I *430:8 0.000103773
32 *1469:I *430:14 3.71904e-05
33 *1469:I *430:36 2.57365e-05
34 *1513:D *430:14 2.23783e-05
35 *1513:D *430:36 5.97012e-05
36 *1513:RN *430:36 0.000422786
37 *1515:RN *430:36 0.000181528
38 *1621:I *1282:A2 8.55242e-05
39 *1640:I *1284:B1 0.000290605
40 *1640:I *1437:A1 2.88187e-05
41 *146:19 *1284:B1 0.000158809
42 *189:10 *1282:A2 0
43 *287:27 *430:47 0.000653285
44 *287:33 *1437:A1 5.76749e-06
45 *336:17 *430:14 7.3227e-05
*RES
1 *1513:Q *430:8 10.14 
2 *430:8 *430:14 6.628 
3 *430:14 *1437:A1 15.172 
4 *430:14 *1436:A1 4.5 
5 *430:8 *430:36 7.92 
6 *430:36 *1439:A2 4.728 
7 *430:36 *430:47 8.376 
8 *430:47 *1284:B1 11.204 
9 *430:47 *1282:A2 9.228 
*END

*D_NET *431 0.0107898
*CONN
*I *1439:A1 I *D gf180mcu_fd_sc_mcu7t5v0__nand3_1
*I *1281:B1 I *D gf180mcu_fd_sc_mcu7t5v0__aoi22_1
*I *1284:A2 I *D gf180mcu_fd_sc_mcu7t5v0__oai22_1
*I *1440:A1 I *D gf180mcu_fd_sc_mcu7t5v0__xor2_1
*I *1514:Q O *D gf180mcu_fd_sc_mcu7t5v0__dffrnq_1
*CAP
1 *1439:A1 0.000560468
2 *1281:B1 0
3 *1284:A2 0.000154431
4 *1440:A1 7.59896e-05
5 *1514:Q 0.000517642
6 *431:29 0.00035759
7 *431:25 0.00097117
8 *431:10 0.000801174
9 *1284:A2 *1281:A2 9.17202e-06
10 *1281:A1 *431:29 0.000151957
11 *1281:B2 *1284:A2 0.00122009
12 *1378:A1 *431:29 0.000279004
13 *1437:A1 *431:29 0.00010336
14 *1438:A1 *1439:A1 6.64069e-05
15 *1438:A2 *431:29 1.47007e-05
16 *1439:A2 *1439:A1 3.73535e-05
17 *1440:A2 *431:25 0.000725285
18 *1441:A1 *1440:A1 0
19 *1441:A1 *431:10 0
20 *1443:A2 *431:25 1.2018e-05
21 *1469:I *431:29 0.000283447
22 *1477:I *431:29 7.90729e-05
23 *1513:D *1439:A1 0.000370849
24 *1513:D *431:29 0.000775767
25 *1514:RN *431:10 1.30476e-05
26 *1515:RN *1439:A1 5.76373e-06
27 *1606:I *431:25 0.000821057
28 *189:10 *1284:A2 0.000880222
29 *314:6 *1439:A1 0.000130795
30 *316:8 *431:10 0
31 *316:25 *431:10 0
32 *316:25 *431:25 0
33 *317:13 *1439:A1 0
34 *336:17 *431:25 4.62917e-05
35 *356:8 *1284:A2 3.83835e-06
36 *381:10 *431:29 0.000308479
37 *430:14 *1439:A1 0.000317373
38 *430:14 *431:25 6.5393e-05
39 *430:14 *431:29 0.000151949
40 *430:36 *1439:A1 0.000478595
*RES
1 *1514:Q *431:10 12.192 
2 *431:10 *1440:A1 9.38 
3 *431:10 *431:25 12.116 
4 *431:25 *431:29 8.68 
5 *431:29 *1284:A2 7.92 
6 *431:29 *1281:B1 4.5 
7 *431:25 *1439:A1 14.548 
*END

*D_NET *432 0.00626134
*CONN
*I *1281:A2 I *D gf180mcu_fd_sc_mcu7t5v0__aoi22_1
*I *1442:A1 I *D gf180mcu_fd_sc_mcu7t5v0__xor2_1
*I *1285:A2 I *D gf180mcu_fd_sc_mcu7t5v0__oai22_1
*I *1289:A2 I *D gf180mcu_fd_sc_mcu7t5v0__oai21_1
*I *1515:Q O *D gf180mcu_fd_sc_mcu7t5v0__dffrnq_1
*CAP
1 *1281:A2 0.000255189
2 *1442:A1 0
3 *1285:A2 0
4 *1289:A2 0.000204646
5 *1515:Q 0.00058746
6 *432:34 0.000270011
7 *432:14 0.000716967
8 *432:8 0.0011146
9 *1236:I *432:14 4.84492e-05
10 *1284:A2 *1281:A2 9.17202e-06
11 *1285:A1 *1289:A2 0
12 *1286:A2 *1289:A2 0.000306486
13 *1287:C *1289:A2 0
14 *1289:A1 *1289:A2 2.88224e-05
15 *1442:A2 *1281:A2 1.02578e-05
16 *1442:A2 *432:8 0.000324316
17 *1442:A2 *432:34 2.22758e-05
18 *1443:A3 *432:8 0.000236296
19 *1484:I *1289:A2 0.000254326
20 *1484:I *432:14 4.83975e-05
21 *1515:D *432:8 0.000594335
22 *1515:CLK *1281:A2 0
23 *1586:I *432:14 4.02833e-05
24 *1600:I *432:8 0
25 *1600:I *432:14 0
26 *1640:I *432:8 0.000141359
27 *1640:I *432:14 0.000260693
28 *145:6 *1289:A2 1.53689e-05
29 *145:6 *432:14 0.000155524
30 *189:10 *1281:A2 0.000396056
31 *189:10 *432:34 8.55327e-05
32 *308:6 *1281:A2 0
33 *308:26 *1281:A2 0
34 *354:23 *432:14 8.91093e-05
35 *356:8 *1281:A2 3.73627e-05
36 *430:47 *432:8 8.03759e-06
*RES
1 *1515:Q *432:8 15.004 
2 *432:8 *432:14 8.756 
3 *432:14 *1289:A2 7.008 
4 *432:14 *1285:A2 4.5 
5 *432:8 *432:34 4.728 
6 *432:34 *1442:A1 4.5 
7 *432:34 *1281:A2 6.704 
*END
