*SPEF "ieee 1481-1999"
*DESIGN "digital_top"
*DATE "11:25:04 Tuesday August 25, 2026"
*VENDOR "The OpenROAD Project"
*PROGRAM "OpenROAD"
*VERSION "26Q1-1024-gdcf36133a"
*DESIGN_FLOW "NAME_SCOPE LOCAL" "PIN_CAP NONE"
*DIVIDER /
*DELIMITER :
*BUS_DELIMITER []
*T_UNIT 1 NS
*C_UNIT 1 PF
*R_UNIT 1 OHM
*L_UNIT 1 HENRY

*NAME_MAP
*3 cap_ctrl[0]
*4 cap_ctrl[1]
*5 cap_ctrl[2]
*6 clk
*7 comp_out
*8 en
*9 scl
*10 sda
*11 trigger_out
*12 _000_
*13 _001_
*14 _002_
*15 _003_
*16 _004_
*17 _005_
*18 _006_
*19 _007_
*20 _008_
*21 _009_
*22 _010_
*23 _011_
*24 _012_
*25 _013_
*26 _014_
*27 _015_
*28 _016_
*29 _017_
*30 _018_
*31 _019_
*32 _020_
*33 _021_
*34 _022_
*35 _023_
*36 _024_
*37 _025_
*38 _026_
*39 _027_
*40 _028_
*41 _029_
*42 _030_
*43 _031_
*44 _032_
*45 _033_
*46 _034_
*47 _035_
*48 _036_
*49 _037_
*50 _038_
*51 _039_
*52 _040_
*53 _041_
*54 _042_
*55 _043_
*56 _044_
*57 _045_
*58 _046_
*59 _047_
*60 _048_
*61 _049_
*62 _050_
*63 _051_
*64 _052_
*65 _053_
*66 _054_
*67 _055_
*68 _056_
*69 _057_
*70 _058_
*71 _059_
*72 _060_
*73 _061_
*74 _062_
*75 _063_
*76 _064_
*77 _065_
*78 _066_
*79 _067_
*80 _068_
*81 _069_
*82 _070_
*83 _071_
*84 _072_
*85 _073_
*86 _074_
*87 _075_
*88 _076_
*89 _077_
*90 _078_
*91 _079_
*92 _080_
*93 _081_
*94 _082_
*95 _083_
*96 _084_
*97 _085_
*98 _086_
*99 _087_
*100 _088_
*101 _089_
*102 _090_
*103 _091_
*104 _092_
*105 _093_
*106 _094_
*107 _095_
*108 _096_
*109 _097_
*110 _098_
*111 _099_
*112 _100_
*113 _101_
*114 _102_
*115 _103_
*116 _104_
*117 _105_
*118 _106_
*119 _107_
*120 _108_
*121 _109_
*122 _110_
*123 _111_
*124 _112_
*125 _113_
*126 _114_
*127 _115_
*128 _116_
*129 _117_
*130 _118_
*131 _119_
*132 _120_
*133 _121_
*134 _122_
*135 _123_
*136 _124_
*137 _125_
*138 _126_
*139 _127_
*140 _128_
*141 _129_
*142 _130_
*143 _131_
*144 _132_
*145 _133_
*146 _134_
*147 _135_
*148 _136_
*149 _137_
*150 _138_
*151 _139_
*152 _140_
*153 _141_
*154 _142_
*155 _143_
*156 _144_
*157 _145_
*158 _146_
*159 _147_
*160 _148_
*161 _149_
*162 _150_
*163 _151_
*164 _152_
*165 _153_
*166 _154_
*167 _155_
*168 _156_
*169 _157_
*170 _158_
*171 _159_
*172 _160_
*173 _161_
*174 _162_
*175 _163_
*176 _164_
*177 _165_
*178 _166_
*179 _167_
*180 _168_
*181 _169_
*182 _170_
*183 _171_
*184 _172_
*185 _173_
*186 _174_
*187 _175_
*188 _176_
*189 _177_
*190 _178_
*191 _179_
*192 _180_
*193 _181_
*194 _182_
*195 _183_
*196 _184_
*197 _185_
*198 _186_
*199 _187_
*200 _188_
*201 _189_
*202 _190_
*203 _191_
*204 _192_
*205 _193_
*206 _194_
*207 _195_
*208 _196_
*209 _197_
*210 _198_
*211 _199_
*212 _200_
*213 _201_
*214 _202_
*215 _203_
*216 _204_
*217 _205_
*218 _206_
*219 _207_
*220 _208_
*221 _209_
*222 _210_
*223 _211_
*224 _212_
*225 _213_
*226 _214_
*227 _215_
*228 _216_
*229 _217_
*230 _218_
*231 _219_
*232 _220_
*233 _221_
*234 _222_
*235 _223_
*236 _224_
*237 _225_
*238 _226_
*239 _227_
*240 _228_
*241 _229_
*242 _230_
*243 _231_
*244 _232_
*245 _233_
*246 _234_
*247 _235_
*248 _236_
*249 _237_
*250 _238_
*251 _239_
*252 _240_
*253 _241_
*254 _242_
*255 _243_
*256 _244_
*257 _245_
*258 _246_
*259 _247_
*260 _248_
*261 _249_
*262 _250_
*263 _251_
*264 _252_
*265 _253_
*266 _254_
*267 _255_
*268 _256_
*269 _257_
*270 _258_
*271 _259_
*272 _260_
*273 _261_
*274 _262_
*275 _263_
*276 _264_
*277 _265_
*278 _266_
*279 _267_
*280 _268_
*281 _269_
*282 _270_
*283 _271_
*284 _272_
*285 _273_
*286 _274_
*287 _275_
*288 _276_
*289 _277_
*290 _278_
*291 _279_
*292 clknet_0_clk
*293 clknet_3_0__leaf_clk
*294 clknet_3_1__leaf_clk
*295 clknet_3_2__leaf_clk
*296 clknet_3_3__leaf_clk
*297 clknet_3_4__leaf_clk
*298 clknet_3_5__leaf_clk
*299 clknet_3_6__leaf_clk
*300 clknet_3_7__leaf_clk
*301 net1
*302 net10
*303 net11
*304 net12
*305 net13
*306 net14
*307 net15
*308 net16
*309 net17
*310 net18
*311 net19
*312 net2
*313 net20
*314 net21
*315 net22
*316 net23
*317 net24
*318 net25
*319 net26
*320 net3
*321 net4
*322 net5
*323 net6
*324 net7
*325 net8
*326 net9
*327 sda_oe_w
*328 threshold_w\[0\]
*329 threshold_w\[1\]
*330 threshold_w\[2\]
*331 threshold_w\[3\]
*332 threshold_w\[4\]
*333 threshold_w\[5\]
*334 threshold_w\[6\]
*335 threshold_w\[7\]
*336 timeout_val_w\[0\]
*337 timeout_val_w\[1\]
*338 timeout_val_w\[2\]
*339 timeout_val_w\[3\]
*340 timeout_val_w\[4\]
*341 timeout_val_w\[5\]
*342 timeout_val_w\[6\]
*343 timeout_val_w\[7\]
*344 u_i2c_config\.bit_cnt\[0\]
*345 u_i2c_config\.bit_cnt\[1\]
*346 u_i2c_config\.bit_cnt\[2\]
*347 u_i2c_config\.bit_cnt\[3\]
*348 u_i2c_config\.parallel_data\[0\]
*349 u_i2c_config\.parallel_data\[1\]
*350 u_i2c_config\.parallel_data\[2\]
*351 u_i2c_config\.parallel_data\[3\]
*352 u_i2c_config\.parallel_data\[4\]
*353 u_i2c_config\.parallel_data\[5\]
*354 u_i2c_config\.parallel_data\[6\]
*355 u_i2c_config\.parallel_data\[7\]
*356 u_i2c_config\.reg_addr\[0\]
*357 u_i2c_config\.reg_addr\[1\]
*358 u_i2c_config\.scl_d1
*359 u_i2c_config\.scl_d2
*360 u_i2c_config\.sda_d1
*361 u_i2c_config\.sda_d2
*362 u_i2c_config\.state\[1\]
*363 u_i2c_config\.state\[2\]
*364 u_i2c_config\.state\[3\]
*365 u_i2c_config\.state\[4\]
*366 u_i2c_config\.state\[5\]
*367 u_i2c_config\.state\[6\]
*368 u_i2c_config\.write_en
*369 u_main_cnt\.count_reg\[0\]
*370 u_main_cnt\.count_reg\[1\]
*371 u_main_cnt\.count_reg\[2\]
*372 u_main_cnt\.count_reg\[3\]
*373 u_main_cnt\.count_reg\[4\]
*374 u_main_cnt\.count_reg\[5\]
*375 u_main_cnt\.count_reg\[6\]
*376 u_main_cnt\.count_reg\[7\]
*377 u_pulse_gen\.signal_d1
*378 u_pulse_gen\.signal_d2
*379 u_timeout_cnt\.timer_count\[0\]
*380 u_timeout_cnt\.timer_count\[1\]
*381 u_timeout_cnt\.timer_count\[2\]
*382 u_timeout_cnt\.timer_count\[3\]
*383 u_timeout_cnt\.timer_count\[4\]
*384 u_timeout_cnt\.timer_count\[5\]
*385 u_timeout_cnt\.timer_count\[6\]
*386 u_timeout_cnt\.timer_count\[7\]
*387 FILLER_0_10
*388 FILLER_0_104
*389 FILLER_0_12
*390 FILLER_0_138
*391 FILLER_0_2
*392 FILLER_0_33
*393 FILLER_0_36
*394 FILLER_0_52
*395 FILLER_0_60
*396 FILLER_0_66
*397 FILLER_0_86
*398 FILLER_10_141
*399 FILLER_10_149
*400 FILLER_10_151
*401 FILLER_10_156
*402 FILLER_10_164
*403 FILLER_10_187
*404 FILLER_10_2
*405 FILLER_10_23
*406 FILLER_10_31
*407 FILLER_10_45
*408 FILLER_10_53
*409 FILLER_10_93
*410 FILLER_11_117
*411 FILLER_11_133
*412 FILLER_11_137
*413 FILLER_11_139
*414 FILLER_11_176
*415 FILLER_11_18
*416 FILLER_11_185
*417 FILLER_11_187
*418 FILLER_11_2
*419 FILLER_11_26
*420 FILLER_11_33
*421 FILLER_11_35
*422 FILLER_11_72
*423 FILLER_11_80
*424 FILLER_12_101
*425 FILLER_12_107
*426 FILLER_12_115
*427 FILLER_12_12
*428 FILLER_12_131
*429 FILLER_12_16
*430 FILLER_12_182
*431 FILLER_12_186
*432 FILLER_12_2
*433 FILLER_12_25
*434 FILLER_12_29
*435 FILLER_12_37
*436 FILLER_12_41
*437 FILLER_12_93
*438 FILLER_13_142
*439 FILLER_13_157
*440 FILLER_13_165
*441 FILLER_13_167
*442 FILLER_13_175
*443 FILLER_13_183
*444 FILLER_13_187
*445 FILLER_13_19
*446 FILLER_13_2
*447 FILLER_13_35
*448 FILLER_13_39
*449 FILLER_13_46
*450 FILLER_13_62
*451 FILLER_13_87
*452 FILLER_13_95
*453 FILLER_13_97
*454 FILLER_14_103
*455 FILLER_14_172
*456 FILLER_14_174
*457 FILLER_14_177
*458 FILLER_14_179
*459 FILLER_14_18
*460 FILLER_14_184
*461 FILLER_14_20
*462 FILLER_14_31
*463 FILLER_14_45
*464 FILLER_14_77
*465 FILLER_14_94
*466 FILLER_15_108
*467 FILLER_15_110
*468 FILLER_15_49
*469 FILLER_15_65
*470 FILLER_16_104
*471 FILLER_16_107
*472 FILLER_16_115
*473 FILLER_16_127
*474 FILLER_16_159
*475 FILLER_16_161
*476 FILLER_16_177
*477 FILLER_16_185
*478 FILLER_16_187
*479 FILLER_16_2
*480 FILLER_16_37
*481 FILLER_16_6
*482 FILLER_16_79
*483 FILLER_16_87
*484 FILLER_16_91
*485 FILLER_16_96
*486 FILLER_17_101
*487 FILLER_17_137
*488 FILLER_17_139
*489 FILLER_17_142
*490 FILLER_17_174
*491 FILLER_17_182
*492 FILLER_17_186
*493 FILLER_17_2
*494 FILLER_17_34
*495 FILLER_17_72
*496 FILLER_17_76
*497 FILLER_17_93
*498 FILLER_18_102
*499 FILLER_18_104
*500 FILLER_18_121
*501 FILLER_18_123
*502 FILLER_18_164
*503 FILLER_18_166
*504 FILLER_18_17
*505 FILLER_18_187
*506 FILLER_18_2
*507 FILLER_18_33
*508 FILLER_18_45
*509 FILLER_18_61
*510 FILLER_18_65
*511 FILLER_18_67
*512 FILLER_19_100
*513 FILLER_19_116
*514 FILLER_19_124
*515 FILLER_19_128
*516 FILLER_19_130
*517 FILLER_19_139
*518 FILLER_19_142
*519 FILLER_19_146
*520 FILLER_19_152
*521 FILLER_19_38
*522 FILLER_19_55
*523 FILLER_19_63
*524 FILLER_19_68
*525 FILLER_19_72
*526 FILLER_19_74
*527 FILLER_19_88
*528 FILLER_1_132
*529 FILLER_1_142
*530 FILLER_1_153
*531 FILLER_1_72
*532 FILLER_1_76
*533 FILLER_1_85
*534 FILLER_1_93
*535 FILLER_20_103
*536 FILLER_20_107
*537 FILLER_20_109
*538 FILLER_20_123
*539 FILLER_20_131
*540 FILLER_20_149
*541 FILLER_20_155
*542 FILLER_20_159
*543 FILLER_20_161
*544 FILLER_20_172
*545 FILLER_20_174
*546 FILLER_20_177
*547 FILLER_20_179
*548 FILLER_20_184
*549 FILLER_20_19
*550 FILLER_20_2
*551 FILLER_20_21
*552 FILLER_20_26
*553 FILLER_20_43
*554 FILLER_20_59
*555 FILLER_20_99
*556 FILLER_21_10
*557 FILLER_21_138
*558 FILLER_21_142
*559 FILLER_21_158
*560 FILLER_21_166
*561 FILLER_21_168
*562 FILLER_21_185
*563 FILLER_21_187
*564 FILLER_21_2
*565 FILLER_21_20
*566 FILLER_21_32
*567 FILLER_21_44
*568 FILLER_21_60
*569 FILLER_21_68
*570 FILLER_21_72
*571 FILLER_22_102
*572 FILLER_22_104
*573 FILLER_22_157
*574 FILLER_22_173
*575 FILLER_22_177
*576 FILLER_22_185
*577 FILLER_22_187
*578 FILLER_22_2
*579 FILLER_22_34
*580 FILLER_22_49
*581 FILLER_22_85
*582 FILLER_22_94
*583 FILLER_23_131
*584 FILLER_23_133
*585 FILLER_23_150
*586 FILLER_23_152
*587 FILLER_23_18
*588 FILLER_23_186
*589 FILLER_23_2
*590 FILLER_23_22
*591 FILLER_23_27
*592 FILLER_23_64
*593 FILLER_23_68
*594 FILLER_23_72
*595 FILLER_23_77
*596 FILLER_23_81
*597 FILLER_23_99
*598 FILLER_24_100
*599 FILLER_24_107
*600 FILLER_24_11
*601 FILLER_24_114
*602 FILLER_24_122
*603 FILLER_24_130
*604 FILLER_24_132
*605 FILLER_24_171
*606 FILLER_24_177
*607 FILLER_24_185
*608 FILLER_24_187
*609 FILLER_24_2
*610 FILLER_24_37
*611 FILLER_24_4
*612 FILLER_24_45
*613 FILLER_24_98
*614 FILLER_25_136
*615 FILLER_25_142
*616 FILLER_25_150
*617 FILLER_25_155
*618 FILLER_25_159
*619 FILLER_25_161
*620 FILLER_25_166
*621 FILLER_25_174
*622 FILLER_25_176
*623 FILLER_25_183
*624 FILLER_25_187
*625 FILLER_25_48
*626 FILLER_25_64
*627 FILLER_25_68
*628 FILLER_25_72
*629 FILLER_25_74
*630 FILLER_25_90
*631 FILLER_26_10
*632 FILLER_26_107
*633 FILLER_26_115
*634 FILLER_26_119
*635 FILLER_26_165
*636 FILLER_26_173
*637 FILLER_26_18
*638 FILLER_26_185
*639 FILLER_26_187
*640 FILLER_26_2
*641 FILLER_26_37
*642 FILLER_26_41
*643 FILLER_26_92
*644 FILLER_26_96
*645 FILLER_27_114
*646 FILLER_27_130
*647 FILLER_27_142
*648 FILLER_27_158
*649 FILLER_27_166
*650 FILLER_27_185
*651 FILLER_27_187
*652 FILLER_27_38
*653 FILLER_27_72
*654 FILLER_27_76
*655 FILLER_27_82
*656 FILLER_28_10
*657 FILLER_28_101
*658 FILLER_28_107
*659 FILLER_28_111
*660 FILLER_28_12
*661 FILLER_28_121
*662 FILLER_28_129
*663 FILLER_28_170
*664 FILLER_28_174
*665 FILLER_28_18
*666 FILLER_28_186
*667 FILLER_28_2
*668 FILLER_28_34
*669 FILLER_28_45
*670 FILLER_28_81
*671 FILLER_28_89
*672 FILLER_28_93
*673 FILLER_28_95
*674 FILLER_29_142
*675 FILLER_29_146
*676 FILLER_29_153
*677 FILLER_29_155
*678 FILLER_29_17
*679 FILLER_29_175
*680 FILLER_29_184
*681 FILLER_29_2
*682 FILLER_29_6
*683 FILLER_29_67
*684 FILLER_29_69
*685 FILLER_29_76
*686 FILLER_29_88
*687 FILLER_2_10
*688 FILLER_2_107
*689 FILLER_2_14
*690 FILLER_2_153
*691 FILLER_2_161
*692 FILLER_2_165
*693 FILLER_2_185
*694 FILLER_2_187
*695 FILLER_2_2
*696 FILLER_2_45
*697 FILLER_2_53
*698 FILLER_2_55
*699 FILLER_30_10
*700 FILLER_30_101
*701 FILLER_30_107
*702 FILLER_30_165
*703 FILLER_30_173
*704 FILLER_30_177
*705 FILLER_30_185
*706 FILLER_30_187
*707 FILLER_30_2
*708 FILLER_30_29
*709 FILLER_30_33
*710 FILLER_30_37
*711 FILLER_30_50
*712 FILLER_30_60
*713 FILLER_30_64
*714 FILLER_30_77
*715 FILLER_31_104
*716 FILLER_31_112
*717 FILLER_31_114
*718 FILLER_31_128
*719 FILLER_31_142
*720 FILLER_31_150
*721 FILLER_31_156
*722 FILLER_31_36
*723 FILLER_31_40
*724 FILLER_31_47
*725 FILLER_31_55
*726 FILLER_31_59
*727 FILLER_31_72
*728 FILLER_32_104
*729 FILLER_32_107
*730 FILLER_32_123
*731 FILLER_32_139
*732 FILLER_32_147
*733 FILLER_32_165
*734 FILLER_32_177
*735 FILLER_32_18
*736 FILLER_32_185
*737 FILLER_32_187
*738 FILLER_32_2
*739 FILLER_32_31
*740 FILLER_32_87
*741 FILLER_32_91
*742 FILLER_32_93
*743 FILLER_33_118
*744 FILLER_33_134
*745 FILLER_33_138
*746 FILLER_33_146
*747 FILLER_33_185
*748 FILLER_33_187
*749 FILLER_33_2
*750 FILLER_33_20
*751 FILLER_33_72
*752 FILLER_33_80
*753 FILLER_34_104
*754 FILLER_34_150
*755 FILLER_34_154
*756 FILLER_34_156
*757 FILLER_34_17
*758 FILLER_34_173
*759 FILLER_34_184
*760 FILLER_34_2
*761 FILLER_34_37
*762 FILLER_34_6
*763 FILLER_35_101
*764 FILLER_35_127
*765 FILLER_35_135
*766 FILLER_35_139
*767 FILLER_35_142
*768 FILLER_35_147
*769 FILLER_35_151
*770 FILLER_35_153
*771 FILLER_35_36
*772 FILLER_35_46
*773 FILLER_35_50
*774 FILLER_35_56
*775 FILLER_35_72
*776 FILLER_35_76
*777 FILLER_35_89
*778 FILLER_35_97
*779 FILLER_36_10
*780 FILLER_36_103
*781 FILLER_36_107
*782 FILLER_36_158
*783 FILLER_36_160
*784 FILLER_36_169
*785 FILLER_36_173
*786 FILLER_36_177
*787 FILLER_36_179
*788 FILLER_36_184
*789 FILLER_36_2
*790 FILLER_36_21
*791 FILLER_36_29
*792 FILLER_36_33
*793 FILLER_36_37
*794 FILLER_36_69
*795 FILLER_36_85
*796 FILLER_36_89
*797 FILLER_37_104
*798 FILLER_37_116
*799 FILLER_37_118
*800 FILLER_37_127
*801 FILLER_37_135
*802 FILLER_37_139
*803 FILLER_37_36
*804 FILLER_37_40
*805 FILLER_37_55
*806 FILLER_37_63
*807 FILLER_37_65
*808 FILLER_37_72
*809 FILLER_38_107
*810 FILLER_38_115
*811 FILLER_38_14
*812 FILLER_38_153
*813 FILLER_38_161
*814 FILLER_38_177
*815 FILLER_38_179
*816 FILLER_38_184
*817 FILLER_38_2
*818 FILLER_38_30
*819 FILLER_38_34
*820 FILLER_38_52
*821 FILLER_38_54
*822 FILLER_38_79
*823 FILLER_38_83
*824 FILLER_38_85
*825 FILLER_38_90
*826 FILLER_38_92
*827 FILLER_38_97
*828 FILLER_39_114
*829 FILLER_39_116
*830 FILLER_39_129
*831 FILLER_39_137
*832 FILLER_39_139
*833 FILLER_39_150
*834 FILLER_39_19
*835 FILLER_39_2
*836 FILLER_39_6
*837 FILLER_3_104
*838 FILLER_3_108
*839 FILLER_3_142
*840 FILLER_3_68
*841 FILLER_3_72
*842 FILLER_3_74
*843 FILLER_3_89
*844 FILLER_3_93
*845 FILLER_3_99
*846 FILLER_40_177
*847 FILLER_40_18
*848 FILLER_40_185
*849 FILLER_40_187
*850 FILLER_40_22
*851 FILLER_40_28
*852 FILLER_40_32
*853 FILLER_40_34
*854 FILLER_40_79
*855 FILLER_40_95
*856 FILLER_41_111
*857 FILLER_41_119
*858 FILLER_41_125
*859 FILLER_41_133
*860 FILLER_41_137
*861 FILLER_41_139
*862 FILLER_41_146
*863 FILLER_41_154
*864 FILLER_41_156
*865 FILLER_41_161
*866 FILLER_41_177
*867 FILLER_41_18
*868 FILLER_41_185
*869 FILLER_41_187
*870 FILLER_41_2
*871 FILLER_41_26
*872 FILLER_41_30
*873 FILLER_41_32
*874 FILLER_41_67
*875 FILLER_41_69
*876 FILLER_41_72
*877 FILLER_41_76
*878 FILLER_42_104
*879 FILLER_42_138
*880 FILLER_42_172
*881 FILLER_42_2
*882 FILLER_42_36
*883 FILLER_42_52
*884 FILLER_42_56
*885 FILLER_42_61
*886 FILLER_42_65
*887 FILLER_42_67
*888 FILLER_42_70
*889 FILLER_4_107
*890 FILLER_4_138
*891 FILLER_4_148
*892 FILLER_4_150
*893 FILLER_4_159
*894 FILLER_4_177
*895 FILLER_4_18
*896 FILLER_4_182
*897 FILLER_4_186
*898 FILLER_4_2
*899 FILLER_4_20
*900 FILLER_4_47
*901 FILLER_4_51
*902 FILLER_5_146
*903 FILLER_5_148
*904 FILLER_5_187
*905 FILLER_5_40
*906 FILLER_5_56
*907 FILLER_6_111
*908 FILLER_6_169
*909 FILLER_6_173
*910 FILLER_6_187
*911 FILLER_6_19
*912 FILLER_6_2
*913 FILLER_6_28
*914 FILLER_6_32
*915 FILLER_6_34
*916 FILLER_6_37
*917 FILLER_6_39
*918 FILLER_7_101
*919 FILLER_7_109
*920 FILLER_7_162
*921 FILLER_7_178
*922 FILLER_7_186
*923 FILLER_7_36
*924 FILLER_7_43
*925 FILLER_7_61
*926 FILLER_7_66
*927 FILLER_7_72
*928 FILLER_7_80
*929 FILLER_7_85
*930 FILLER_8_104
*931 FILLER_8_122
*932 FILLER_8_15
*933 FILLER_8_164
*934 FILLER_8_172
*935 FILLER_8_174
*936 FILLER_8_181
*937 FILLER_8_185
*938 FILLER_8_187
*939 FILLER_8_2
*940 FILLER_8_31
*941 FILLER_8_37
*942 FILLER_8_6
*943 FILLER_8_72
*944 FILLER_9_114
*945 FILLER_9_134
*946 FILLER_9_138
*947 FILLER_9_142
*948 FILLER_9_150
*949 FILLER_9_164
*950 FILLER_9_166
*951 FILLER_9_172
*952 FILLER_9_2
*953 FILLER_9_20
*954 FILLER_9_28
*955 FILLER_9_4
*956 FILLER_9_48
*957 FILLER_9_57
*958 FILLER_9_65
*959 FILLER_9_69
*960 FILLER_9_72
*961 FILLER_9_76
*962 PHY_EDGE_ROW_0_Left_43
*963 PHY_EDGE_ROW_0_Right_0
*964 PHY_EDGE_ROW_10_Left_53
*965 PHY_EDGE_ROW_10_Right_10
*966 PHY_EDGE_ROW_11_Left_54
*967 PHY_EDGE_ROW_11_Right_11
*968 PHY_EDGE_ROW_12_Left_55
*969 PHY_EDGE_ROW_12_Right_12
*970 PHY_EDGE_ROW_13_Left_56
*971 PHY_EDGE_ROW_13_Right_13
*972 PHY_EDGE_ROW_14_Left_57
*973 PHY_EDGE_ROW_14_Right_14
*974 PHY_EDGE_ROW_15_Left_58
*975 PHY_EDGE_ROW_15_Right_15
*976 PHY_EDGE_ROW_16_Left_59
*977 PHY_EDGE_ROW_16_Right_16
*978 PHY_EDGE_ROW_17_Left_60
*979 PHY_EDGE_ROW_17_Right_17
*980 PHY_EDGE_ROW_18_Left_61
*981 PHY_EDGE_ROW_18_Right_18
*982 PHY_EDGE_ROW_19_Left_62
*983 PHY_EDGE_ROW_19_Right_19
*984 PHY_EDGE_ROW_1_Left_44
*985 PHY_EDGE_ROW_1_Right_1
*986 PHY_EDGE_ROW_20_Left_63
*987 PHY_EDGE_ROW_20_Right_20
*988 PHY_EDGE_ROW_21_Left_64
*989 PHY_EDGE_ROW_21_Right_21
*990 PHY_EDGE_ROW_22_Left_65
*991 PHY_EDGE_ROW_22_Right_22
*992 PHY_EDGE_ROW_23_Left_66
*993 PHY_EDGE_ROW_23_Right_23
*994 PHY_EDGE_ROW_24_Left_67
*995 PHY_EDGE_ROW_24_Right_24
*996 PHY_EDGE_ROW_25_Left_68
*997 PHY_EDGE_ROW_25_Right_25
*998 PHY_EDGE_ROW_26_Left_69
*999 PHY_EDGE_ROW_26_Right_26
*1000 PHY_EDGE_ROW_27_Left_70
*1001 PHY_EDGE_ROW_27_Right_27
*1002 PHY_EDGE_ROW_28_Left_71
*1003 PHY_EDGE_ROW_28_Right_28
*1004 PHY_EDGE_ROW_29_Left_72
*1005 PHY_EDGE_ROW_29_Right_29
*1006 PHY_EDGE_ROW_2_Left_45
*1007 PHY_EDGE_ROW_2_Right_2
*1008 PHY_EDGE_ROW_30_Left_73
*1009 PHY_EDGE_ROW_30_Right_30
*1010 PHY_EDGE_ROW_31_Left_74
*1011 PHY_EDGE_ROW_31_Right_31
*1012 PHY_EDGE_ROW_32_Left_75
*1013 PHY_EDGE_ROW_32_Right_32
*1014 PHY_EDGE_ROW_33_Left_76
*1015 PHY_EDGE_ROW_33_Right_33
*1016 PHY_EDGE_ROW_34_Left_77
*1017 PHY_EDGE_ROW_34_Right_34
*1018 PHY_EDGE_ROW_35_Left_78
*1019 PHY_EDGE_ROW_35_Right_35
*1020 PHY_EDGE_ROW_36_Left_79
*1021 PHY_EDGE_ROW_36_Right_36
*1022 PHY_EDGE_ROW_37_Left_80
*1023 PHY_EDGE_ROW_37_Right_37
*1024 PHY_EDGE_ROW_38_Left_81
*1025 PHY_EDGE_ROW_38_Right_38
*1026 PHY_EDGE_ROW_39_Left_82
*1027 PHY_EDGE_ROW_39_Right_39
*1028 PHY_EDGE_ROW_3_Left_46
*1029 PHY_EDGE_ROW_3_Right_3
*1030 PHY_EDGE_ROW_40_Left_83
*1031 PHY_EDGE_ROW_40_Right_40
*1032 PHY_EDGE_ROW_41_Left_84
*1033 PHY_EDGE_ROW_41_Right_41
*1034 PHY_EDGE_ROW_42_Left_85
*1035 PHY_EDGE_ROW_42_Right_42
*1036 PHY_EDGE_ROW_4_Left_47
*1037 PHY_EDGE_ROW_4_Right_4
*1038 PHY_EDGE_ROW_5_Left_48
*1039 PHY_EDGE_ROW_5_Right_5
*1040 PHY_EDGE_ROW_6_Left_49
*1041 PHY_EDGE_ROW_6_Right_6
*1042 PHY_EDGE_ROW_7_Left_50
*1043 PHY_EDGE_ROW_7_Right_7
*1044 PHY_EDGE_ROW_8_Left_51
*1045 PHY_EDGE_ROW_8_Right_8
*1046 PHY_EDGE_ROW_9_Left_52
*1047 PHY_EDGE_ROW_9_Right_9
*1048 TAP_TAPCELL_ROW_0_86
*1049 TAP_TAPCELL_ROW_0_87
*1050 TAP_TAPCELL_ROW_0_88
*1051 TAP_TAPCELL_ROW_0_89
*1052 TAP_TAPCELL_ROW_0_90
*1053 TAP_TAPCELL_ROW_10_113
*1054 TAP_TAPCELL_ROW_10_114
*1055 TAP_TAPCELL_ROW_10_115
*1056 TAP_TAPCELL_ROW_11_116
*1057 TAP_TAPCELL_ROW_11_117
*1058 TAP_TAPCELL_ROW_12_118
*1059 TAP_TAPCELL_ROW_12_119
*1060 TAP_TAPCELL_ROW_12_120
*1061 TAP_TAPCELL_ROW_13_121
*1062 TAP_TAPCELL_ROW_13_122
*1063 TAP_TAPCELL_ROW_14_123
*1064 TAP_TAPCELL_ROW_14_124
*1065 TAP_TAPCELL_ROW_14_125
*1066 TAP_TAPCELL_ROW_15_126
*1067 TAP_TAPCELL_ROW_15_127
*1068 TAP_TAPCELL_ROW_16_128
*1069 TAP_TAPCELL_ROW_16_129
*1070 TAP_TAPCELL_ROW_16_130
*1071 TAP_TAPCELL_ROW_17_131
*1072 TAP_TAPCELL_ROW_17_132
*1073 TAP_TAPCELL_ROW_18_133
*1074 TAP_TAPCELL_ROW_18_134
*1075 TAP_TAPCELL_ROW_18_135
*1076 TAP_TAPCELL_ROW_19_136
*1077 TAP_TAPCELL_ROW_19_137
*1078 TAP_TAPCELL_ROW_1_91
*1079 TAP_TAPCELL_ROW_1_92
*1080 TAP_TAPCELL_ROW_20_138
*1081 TAP_TAPCELL_ROW_20_139
*1082 TAP_TAPCELL_ROW_20_140
*1083 TAP_TAPCELL_ROW_21_141
*1084 TAP_TAPCELL_ROW_21_142
*1085 TAP_TAPCELL_ROW_22_143
*1086 TAP_TAPCELL_ROW_22_144
*1087 TAP_TAPCELL_ROW_22_145
*1088 TAP_TAPCELL_ROW_23_146
*1089 TAP_TAPCELL_ROW_23_147
*1090 TAP_TAPCELL_ROW_24_148
*1091 TAP_TAPCELL_ROW_24_149
*1092 TAP_TAPCELL_ROW_24_150
*1093 TAP_TAPCELL_ROW_25_151
*1094 TAP_TAPCELL_ROW_25_152
*1095 TAP_TAPCELL_ROW_26_153
*1096 TAP_TAPCELL_ROW_26_154
*1097 TAP_TAPCELL_ROW_26_155
*1098 TAP_TAPCELL_ROW_27_156
*1099 TAP_TAPCELL_ROW_27_157
*1100 TAP_TAPCELL_ROW_28_158
*1101 TAP_TAPCELL_ROW_28_159
*1102 TAP_TAPCELL_ROW_28_160
*1103 TAP_TAPCELL_ROW_29_161
*1104 TAP_TAPCELL_ROW_29_162
*1105 TAP_TAPCELL_ROW_2_93
*1106 TAP_TAPCELL_ROW_2_94
*1107 TAP_TAPCELL_ROW_2_95
*1108 TAP_TAPCELL_ROW_30_163
*1109 TAP_TAPCELL_ROW_30_164
*1110 TAP_TAPCELL_ROW_30_165
*1111 TAP_TAPCELL_ROW_31_166
*1112 TAP_TAPCELL_ROW_31_167
*1113 TAP_TAPCELL_ROW_32_168
*1114 TAP_TAPCELL_ROW_32_169
*1115 TAP_TAPCELL_ROW_32_170
*1116 TAP_TAPCELL_ROW_33_171
*1117 TAP_TAPCELL_ROW_33_172
*1118 TAP_TAPCELL_ROW_34_173
*1119 TAP_TAPCELL_ROW_34_174
*1120 TAP_TAPCELL_ROW_34_175
*1121 TAP_TAPCELL_ROW_35_176
*1122 TAP_TAPCELL_ROW_35_177
*1123 TAP_TAPCELL_ROW_36_178
*1124 TAP_TAPCELL_ROW_36_179
*1125 TAP_TAPCELL_ROW_36_180
*1126 TAP_TAPCELL_ROW_37_181
*1127 TAP_TAPCELL_ROW_37_182
*1128 TAP_TAPCELL_ROW_38_183
*1129 TAP_TAPCELL_ROW_38_184
*1130 TAP_TAPCELL_ROW_38_185
*1131 TAP_TAPCELL_ROW_39_186
*1132 TAP_TAPCELL_ROW_39_187
*1133 TAP_TAPCELL_ROW_3_96
*1134 TAP_TAPCELL_ROW_3_97
*1135 TAP_TAPCELL_ROW_40_188
*1136 TAP_TAPCELL_ROW_40_189
*1137 TAP_TAPCELL_ROW_40_190
*1138 TAP_TAPCELL_ROW_41_191
*1139 TAP_TAPCELL_ROW_41_192
*1140 TAP_TAPCELL_ROW_42_193
*1141 TAP_TAPCELL_ROW_42_194
*1142 TAP_TAPCELL_ROW_42_195
*1143 TAP_TAPCELL_ROW_42_196
*1144 TAP_TAPCELL_ROW_42_197
*1145 TAP_TAPCELL_ROW_4_100
*1146 TAP_TAPCELL_ROW_4_98
*1147 TAP_TAPCELL_ROW_4_99
*1148 TAP_TAPCELL_ROW_5_101
*1149 TAP_TAPCELL_ROW_5_102
*1150 TAP_TAPCELL_ROW_6_103
*1151 TAP_TAPCELL_ROW_6_104
*1152 TAP_TAPCELL_ROW_6_105
*1153 TAP_TAPCELL_ROW_7_106
*1154 TAP_TAPCELL_ROW_7_107
*1155 TAP_TAPCELL_ROW_8_108
*1156 TAP_TAPCELL_ROW_8_109
*1157 TAP_TAPCELL_ROW_8_110
*1158 TAP_TAPCELL_ROW_9_111
*1159 TAP_TAPCELL_ROW_9_112
*1160 _280_
*1161 _281_
*1162 _282_
*1163 _283_
*1164 _284_
*1165 _285_
*1166 _286_
*1167 _287_
*1168 _288_
*1169 _289_
*1170 _290_
*1171 _291_
*1172 _292_
*1173 _293_
*1174 _294_
*1175 _295_
*1176 _296_
*1177 _297_
*1178 _298_
*1179 _299_
*1180 _300_
*1181 _301_
*1182 _302_
*1183 _303_
*1184 _304_
*1185 _305_
*1186 _306_
*1187 _307_
*1188 _308_
*1189 _309_
*1190 _310_
*1191 _311_
*1192 _312_
*1193 _313_
*1194 _314_
*1195 _315_
*1196 _316_
*1197 _317_
*1198 _318_
*1199 _319_
*1200 _320_
*1201 _321_
*1202 _322_
*1203 _323_
*1204 _324_
*1205 _325_
*1206 _326_
*1207 _327_
*1208 _328_
*1209 _329_
*1210 _330_
*1211 _331_
*1212 _332_
*1213 _333_
*1214 _334_
*1215 _335_
*1216 _336_
*1217 _337_
*1218 _338_
*1219 _339_
*1220 _340_
*1221 _341_
*1222 _342_
*1223 _343_
*1224 _344_
*1225 _345_
*1226 _346_
*1227 _347_
*1228 _348_
*1229 _349_
*1230 _350_
*1231 _351_
*1232 _352_
*1233 _353_
*1234 _354_
*1235 _355_
*1236 _356_
*1237 _357_
*1238 _358_
*1239 _359_
*1240 _360_
*1241 _361_
*1242 _362_
*1243 _363_
*1244 _364_
*1245 _365_
*1246 _366_
*1247 _367_
*1248 _368_
*1249 _369_
*1250 _370_
*1251 _371_
*1252 _372_
*1253 _373_
*1254 _374_
*1255 _375_
*1256 _376_
*1257 _377_
*1258 _378_
*1259 _379_
*1260 _380_
*1261 _381_
*1262 _382_
*1263 _383_
*1264 _384_
*1265 _385_
*1266 _386_
*1267 _387_
*1268 _388_
*1269 _389_
*1270 _390_
*1271 _391_
*1272 _392_
*1273 _393_
*1274 _394_
*1275 _395_
*1276 _396_
*1277 _397_
*1278 _398_
*1279 _399_
*1280 _400_
*1281 _401_
*1282 _402_
*1283 _403_
*1284 _404_
*1285 _405_
*1286 _406_
*1287 _407_
*1288 _408_
*1289 _409_
*1290 _410_
*1291 _411_
*1292 _412_
*1293 _413_
*1294 _414_
*1295 _415_
*1296 _416_
*1297 _417_
*1298 _418_
*1299 _419_
*1300 _420_
*1301 _421_
*1302 _422_
*1303 _423_
*1304 _424_
*1305 _425_
*1306 _426_
*1307 _427_
*1308 _428_
*1309 _429_
*1310 _430_
*1311 _431_
*1312 _432_
*1313 _433_
*1314 _434_
*1315 _435_
*1316 _436_
*1317 _437_
*1318 _438_
*1319 _439_
*1320 _440_
*1321 _441_
*1322 _442_
*1323 _443_
*1324 _444_
*1325 _445_
*1326 _446_
*1327 _447_
*1328 _448_
*1329 _449_
*1330 _450_
*1331 _451_
*1332 _452_
*1333 _453_
*1334 _454_
*1335 _455_
*1336 _456_
*1337 _457_
*1338 _458_
*1339 _459_
*1340 _460_
*1341 _461_
*1342 _462_
*1343 _463_
*1344 _464_
*1345 _465_
*1346 _466_
*1347 _467_
*1348 _468_
*1349 _469_
*1350 _470_
*1351 _471_
*1352 _472_
*1353 _473_
*1354 _474_
*1355 _475_
*1356 _476_
*1357 _477_
*1358 _478_
*1359 _479_
*1360 _480_
*1361 _481_
*1362 _482_
*1363 _483_
*1364 _484_
*1365 _485_
*1366 _486_
*1367 _487_
*1368 _488_
*1369 _489_
*1370 _490_
*1371 _491_
*1372 _492_
*1373 _493_
*1374 _494_
*1375 _495_
*1376 _496_
*1377 _497_
*1378 _498_
*1379 _499_
*1380 _500_
*1381 _501_
*1382 _502_
*1383 _503_
*1384 _504_
*1385 _505_
*1386 _506_
*1387 _507_
*1388 _508_
*1389 _509_
*1390 _510_
*1391 _511_
*1392 _512_
*1393 _513_
*1394 _514_
*1395 _515_
*1396 _516_
*1397 _517_
*1398 _518_
*1399 _519_
*1400 _520_
*1401 _521_
*1402 _522_
*1403 _523_
*1404 _524_
*1405 _525_
*1406 _526_
*1407 _527_
*1408 _528_
*1409 _529_
*1410 _530_
*1411 _531_
*1412 _532_
*1413 _533_
*1414 _534_
*1415 _535_
*1416 _536_
*1417 _537_
*1418 _538_
*1419 _539_
*1420 _540_
*1421 _541_
*1422 _542_
*1423 _543_
*1424 _544_
*1425 _545_
*1426 _546_
*1427 _547_
*1428 _548_
*1429 _549_
*1430 _550_
*1431 _551_
*1432 _552_
*1433 _553_
*1434 _554_
*1435 _555_
*1436 _556_
*1437 _557_
*1438 _558_
*1439 _559_
*1440 _560_
*1441 _561_
*1442 _562_
*1443 _563_
*1444 _564_
*1445 _565_
*1446 _566_
*1447 _567_
*1448 _568_
*1449 _569_
*1450 _570_
*1451 _571_
*1452 _572_
*1453 _573_
*1454 _574_
*1455 _575_
*1456 _576_
*1457 _577_
*1458 _578_
*1459 _579_
*1460 _580_
*1461 _581_
*1462 _582_
*1463 _583_
*1464 _584_
*1465 _585_
*1466 _586_
*1467 _587_
*1468 _588_
*1469 _589_
*1470 _590_
*1471 _591_
*1472 _592_
*1473 _593_
*1474 _594_
*1475 _595_
*1476 _596_
*1477 _597_
*1478 _598_
*1479 _599_
*1480 _600_
*1481 _601_
*1482 _602_
*1483 _603_
*1484 _604_
*1485 _605_
*1486 _606_
*1487 _607_
*1488 _608_
*1489 _609_
*1490 _610_
*1491 _611_
*1492 _612_
*1493 _613_
*1494 _614_
*1495 _615_
*1496 _616_
*1497 _617_
*1498 _618_
*1499 _619_
*1500 _620_
*1501 _621_
*1502 _622_
*1503 _623_
*1504 _624_
*1505 clkbuf_0_clk
*1506 clkbuf_3_0__f_clk
*1507 clkbuf_3_1__f_clk
*1508 clkbuf_3_2__f_clk
*1509 clkbuf_3_3__f_clk
*1510 clkbuf_3_4__f_clk
*1511 clkbuf_3_5__f_clk
*1512 clkbuf_3_6__f_clk
*1513 clkbuf_3_7__f_clk
*1514 clkload0
*1515 clkload1
*1516 clkload2
*1517 clkload3
*1518 clkload4
*1519 clkload5
*1520 fanout13
*1521 fanout14
*1522 fanout15
*1523 fanout16
*1524 fanout18
*1525 fanout19
*1526 fanout20
*1527 fanout21
*1528 fanout22
*1529 fanout23
*1530 fanout24
*1531 fanout25
*1532 fanout26
*1533 fanout8
*1534 fanout9
*1535 input1
*1536 input2
*1537 input3
*1538 load_slew10
*1539 max_cap11
*1540 max_cap12
*1541 output4
*1542 output5
*1543 output6
*1544 output7
*1545 wire17

*PORTS
cap_ctrl[0] O
cap_ctrl[1] O
cap_ctrl[2] O
clk I
comp_out I
en I
scl I
sda I
trigger_out O

*D_NET *3 0.00196391
*CONN
*P cap_ctrl[0] O
*I *1541:Z O *D gf180mcu_fd_sc_mcu7t5v0__dlyb_1
*CAP
1 cap_ctrl[0] 0.000866398
2 *1541:Z 0.000866398
3 cap_ctrl[0] *1419:I 0
4 cap_ctrl[0] *1541:I 0.000231111
*RES
1 *1541:Z cap_ctrl[0] 12.04 
*END

*D_NET *4 0.00171778
*CONN
*P cap_ctrl[1] O
*I *1542:Z O *D gf180mcu_fd_sc_mcu7t5v0__dlyb_1
*CAP
1 cap_ctrl[1] 0.000858891
2 *1542:Z 0.000858891
3 cap_ctrl[1] *1542:I 0
*RES
1 *1542:Z cap_ctrl[1] 11.624 
*END

*D_NET *5 0.00171778
*CONN
*P cap_ctrl[2] O
*I *1543:Z O *D gf180mcu_fd_sc_mcu7t5v0__dlyb_1
*CAP
1 cap_ctrl[2] 0.000858891
2 *1543:Z 0.000858891
*RES
1 *1543:Z cap_ctrl[2] 11.624 
*END

*D_NET *6 0.00478162
*CONN
*P clk I
*I *1505:I I *D gf180mcu_fd_sc_mcu7t5v0__clkbuf_16
*CAP
1 clk 0.00161067
2 *1505:I 0.00161067
3 *1505:I *1225:B1 0.000618661
4 *1505:I *1398:I 0
5 *1505:I *1429:I 0.000165807
6 *1505:I *141:8 0.000179953
7 *1505:I *141:10 0.000289333
8 *1505:I *283:12 0.000268756
9 *1505:I *317:27 0
10 *1505:I *326:12 3.7763e-05
*RES
1 clk *1505:I 25.5434 
*END

*D_NET *7 0.0017438
*CONN
*P comp_out I
*I *1535:I I *D gf180mcu_fd_sc_mcu7t5v0__dlyb_1
*CAP
1 comp_out 0.000871901
2 *1535:I 0.000871901
*RES
1 comp_out *1535:I 11.832 
*END

*D_NET *8 0.00172828
*CONN
*P en I
*I *1536:I I *D gf180mcu_fd_sc_mcu7t5v0__dlyb_1
*CAP
1 en 0.000517293
2 *1536:I 0.000517293
3 *1536:I *1497:D 8.55685e-05
4 *1536:I *1497:CLK 0.000491544
5 *1536:I *293:30 3.55699e-06
6 *1536:I *293:39 0.000113027
*RES
1 en *1536:I 13.94 
*END

*D_NET *9 0.00150999
*CONN
*P scl I
*I *1537:I I *D gf180mcu_fd_sc_mcu7t5v0__dlyb_1
*CAP
1 scl 0.000504617
2 *1537:I 0.000504617
3 *1537:I *1249:B 0.000500761
*RES
1 scl *1537:I 13.732 
*END

*D_NET *10 0.00597132
*CONN
*P sda I
*I *1503:D I *D gf180mcu_fd_sc_mcu7t5v0__dffsnq_1
*I *1164:I I *D gf180mcu_fd_sc_mcu7t5v0__clkinv_1
*I *1545:Z O *D gf180mcu_fd_sc_mcu7t5v0__buf_3
*CAP
1 sda 0.000532711
2 *1503:D 0
3 *1164:I 0
4 *1545:Z 0.000975804
5 *10:19 0.000672538
6 *10:12 0.00111563
7 sda *218:33 3.50983e-05
8 sda *219:10 3.17817e-05
9 *10:12 *1503:SETN 0
10 *10:12 *297:10 0.000932991
11 *10:12 *297:18 0.00136847
12 *10:12 *360:8 2.35354e-05
13 *10:19 *218:33 0.000171329
14 *10:19 *219:10 0.000111425
*RES
1 *1545:Z *10:12 22.444 
2 *10:12 *1164:I 4.5 
3 *10:12 *10:19 1.768 
4 *10:19 *1503:D 4.5 
5 *10:19 sda 9.232 
*END

*D_NET *11 0.000912053
*CONN
*P trigger_out O
*I *1544:Z O *D gf180mcu_fd_sc_mcu7t5v0__dlyb_1
*CAP
1 trigger_out 0.000456027
2 *1544:Z 0.000456027
*RES
1 *1544:Z trigger_out 12.796 
*END

*D_NET *12 0.00108467
*CONN
*I *1492:D I *D gf180mcu_fd_sc_mcu7t5v0__dffrnq_1
*I *1354:ZN O *D gf180mcu_fd_sc_mcu7t5v0__nand2_1
*CAP
1 *1492:D 0.000170024
2 *1354:ZN 0.000170024
3 *1492:D *1354:A2 0.000458125
4 *1492:D *270:22 0.000286495
*RES
1 *1354:ZN *1492:D 12.016 
*END

*D_NET *13 0.00165448
*CONN
*I *1493:D I *D gf180mcu_fd_sc_mcu7t5v0__dffrnq_1
*I *1352:ZN O *D gf180mcu_fd_sc_mcu7t5v0__nand2_1
*CAP
1 *1493:D 0.00036547
2 *1352:ZN 0.00036547
3 *1493:D *1266:A2 0
4 *1493:D *1267:A2 0.000169099
5 *1493:D *1270:A1 0.000169099
6 *1493:D *1271:A2 5.47431e-06
7 *1493:D *1271:C 5.11148e-05
8 *1493:D *1272:A2 0.000117701
9 *1493:D *1493:CLK 7.87395e-06
10 *1493:D *327:29 3.3698e-05
11 *1493:D *327:67 0.000369476
*RES
1 *1352:ZN *1493:D 13.368 
*END

*D_NET *14 0.00224128
*CONN
*I *1494:D I *D gf180mcu_fd_sc_mcu7t5v0__dffrnq_1
*I *1348:ZN O *D gf180mcu_fd_sc_mcu7t5v0__nand2_1
*CAP
1 *1494:D 0.000107315
2 *1348:ZN 0.000107315
3 *1494:D *1348:A2 0.00111763
4 *1494:D *1349:A1 7.0656e-05
5 *1494:D *1353:A2 0.000113016
6 *1494:D *294:12 4.67771e-06
7 *1494:D *366:45 0.000720662
*RES
1 *1348:ZN *1494:D 12.016 
*END

*D_NET *15 0.00181481
*CONN
*I *1495:D I *D gf180mcu_fd_sc_mcu7t5v0__dffrnq_1
*I *1343:ZN O *D gf180mcu_fd_sc_mcu7t5v0__oai32_1
*CAP
1 *1495:D 0.000352047
2 *1343:ZN 0.000352047
3 *1495:D *1187:I 2.62781e-05
4 *1495:D *1343:A2 0
5 *1495:D *1343:B1 0.000457697
6 *1495:D *235:6 1.60338e-05
7 *1495:D *270:22 0.0004162
8 *1495:D *359:8 0
9 *1495:D *365:14 0.000194511
*RES
1 *1343:ZN *1495:D 13.056 
*END

*D_NET *16 0.000945018
*CONN
*I *1496:D I *D gf180mcu_fd_sc_mcu7t5v0__dffrnq_1
*I *1342:ZN O *D gf180mcu_fd_sc_mcu7t5v0__oai22_1
*CAP
1 *1496:D 0.000185594
2 *1342:ZN 0.000185594
3 *1496:D *1341:A1 4.18157e-05
4 *1496:D *1341:B2 4.18157e-05
5 *1496:D *301:12 0.000490198
*RES
1 *1342:ZN *1496:D 28.664 
*END

*D_NET *17 0.00277408
*CONN
*I *1497:D I *D gf180mcu_fd_sc_mcu7t5v0__dffrnq_1
*I *1341:ZN O *D gf180mcu_fd_sc_mcu7t5v0__oai22_1
*CAP
1 *1497:D 0.000944018
2 *1341:ZN 0.000944018
3 *1497:D *1383:I 4.03094e-05
4 *1497:D *1493:RN 1.38123e-05
5 *1497:D *1497:CLK 8.3298e-05
6 *1497:D *1532:I 0
7 *1497:D *293:30 0.000312719
8 *1497:D *293:39 1.96905e-05
9 *1497:D *310:32 4.67028e-06
10 *1497:D *310:36 9.70075e-05
11 *1497:D *319:30 0.000228967
12 *1536:I *1497:D 8.55685e-05
*RES
1 *1341:ZN *1497:D 26.424 
*END

*D_NET *18 0.0019433
*CONN
*I *1501:D I *D gf180mcu_fd_sc_mcu7t5v0__dffrnq_1
*I *1345:Z O *D gf180mcu_fd_sc_mcu7t5v0__and2_1
*CAP
1 *1501:D 0.000509536
2 *1345:Z 0.000509536
3 *1501:D *1477:CLK 0
4 *1501:D *237:8 0
5 *1501:D *293:18 0.00038862
6 *1501:D *293:22 1.65042e-05
7 *1501:D *310:47 0.000267898
8 *1501:D *310:88 0.000238835
9 *1501:D *366:12 1.23742e-05
*RES
1 *1345:Z *1501:D 22.992 
*END

*D_NET *19 0.0015557
*CONN
*I *1441:D I *D gf180mcu_fd_sc_mcu7t5v0__dffrnq_1
*I *1355:ZN O *D gf180mcu_fd_sc_mcu7t5v0__nor3_1
*CAP
1 *1441:D 0.000508868
2 *1355:ZN 0.000508868
3 *1441:D *1302:A1 8.6099e-05
4 *1441:D *1395:I 0
5 *1441:D *1441:CLK 0.000129211
6 *1441:D *1442:D 0.000103788
7 *1441:D *1522:I 0.000106953
8 *1441:D *296:6 7.63249e-05
9 *1441:D *296:19 0
10 *1441:D *351:10 3.55894e-05
*RES
1 *1355:ZN *1441:D 22.576 
*END

*D_NET *20 0.00288886
*CONN
*I *1442:D I *D gf180mcu_fd_sc_mcu7t5v0__dffrnq_1
*I *1358:ZN O *D gf180mcu_fd_sc_mcu7t5v0__nor3_1
*CAP
1 *1442:D 0.000443024
2 *1358:ZN 0.000443024
3 *1442:D *1355:A1 6.25252e-05
4 *1442:D *1355:A2 0.000948481
5 *1442:D *1426:I 2.2517e-05
6 *1442:D *1522:I 1.60428e-05
7 *1442:D *296:6 0.000341651
8 *1442:D *296:19 0.000346468
9 *1442:D *306:119 0.00016066
10 *1442:D *314:6 6.8199e-07
11 *1441:D *1442:D 0.000103788
*RES
1 *1358:ZN *1442:D 23.512 
*END

*D_NET *21 0.00062221
*CONN
*I *1443:D I *D gf180mcu_fd_sc_mcu7t5v0__dffrnq_1
*I *1362:ZN O *D gf180mcu_fd_sc_mcu7t5v0__nor3_1
*CAP
1 *1443:D 0.000284482
2 *1362:ZN 0.000284482
3 *1443:D *199:86 2.62817e-05
4 *1443:D *296:44 6.8199e-07
5 *1443:D *296:51 2.62817e-05
*RES
1 *1362:ZN *1443:D 11.08 
*END

*D_NET *22 0.000963358
*CONN
*I *1444:D I *D gf180mcu_fd_sc_mcu7t5v0__dffrnq_1
*I *1365:ZN O *D gf180mcu_fd_sc_mcu7t5v0__nor4_1
*CAP
1 *1444:D 0.00017625
2 *1365:ZN 0.00017625
3 *1444:D *199:76 7.87395e-06
4 *1444:D *326:14 7.992e-05
5 *1444:D *341:10 0.000194511
6 *1444:D *341:25 0.000328552
*RES
1 *1365:ZN *1444:D 11.08 
*END

*D_NET *23 0.000852957
*CONN
*I *1445:D I *D gf180mcu_fd_sc_mcu7t5v0__dffrnq_1
*I *1368:ZN O *D gf180mcu_fd_sc_mcu7t5v0__nor4_1
*CAP
1 *1445:D 0.000130086
2 *1368:ZN 0.000130086
3 *1445:D *1368:A1 0.000419276
4 *1445:D *1368:A3 9.41125e-05
5 *1445:D *1530:I 7.93961e-05
*RES
1 *1368:ZN *1445:D 19.664 
*END

*D_NET *24 0.00114975
*CONN
*I *1446:D I *D gf180mcu_fd_sc_mcu7t5v0__dffrnq_1
*I *1371:ZN O *D gf180mcu_fd_sc_mcu7t5v0__nor3_1
*CAP
1 *1446:D 0.000368629
2 *1371:ZN 0.000368629
3 *1446:D *1371:A1 0.000114701
4 *1446:D *1371:A3 5.61634e-05
5 *1446:D *1439:I 7.25256e-05
6 *1446:D *1447:CLK 0
7 *1446:D *1484:RN 0.000169099
*RES
1 *1371:ZN *1446:D 12.432 
*END

*D_NET *25 0.000603379
*CONN
*I *1447:D I *D gf180mcu_fd_sc_mcu7t5v0__dffrnq_1
*I *1374:ZN O *D gf180mcu_fd_sc_mcu7t5v0__nor3_1
*CAP
1 *1447:D 0.000211908
2 *1374:ZN 0.000211908
3 *1447:D *1370:A2 0.000156319
4 *1447:D *1374:A3 0
5 *1447:D *199:45 2.3245e-05
*RES
1 *1374:ZN *1447:D 10.872 
*END

*D_NET *26 0.000592445
*CONN
*I *1448:D I *D gf180mcu_fd_sc_mcu7t5v0__dffrnq_1
*I *1376:ZN O *D gf180mcu_fd_sc_mcu7t5v0__nor3_1
*CAP
1 *1448:D 0.000161069
2 *1376:ZN 0.000161069
3 *1448:D *199:53 6.69436e-05
4 *1448:D *325:23 0.000203364
*RES
1 *1376:ZN *1448:D 10.872 
*END

*D_NET *27 0.00215625
*CONN
*I *1487:RN I *D gf180mcu_fd_sc_mcu7t5v0__dffrnq_1
*I *1377:S I *D gf180mcu_fd_sc_mcu7t5v0__mux2_2
*I *1193:ZN O *D gf180mcu_fd_sc_mcu7t5v0__clkinv_1
*CAP
1 *1487:RN 0.000354776
2 *1377:S 0.000155819
3 *1193:ZN 0.000141125
4 *27:10 0.000651719
5 *1377:S *1480:D 0
6 *1377:S *259:10 0
7 *1487:RN *1337:A4 0
8 *1487:RN *1388:I 0.000736031
9 *1487:RN *1480:D 0
10 *1487:RN *259:10 0
11 *27:10 *1336:A1 2.98389e-05
12 *27:10 *1337:A4 8.14679e-05
13 *27:10 *1388:I 5.47431e-06
*RES
1 *1193:ZN *27:10 10.248 
2 *27:10 *1377:S 9.936 
3 *27:10 *1487:RN 12.12 
*END

*D_NET *28 0.00176001
*CONN
*I *1488:RN I *D gf180mcu_fd_sc_mcu7t5v0__dffrnq_1
*I *1378:ZN O *D gf180mcu_fd_sc_mcu7t5v0__clkinv_1
*CAP
1 *1488:RN 0.000103925
2 *1378:ZN 0.000103925
3 *1488:RN *302:43 0.000663752
4 *1488:RN *316:51 8.02494e-05
5 *1488:RN *325:55 0.000221689
6 *1488:RN *325:61 0.00058647
*RES
1 *1378:ZN *1488:RN 11.704 
*END

*D_NET *29 0.000431229
*CONN
*I *1489:RN I *D gf180mcu_fd_sc_mcu7t5v0__dffrnq_1
*I *1379:ZN O *D gf180mcu_fd_sc_mcu7t5v0__clkinv_1
*CAP
1 *1489:RN 6.12886e-05
2 *1379:ZN 6.12886e-05
3 *1489:RN *1332:A1 9.00616e-05
4 *1489:RN *315:71 0.000185622
5 *1489:RN *374:27 3.29691e-05
*RES
1 *1379:ZN *1489:RN 19.56 
*END

*D_NET *30 0.000894082
*CONN
*I *1490:RN I *D gf180mcu_fd_sc_mcu7t5v0__dffrnq_1
*I *1380:ZN O *D gf180mcu_fd_sc_mcu7t5v0__clkinv_1
*CAP
1 *1490:RN 0.000138779
2 *1380:ZN 0.000138779
3 *1490:RN *1202:A2 0
4 *1490:RN *1205:C1 0.000113016
5 *1490:RN *372:36 0.000500772
6 *1490:RN *375:6 2.73715e-06
*RES
1 *1380:ZN *1490:RN 10.56 
*END

*D_NET *31 0.000834322
*CONN
*I *1491:RN I *D gf180mcu_fd_sc_mcu7t5v0__dffrnq_1
*I *1381:ZN O *D gf180mcu_fd_sc_mcu7t5v0__clkinv_1
*CAP
1 *1491:RN 0.00011495
2 *1381:ZN 0.00011495
3 *1491:RN *1198:A1 0
4 *1491:RN *315:65 0.000591484
5 *1491:RN *376:6 1.29379e-05
*RES
1 *1381:ZN *1491:RN 10.56 
*END

*D_NET *32 0.000251006
*CONN
*I *1492:RN I *D gf180mcu_fd_sc_mcu7t5v0__dffrnq_1
*I *1382:ZN O *D gf180mcu_fd_sc_mcu7t5v0__clkinv_1
*CAP
1 *1492:RN 0.000125503
2 *1382:ZN 0.000125503
3 *1492:RN *1345:A2 0
*RES
1 *1382:ZN *1492:RN 9.728 
*END

*D_NET *33 0.00503153
*CONN
*I *1493:RN I *D gf180mcu_fd_sc_mcu7t5v0__dffrnq_1
*I *1383:ZN O *D gf180mcu_fd_sc_mcu7t5v0__clkinv_1
*CAP
1 *1493:RN 0.00185055
2 *1383:ZN 0.00185055
3 *1493:RN *1186:I 0.000144482
4 *1493:RN *1338:A2 0
5 *1493:RN *1341:B2 3.64364e-05
6 *1493:RN *1342:A1 0
7 *1493:RN *1342:B2 3.26924e-06
8 *1493:RN *1465:CLK 0.000127293
9 *1493:RN *1497:RN 0
10 *1493:RN *268:14 0.00011184
11 *1493:RN *301:10 0.000125283
12 *1493:RN *310:32 0
13 *1493:RN *319:6 0.000569953
14 *1493:RN *319:30 0
15 *1493:RN *319:62 0.000122244
16 *1493:RN *363:8 2.63437e-05
17 *1493:RN *363:31 4.94729e-05
18 *1493:RN *366:35 0
19 *1497:D *1493:RN 1.38123e-05
*RES
1 *1383:ZN *1493:RN 32.456 
*END

*D_NET *34 0.00132782
*CONN
*I *1494:RN I *D gf180mcu_fd_sc_mcu7t5v0__dffrnq_1
*I *1384:ZN O *D gf180mcu_fd_sc_mcu7t5v0__clkinv_1
*CAP
1 *1494:RN 0.000269212
2 *1384:ZN 0.000269212
3 *1494:RN *1469:D 9.168e-05
4 *1494:RN *1469:CLK 0.00067298
5 *1494:RN *207:25 2.47364e-05
6 *1494:RN *364:10 0
*RES
1 *1384:ZN *1494:RN 12.432 
*END

*D_NET *35 0.00127898
*CONN
*I *1495:RN I *D gf180mcu_fd_sc_mcu7t5v0__dffrnq_1
*I *1385:ZN O *D gf180mcu_fd_sc_mcu7t5v0__clkinv_1
*CAP
1 *1495:RN 0.000235978
2 *1385:ZN 0.000235978
3 *1495:RN *1288:I1 0
4 *1495:RN *1385:I 0.000807021
*RES
1 *1385:ZN *1495:RN 11.496 
*END

*D_NET *36 0.000721399
*CONN
*I *1496:RN I *D gf180mcu_fd_sc_mcu7t5v0__dffrnq_1
*I *1386:ZN O *D gf180mcu_fd_sc_mcu7t5v0__clkinv_1
*CAP
1 *1496:RN 0.000175987
2 *1386:ZN 0.000175987
3 *1496:RN *1477:CLK 0.000118797
4 *1496:RN *293:22 8.75131e-05
5 *1496:RN *293:24 8.23267e-05
6 *1496:RN *310:47 8.07883e-05
*RES
1 *1386:ZN *1496:RN 19.872 
*END

*D_NET *37 0.000900616
*CONN
*I *1497:RN I *D gf180mcu_fd_sc_mcu7t5v0__dffrnq_1
*I *1387:ZN O *D gf180mcu_fd_sc_mcu7t5v0__clkinv_1
*CAP
1 *1497:RN 0.000384593
2 *1387:ZN 0.000384593
3 *1497:RN *1383:I 5.90026e-05
4 *1497:RN *1532:I 7.24282e-05
5 *1493:RN *1497:RN 0
*RES
1 *1387:ZN *1497:RN 21.12 
*END

*D_NET *38 0.000410637
*CONN
*I *1498:RN I *D gf180mcu_fd_sc_mcu7t5v0__dffrnq_1
*I *1388:ZN O *D gf180mcu_fd_sc_mcu7t5v0__clkinv_1
*CAP
1 *1498:RN 7.25679e-05
2 *1388:ZN 7.25679e-05
3 *1498:RN *1388:I 0.000265501
*RES
1 *1388:ZN *1498:RN 9.728 
*END

*D_NET *39 0.0007218
*CONN
*I *1499:RN I *D gf180mcu_fd_sc_mcu7t5v0__dffrnq_1
*I *1389:ZN O *D gf180mcu_fd_sc_mcu7t5v0__clkinv_1
*CAP
1 *1499:RN 0.000291613
2 *1389:ZN 0.000291613
3 *1499:RN *1190:I 4.09568e-05
4 *1499:RN *1389:I 9.7618e-05
*RES
1 *1389:ZN *1499:RN 11.288 
*END

*D_NET *40 0.000684207
*CONN
*I *1500:SETN I *D gf180mcu_fd_sc_mcu7t5v0__dffsnq_1
*I *1390:ZN O *D gf180mcu_fd_sc_mcu7t5v0__clkinv_1
*CAP
1 *1500:SETN 0.000248782
2 *1390:ZN 0.000248782
3 *1500:SETN *1183:I 9.09749e-05
4 *1500:SETN *1268:A2 6.41721e-05
5 *1500:SETN *297:61 3.14958e-05
*RES
1 *1390:ZN *1500:SETN 11.392 
*END

*D_NET *41 0.00144264
*CONN
*I *1501:RN I *D gf180mcu_fd_sc_mcu7t5v0__dffrnq_1
*I *1391:ZN O *D gf180mcu_fd_sc_mcu7t5v0__clkinv_1
*CAP
1 *1501:RN 0.000424788
2 *1391:ZN 0.000424788
3 *1501:RN *1274:A1 9.49418e-06
4 *1501:RN *1506:I 0.000101081
5 *1501:RN *237:34 0.000399013
6 *1501:RN *349:12 8.34797e-05
*RES
1 *1391:ZN *1501:RN 13.264 
*END

*D_NET *42 0.000577633
*CONN
*I *1502:SETN I *D gf180mcu_fd_sc_mcu7t5v0__dffsnq_1
*I *1392:ZN O *D gf180mcu_fd_sc_mcu7t5v0__clkinv_1
*CAP
1 *1502:SETN 0.000217972
2 *1392:ZN 0.000217972
3 *1502:SETN *1339:A1 0
4 *1502:SETN *1339:A2 0
5 *1502:SETN *1392:I 7.17602e-05
6 *1502:SETN *269:16 6.99285e-05
*RES
1 *1392:ZN *1502:SETN 10.872 
*END

*D_NET *43 0.00208672
*CONN
*I *1503:SETN I *D gf180mcu_fd_sc_mcu7t5v0__dffsnq_1
*I *1393:ZN O *D gf180mcu_fd_sc_mcu7t5v0__clkinv_1
*CAP
1 *1503:SETN 0.000646855
2 *1393:ZN 0.000646855
3 *1503:SETN *1254:A2 3.55663e-05
4 *1503:SETN *1339:A2 3.34656e-05
5 *1503:SETN *1531:I 0.000137474
6 *1503:SETN *220:10 0.000586499
7 *10:12 *1503:SETN 0
*RES
1 *1393:ZN *1503:SETN 24.24 
*END

*D_NET *44 0.00101561
*CONN
*I *1504:SETN I *D gf180mcu_fd_sc_mcu7t5v0__dffsnq_1
*I *1394:ZN O *D gf180mcu_fd_sc_mcu7t5v0__clkinv_1
*CAP
1 *1504:SETN 0.000173075
2 *1394:ZN 0.000173075
3 *1504:SETN *217:12 7.0656e-05
4 *1504:SETN *269:32 0.000413506
5 *1504:SETN *311:14 0.000185295
*RES
1 *1394:ZN *1504:SETN 11.184 
*END

*D_NET *45 0.00132653
*CONN
*I *1441:RN I *D gf180mcu_fd_sc_mcu7t5v0__dffrnq_1
*I *1395:ZN O *D gf180mcu_fd_sc_mcu7t5v0__clkinv_1
*CAP
1 *1441:RN 0.000513686
2 *1395:ZN 0.000513686
3 *1441:RN *1211:B1 0.000116566
4 *1441:RN *1357:A1 0
5 *1441:RN *1442:RN 4.9065e-05
6 *1441:RN *306:119 8.23891e-06
7 *1441:RN *379:12 0.000125283
8 *1441:RN *380:8 0
9 *1441:RN *380:47 0
*RES
1 *1395:ZN *1441:RN 22.368 
*END

*D_NET *46 0.00209491
*CONN
*I *1442:RN I *D gf180mcu_fd_sc_mcu7t5v0__dffrnq_1
*I *1396:ZN O *D gf180mcu_fd_sc_mcu7t5v0__clkinv_1
*CAP
1 *1442:RN 0.000566504
2 *1396:ZN 0.000566504
3 *1442:RN *1211:B1 5.73478e-05
4 *1442:RN *1357:A1 0.000546793
5 *1442:RN *1358:A3 0.000148865
6 *1442:RN *296:44 0.00012524
7 *1442:RN *306:119 0
8 *1442:RN *314:29 3.4596e-05
9 *1441:RN *1442:RN 4.9065e-05
*RES
1 *1396:ZN *1442:RN 23.616 
*END

*D_NET *47 0.00103326
*CONN
*I *1443:RN I *D gf180mcu_fd_sc_mcu7t5v0__dffrnq_1
*I *1397:ZN O *D gf180mcu_fd_sc_mcu7t5v0__clkinv_1
*CAP
1 *1443:RN 6.83055e-05
2 *1397:ZN 6.83055e-05
3 *1443:RN *1220:A1 0.000566888
4 *1443:RN *1397:I 0.000256274
5 *1443:RN *165:6 7.34857e-05
*RES
1 *1397:ZN *1443:RN 10.56 
*END

*D_NET *48 0.000410637
*CONN
*I *1444:RN I *D gf180mcu_fd_sc_mcu7t5v0__dffrnq_1
*I *1398:ZN O *D gf180mcu_fd_sc_mcu7t5v0__clkinv_1
*CAP
1 *1444:RN 7.25679e-05
2 *1398:ZN 7.25679e-05
3 *1444:RN *1220:A1 0.000265501
4 *1444:RN *1225:B1 0
*RES
1 *1398:ZN *1444:RN 9.728 
*END

*D_NET *49 0.000445538
*CONN
*I *1445:RN I *D gf180mcu_fd_sc_mcu7t5v0__dffrnq_1
*I *1399:ZN O *D gf180mcu_fd_sc_mcu7t5v0__clkinv_1
*CAP
1 *1445:RN 0.0001611
2 *1399:ZN 0.0001611
3 *1445:RN *1372:A3 3.55894e-05
4 *1445:RN *1399:I 0
5 *1445:RN *383:8 8.77474e-05
*RES
1 *1399:ZN *1445:RN 19.56 
*END

*D_NET *50 0.00326361
*CONN
*I *1446:RN I *D gf180mcu_fd_sc_mcu7t5v0__dffrnq_1
*I *1400:ZN O *D gf180mcu_fd_sc_mcu7t5v0__clkinv_1
*CAP
1 *1446:RN 0.000588712
2 *1400:ZN 0.000588712
3 *1446:RN *1369:A1 0.00013415
4 *1446:RN *1370:A1 0.000176362
5 *1446:RN *1373:A1 0.000419265
6 *1446:RN *1374:A3 0.00035533
7 *1446:RN *199:45 2.39167e-05
8 *1446:RN *199:47 6.41721e-05
9 *1446:RN *285:27 4.81384e-05
10 *1446:RN *317:96 3.18309e-05
11 *1446:RN *317:98 0.000833024
*RES
1 *1400:ZN *1446:RN 25.28 
*END

*D_NET *51 0.000922443
*CONN
*I *1447:RN I *D gf180mcu_fd_sc_mcu7t5v0__dffrnq_1
*I *1401:ZN O *D gf180mcu_fd_sc_mcu7t5v0__clkinv_1
*CAP
1 *1447:RN 5.60757e-05
2 *1401:ZN 5.60757e-05
3 *1447:RN *1401:I 0.000582256
4 *1447:RN *385:27 0.000228035
*RES
1 *1401:ZN *1447:RN 10.56 
*END

*D_NET *52 0.000570268
*CONN
*I *1448:RN I *D gf180mcu_fd_sc_mcu7t5v0__dffrnq_1
*I *1402:ZN O *D gf180mcu_fd_sc_mcu7t5v0__clkinv_1
*CAP
1 *1448:RN 1.96327e-05
2 *1402:ZN 1.96327e-05
3 *1448:RN *1375:A2 0.000265501
4 *1448:RN *1402:I 0.000265501
*RES
1 *1402:ZN *1448:RN 9.728 
*END

*D_NET *53 0.000802929
*CONN
*I *1449:SETN I *D gf180mcu_fd_sc_mcu7t5v0__dffsnq_1
*I *1403:ZN O *D gf180mcu_fd_sc_mcu7t5v0__clkinv_1
*CAP
1 *1449:SETN 0.000187218
2 *1403:ZN 0.000187218
3 *1449:SETN *1287:S 0
4 *1449:SETN *1319:B 0.000428493
*RES
1 *1403:ZN *1449:SETN 10.872 
*END

*D_NET *54 0.000410637
*CONN
*I *1450:RN I *D gf180mcu_fd_sc_mcu7t5v0__dffrnq_1
*I *1404:ZN O *D gf180mcu_fd_sc_mcu7t5v0__clkinv_1
*CAP
1 *1450:RN 7.25679e-05
2 *1404:ZN 7.25679e-05
3 *1450:RN *318:94 0.000265501
*RES
1 *1404:ZN *1450:RN 9.728 
*END

*D_NET *55 0.000347982
*CONN
*I *1451:SETN I *D gf180mcu_fd_sc_mcu7t5v0__dffsnq_1
*I *1405:ZN O *D gf180mcu_fd_sc_mcu7t5v0__clkinv_1
*CAP
1 *1451:SETN 0.000173991
2 *1405:ZN 0.000173991
3 *1451:SETN *1471:D 0
*RES
1 *1405:ZN *1451:SETN 10.144 
*END

*D_NET *56 0.000602353
*CONN
*I *1452:RN I *D gf180mcu_fd_sc_mcu7t5v0__dffrnq_1
*I *1406:ZN O *D gf180mcu_fd_sc_mcu7t5v0__clkinv_1
*CAP
1 *1452:RN 0.000187876
2 *1406:ZN 0.000187876
3 *1452:RN *1408:I 0.0001133
4 *1452:RN *352:60 0.0001133
*RES
1 *1406:ZN *1452:RN 10.872 
*END

*D_NET *57 0.00234356
*CONN
*I *1453:RN I *D gf180mcu_fd_sc_mcu7t5v0__dffrnq_1
*I *1407:ZN O *D gf180mcu_fd_sc_mcu7t5v0__clkinv_1
*CAP
1 *1453:RN 0.000242376
2 *1407:ZN 0.000242376
3 *1453:RN *1198:A1 6.6131e-05
4 *1453:RN *1300:A1 0.00043289
5 *1453:RN *1407:I 0.00026464
6 *1453:RN *292:66 0.000163234
7 *1453:RN *305:62 0.000340424
8 *1453:RN *352:60 0.000591484
*RES
1 *1407:ZN *1453:RN 13.784 
*END

*D_NET *58 0.00114009
*CONN
*I *1454:RN I *D gf180mcu_fd_sc_mcu7t5v0__dffrnq_1
*I *1408:ZN O *D gf180mcu_fd_sc_mcu7t5v0__clkinv_1
*CAP
1 *1454:RN 0.000315053
2 *1408:ZN 0.000315053
3 *1454:RN *305:62 0
4 *1454:RN *352:60 0.000509988
*RES
1 *1408:ZN *1454:RN 12.12 
*END

*D_NET *59 0.00076295
*CONN
*I *1455:RN I *D gf180mcu_fd_sc_mcu7t5v0__dffrnq_1
*I *1409:ZN O *D gf180mcu_fd_sc_mcu7t5v0__clkinv_1
*CAP
1 *1455:RN 0.000132627
2 *1409:ZN 0.000132627
3 *1455:RN *1313:A2 0
4 *1455:RN *141:29 0.000497696
*RES
1 *1409:ZN *1455:RN 10.352 
*END

*D_NET *60 0.000923139
*CONN
*I *1456:RN I *D gf180mcu_fd_sc_mcu7t5v0__dffrnq_1
*I *1410:ZN O *D gf180mcu_fd_sc_mcu7t5v0__clkinv_1
*CAP
1 *1456:RN 0.000442416
2 *1410:ZN 0.000442416
3 *1456:RN *1321:A1 0
4 *1456:RN *299:6 5.63044e-06
5 *1456:RN *299:14 3.26763e-05
*RES
1 *1410:ZN *1456:RN 11.912 
*END

*D_NET *61 0.00186538
*CONN
*I *1457:RN I *D gf180mcu_fd_sc_mcu7t5v0__dffrnq_1
*I *1411:ZN O *D gf180mcu_fd_sc_mcu7t5v0__clkinv_1
*CAP
1 *1457:RN 0.000557739
2 *1411:ZN 0.000557739
3 *1457:RN *1176:I 7.16472e-05
4 *1457:RN *1211:B2 5.37445e-05
5 *1457:RN *1303:A1 3.48215e-05
6 *1457:RN *1303:A2 0.000176038
7 *1457:RN *1309:A1 1.61847e-05
8 *1457:RN *1460:D 0.000164907
9 *1457:RN *295:83 0.000134833
10 *1457:RN *306:25 0
11 *1457:RN *306:29 7.93118e-05
12 *1457:RN *336:8 1.84103e-05
*RES
1 *1411:ZN *1457:RN 23.096 
*END

*D_NET *62 0.00195551
*CONN
*I *1458:RN I *D gf180mcu_fd_sc_mcu7t5v0__dffrnq_1
*I *1412:ZN O *D gf180mcu_fd_sc_mcu7t5v0__clkinv_1
*CAP
1 *1458:RN 0.000299427
2 *1412:ZN 0.000299427
3 *1458:RN *1174:I 0.000116476
4 *1458:RN *1175:I 0.000638865
5 *1458:RN *1305:A1 0
6 *1458:RN *1412:I 9.7618e-05
7 *1458:RN *1413:I 0
8 *1458:RN *1543:I 1.23748e-05
9 *1458:RN *148:12 9.48851e-05
10 *1458:RN *149:8 0.000271764
11 *1458:RN *149:23 0.000105623
12 *1458:RN *313:103 1.90528e-05
13 *1458:RN *313:118 0
*RES
1 *1412:ZN *1458:RN 21.848 
*END

*D_NET *63 0.000278513
*CONN
*I *1459:RN I *D gf180mcu_fd_sc_mcu7t5v0__dffrnq_1
*I *1413:ZN O *D gf180mcu_fd_sc_mcu7t5v0__clkinv_1
*CAP
1 *1459:RN 8.89721e-05
2 *1413:ZN 8.89721e-05
3 *1459:RN *1543:I 0.000100568
*RES
1 *1413:ZN *1459:RN 9.728 
*END

*D_NET *64 0.000842233
*CONN
*I *1460:RN I *D gf180mcu_fd_sc_mcu7t5v0__dffrnq_1
*I *1414:ZN O *D gf180mcu_fd_sc_mcu7t5v0__clkinv_1
*CAP
1 *1460:RN 0.000116041
2 *1414:ZN 0.000116041
3 *1460:RN *1212:B2 2.89623e-05
4 *1460:RN *1223:A3 0.000581189
*RES
1 *1414:ZN *1460:RN 10.56 
*END

*D_NET *65 0.000570268
*CONN
*I *1461:RN I *D gf180mcu_fd_sc_mcu7t5v0__dffrnq_1
*I *1415:ZN O *D gf180mcu_fd_sc_mcu7t5v0__clkinv_1
*CAP
1 *1461:RN 1.96327e-05
2 *1415:ZN 1.96327e-05
3 *1461:RN *1530:I 0.000265501
4 *1461:RN *317:66 0.000265501
*RES
1 *1415:ZN *1461:RN 9.728 
*END

*D_NET *66 0.00181127
*CONN
*I *1462:SETN I *D gf180mcu_fd_sc_mcu7t5v0__dffsnq_1
*I *1416:ZN O *D gf180mcu_fd_sc_mcu7t5v0__clkinv_1
*CAP
1 *1462:SETN 0.000127118
2 *1416:ZN 0.000127118
3 *1462:SETN *1444:CLK 0.000547671
4 *1462:SETN *296:51 3.4596e-05
5 *1462:SETN *314:51 0.00095772
6 *1462:SETN *341:10 7.86587e-06
7 *1462:SETN *341:25 9.17681e-06
*RES
1 *1416:ZN *1462:SETN 11.6 
*END

*D_NET *67 0.000499471
*CONN
*I *1463:RN I *D gf180mcu_fd_sc_mcu7t5v0__dffrnq_1
*I *1417:ZN O *D gf180mcu_fd_sc_mcu7t5v0__clkinv_1
*CAP
1 *1463:RN 0.00018144
2 *1417:ZN 0.00018144
3 *1463:RN *1224:A4 3.60231e-05
4 *1463:RN *1530:I 0.000100568
*RES
1 *1417:ZN *1463:RN 10.664 
*END

*D_NET *68 0.00244457
*CONN
*I *1464:SETN I *D gf180mcu_fd_sc_mcu7t5v0__dffsnq_1
*I *1418:ZN O *D gf180mcu_fd_sc_mcu7t5v0__clkinv_1
*CAP
1 *1464:SETN 0.000182496
2 *1418:ZN 0.000182496
3 *1464:SETN *1530:I 0.000848515
4 *1464:SETN *199:76 0.00121105
5 *1464:SETN *317:66 2.00197e-05
*RES
1 *1418:ZN *1464:SETN 13.472 
*END

*D_NET *69 0.000833717
*CONN
*I *1465:RN I *D gf180mcu_fd_sc_mcu7t5v0__dffrnq_1
*I *1419:ZN O *D gf180mcu_fd_sc_mcu7t5v0__clkinv_1
*CAP
1 *1465:RN 0.000121116
2 *1419:ZN 0.000121116
3 *1465:RN *1419:I 0.000591484
*RES
1 *1419:ZN *1465:RN 10.56 
*END

*D_NET *70 0.00122652
*CONN
*I *1466:RN I *D gf180mcu_fd_sc_mcu7t5v0__dffrnq_1
*I *1420:ZN O *D gf180mcu_fd_sc_mcu7t5v0__clkinv_1
*CAP
1 *1466:RN 0.000291626
2 *1420:ZN 0.000291626
3 *1466:RN *1291:I1 0
4 *1466:RN *1420:I 0.000605853
5 *1466:RN *1467:D 3.4596e-05
6 *1466:RN *1467:CLK 2.81522e-06
7 *1466:RN *1542:I 0
*RES
1 *1420:ZN *1466:RN 20.704 
*END

*D_NET *71 0.000609712
*CONN
*I *1467:RN I *D gf180mcu_fd_sc_mcu7t5v0__dffrnq_1
*I *1421:ZN O *D gf180mcu_fd_sc_mcu7t5v0__clkinv_1
*CAP
1 *1467:RN 0.000135196
2 *1421:ZN 0.000135196
3 *1467:RN *1306:A2 1.91601e-05
4 *1467:RN *1307:B 6.38863e-05
5 *1467:RN *1421:I 0.000256274
*RES
1 *1421:ZN *1467:RN 10.456 
*END

*D_NET *72 0.000470912
*CONN
*I *1468:RN I *D gf180mcu_fd_sc_mcu7t5v0__dffrnq_1
*I *1422:ZN O *D gf180mcu_fd_sc_mcu7t5v0__clkinv_1
*CAP
1 *1468:RN 0.000189963
2 *1422:ZN 0.000189963
3 *1468:RN *311:52 9.09864e-05
4 *1468:RN *348:10 0
*RES
1 *1422:ZN *1468:RN 10.456 
*END

*D_NET *73 0.000869586
*CONN
*I *1469:RN I *D gf180mcu_fd_sc_mcu7t5v0__dffrnq_1
*I *1423:ZN O *D gf180mcu_fd_sc_mcu7t5v0__clkinv_1
*CAP
1 *1469:RN 7.40114e-05
2 *1423:ZN 7.40114e-05
3 *1469:RN *1423:I 0.000509988
4 *1469:RN *1451:D 0.000211575
*RES
1 *1423:ZN *1469:RN 10.664 
*END

*D_NET *74 0.000540238
*CONN
*I *1470:RN I *D gf180mcu_fd_sc_mcu7t5v0__dffrnq_1
*I *1424:ZN O *D gf180mcu_fd_sc_mcu7t5v0__clkinv_1
*CAP
1 *1470:RN 0.000255716
2 *1424:ZN 0.000255716
3 *1470:RN *1290:I1 0
4 *1470:RN *295:8 2.88051e-05
*RES
1 *1424:ZN *1470:RN 19.976 
*END

*D_NET *75 0.000353504
*CONN
*I *1471:RN I *D gf180mcu_fd_sc_mcu7t5v0__dffrnq_1
*I *1425:ZN O *D gf180mcu_fd_sc_mcu7t5v0__clkinv_1
*CAP
1 *1471:RN 0.000117191
2 *1425:ZN 0.000117191
3 *1471:RN *1425:I 0.000100568
4 *1471:RN *1522:I 1.85523e-05
*RES
1 *1425:ZN *1471:RN 10.04 
*END

*D_NET *76 0.000937035
*CONN
*I *1472:RN I *D gf180mcu_fd_sc_mcu7t5v0__dffrnq_1
*I *1426:ZN O *D gf180mcu_fd_sc_mcu7t5v0__clkinv_1
*CAP
1 *1472:RN 0.000159042
2 *1426:ZN 0.000159042
3 *1472:RN *1263:A2 6.41303e-05
4 *1472:RN *1263:A3 0.000208724
5 *1472:RN *1471:CLK 0.000152316
6 *1472:RN *1509:I 0.000193782
7 *1472:RN *352:8 0
*RES
1 *1426:ZN *1472:RN 20.288 
*END

*D_NET *77 0.000753206
*CONN
*I *1473:RN I *D gf180mcu_fd_sc_mcu7t5v0__dffrnq_1
*I *1427:ZN O *D gf180mcu_fd_sc_mcu7t5v0__clkinv_1
*CAP
1 *1473:RN 8.87069e-05
2 *1427:ZN 8.87069e-05
3 *1473:RN *1319:B 7.50317e-05
4 *1473:RN *1427:I 0.000500761
*RES
1 *1427:ZN *1473:RN 10.352 
*END

*D_NET *78 0.000669718
*CONN
*I *1474:RN I *D gf180mcu_fd_sc_mcu7t5v0__dffrnq_1
*I *1428:ZN O *D gf180mcu_fd_sc_mcu7t5v0__clkinv_1
*CAP
1 *1474:RN 0.000160502
2 *1428:ZN 0.000160502
3 *1474:RN *1264:A3 0.000273661
4 *1474:RN *354:23 7.50525e-05
*RES
1 *1428:ZN *1474:RN 10.768 
*END

*D_NET *79 0.0003338
*CONN
*I *1475:RN I *D gf180mcu_fd_sc_mcu7t5v0__dffrnq_1
*I *1429:ZN O *D gf180mcu_fd_sc_mcu7t5v0__clkinv_1
*CAP
1 *1475:RN 0.000137399
2 *1429:ZN 0.000137399
3 *1475:RN *1167:I 5.90026e-05
4 *1475:RN *1321:A1 0
*RES
1 *1429:ZN *1475:RN 10.04 
*END

*D_NET *80 0.00152196
*CONN
*I *1476:RN I *D gf180mcu_fd_sc_mcu7t5v0__dffrnq_1
*I *1430:ZN O *D gf180mcu_fd_sc_mcu7t5v0__clkinv_1
*CAP
1 *1476:RN 0.000247918
2 *1430:ZN 0.000247918
3 *1476:RN *1289:A1 8.75131e-05
4 *1476:RN *1310:A1 0.000163418
5 *1476:RN *1310:A3 0.000653003
6 *1476:RN *1466:CLK 0.000122188
*RES
1 *1430:ZN *1476:RN 12.12 
*END

*D_NET *81 0.000361306
*CONN
*I *1477:RN I *D gf180mcu_fd_sc_mcu7t5v0__dffrnq_1
*I *1431:ZN O *D gf180mcu_fd_sc_mcu7t5v0__clkinv_1
*CAP
1 *1477:RN 0.000100868
2 *1431:ZN 0.000100868
3 *1477:RN *1431:I 0.000100568
4 *1477:RN *1466:CLK 5.90026e-05
*RES
1 *1431:ZN *1477:RN 10.04 
*END

*D_NET *82 0.00131942
*CONN
*I *1478:SETN I *D gf180mcu_fd_sc_mcu7t5v0__dffsnq_1
*I *1432:ZN O *D gf180mcu_fd_sc_mcu7t5v0__clkinv_1
*CAP
1 *1478:SETN 0.00029187
2 *1432:ZN 0.00029187
3 *1478:SETN *1339:A2 0.000183045
4 *1478:SETN *1432:I 0.000500761
5 *1478:SETN *1500:CLK 5.18778e-05
*RES
1 *1432:ZN *1478:SETN 12.12 
*END

*D_NET *83 0.00079505
*CONN
*I *1479:RN I *D gf180mcu_fd_sc_mcu7t5v0__dffrnq_1
*I *1433:ZN O *D gf180mcu_fd_sc_mcu7t5v0__clkinv_1
*CAP
1 *1479:RN 0.000241682
2 *1433:ZN 0.000241682
3 *1479:RN *268:14 0.000119476
4 *1479:RN *319:30 0.000192209
*RES
1 *1433:ZN *1479:RN 11.496 
*END

*D_NET *84 0.00126447
*CONN
*I *1480:RN I *D gf180mcu_fd_sc_mcu7t5v0__dffrnq_1
*I *1434:ZN O *D gf180mcu_fd_sc_mcu7t5v0__clkinv_1
*CAP
1 *1480:RN 0.00050536
2 *1434:ZN 0.00050536
3 *1480:RN *1480:D 0.000253755
4 *1480:RN *1498:D 0
*RES
1 *1434:ZN *1480:RN 21.432 
*END

*D_NET *85 0.0020897
*CONN
*I *1481:RN I *D gf180mcu_fd_sc_mcu7t5v0__dffrnq_1
*I *1435:ZN O *D gf180mcu_fd_sc_mcu7t5v0__clkinv_1
*CAP
1 *1481:RN 0.000333097
2 *1435:ZN 0.000333097
3 *1481:RN *1539:I 0.000167703
4 *1481:RN *1544:I 1.95214e-05
5 *1481:RN *303:18 1.03283e-05
6 *1481:RN *316:27 0.000724917
7 *1481:RN *345:10 0.000501041
*RES
1 *1435:ZN *1481:RN 21.64 
*END

*D_NET *86 0.00288793
*CONN
*I *1482:RN I *D gf180mcu_fd_sc_mcu7t5v0__dffrnq_1
*I *1436:ZN O *D gf180mcu_fd_sc_mcu7t5v0__clkinv_1
*CAP
1 *1482:RN 0.000461392
2 *1436:ZN 0.000461392
3 *1482:RN *1436:I 0.00122181
4 *1482:RN *298:55 4.57914e-05
5 *1482:RN *298:64 2.52541e-05
6 *1482:RN *303:18 9.00208e-05
7 *1482:RN *316:27 0.000582267
*RES
1 *1436:ZN *1482:RN 14.512 
*END

*D_NET *87 0.00126476
*CONN
*I *1483:RN I *D gf180mcu_fd_sc_mcu7t5v0__dffrnq_1
*I *1437:ZN O *D gf180mcu_fd_sc_mcu7t5v0__clkinv_1
*CAP
1 *1483:RN 0.000524127
2 *1437:ZN 0.000524127
3 *1483:RN *1251:A3 6.18411e-06
4 *1483:RN *1253:A1 3.18325e-05
5 *1483:RN *1436:I 0
6 *1483:RN *1489:CLK 5.32454e-05
7 *1483:RN *1540:I 0.00012524
8 *1483:RN *221:8 0
*RES
1 *1437:ZN *1483:RN 13.056 
*END

*D_NET *88 0.00185162
*CONN
*I *1484:RN I *D gf180mcu_fd_sc_mcu7t5v0__dffrnq_1
*I *1438:ZN O *D gf180mcu_fd_sc_mcu7t5v0__clkinv_1
*CAP
1 *1484:RN 0.000281869
2 *1438:ZN 0.000281869
3 *1484:RN *1371:A1 0.000970012
4 *1484:RN *1439:I 0.000148768
5 *1484:RN *1447:CLK 0
6 *1484:RN *1448:CLK 0
7 *1446:D *1484:RN 0.000169099
*RES
1 *1438:ZN *1484:RN 12.64 
*END

*D_NET *89 0.000861366
*CONN
*I *1485:RN I *D gf180mcu_fd_sc_mcu7t5v0__dffrnq_1
*I *1439:ZN O *D gf180mcu_fd_sc_mcu7t5v0__clkinv_1
*CAP
1 *1485:RN 0.000144829
2 *1439:ZN 0.000144829
3 *1485:RN *1439:I 0.000571709
*RES
1 *1439:ZN *1485:RN 10.56 
*END

*D_NET *90 0.000606926
*CONN
*I *1486:RN I *D gf180mcu_fd_sc_mcu7t5v0__dffrnq_1
*I *1440:ZN O *D gf180mcu_fd_sc_mcu7t5v0__clkinv_1
*CAP
1 *1486:RN 0.000303463
2 *1440:ZN 0.000303463
3 *1486:RN *371:10 0
*RES
1 *1440:ZN *1486:RN 11.08 
*END

*D_NET *91 0.00129768
*CONN
*I *1487:D I *D gf180mcu_fd_sc_mcu7t5v0__dffrnq_1
*I *1337:ZN O *D gf180mcu_fd_sc_mcu7t5v0__nor4_1
*CAP
1 *1487:D 0.000548073
2 *1337:ZN 0.000548073
3 *1487:D *1377:I1 3.2098e-05
4 *1487:D *1498:CLK 6.18411e-06
5 *1487:D *298:64 0.000122503
6 *1487:D *344:12 4.07478e-05
*RES
1 *1337:ZN *1487:D 13.264 
*END

*D_NET *92 0.00150206
*CONN
*I *1488:D I *D gf180mcu_fd_sc_mcu7t5v0__dffrnq_1
*I *1335:ZN O *D gf180mcu_fd_sc_mcu7t5v0__nor3_1
*CAP
1 *1488:D 0.000539351
2 *1335:ZN 0.000539351
3 *1488:D *1335:A2 3.93698e-05
4 *1488:D *1335:A3 5.90026e-05
5 *1488:D *298:64 0.000120909
6 *1488:D *302:16 8.21146e-06
7 *1488:D *303:27 2.08037e-05
8 *1488:D *346:14 0.000175061
*RES
1 *1335:ZN *1488:D 13.784 
*END

*D_NET *93 0.000855489
*CONN
*I *1489:D I *D gf180mcu_fd_sc_mcu7t5v0__dffrnq_1
*I *1333:ZN O *D gf180mcu_fd_sc_mcu7t5v0__nor3_1
*CAP
1 *1489:D 0.000209517
2 *1333:ZN 0.000209517
3 *1489:D *1333:A1 4.03079e-05
4 *1489:D *318:31 0.000396148
*RES
1 *1333:ZN *1489:D 10.872 
*END

*D_NET *94 0.000856093
*CONN
*I *1490:D I *D gf180mcu_fd_sc_mcu7t5v0__dffrnq_1
*I *1331:ZN O *D gf180mcu_fd_sc_mcu7t5v0__nor3_1
*CAP
1 *1490:D 0.00015834
2 *1331:ZN 0.00015834
3 *1490:D *1490:CLK 4.63309e-05
4 *1490:D *302:10 0.000289343
5 *1490:D *325:61 0.000203739
*RES
1 *1331:ZN *1490:D 20.288 
*END

*D_NET *95 0.00102823
*CONN
*I *1491:D I *D gf180mcu_fd_sc_mcu7t5v0__dffrnq_1
*I *1329:ZN O *D gf180mcu_fd_sc_mcu7t5v0__nor3_1
*CAP
1 *1491:D 0.00037831
2 *1329:ZN 0.00037831
3 *1491:D *1193:I 8.62297e-05
4 *1491:D *1333:A1 0.000179194
5 *1491:D *1333:A2 0
6 *1491:D *1491:CLK 6.18411e-06
7 *1491:D *374:8 0
*RES
1 *1329:ZN *1491:D 11.808 
*END

*D_NET *96 0.000646269
*CONN
*I *1449:D I *D gf180mcu_fd_sc_mcu7t5v0__dffsnq_1
*I *1323:Z O *D gf180mcu_fd_sc_mcu7t5v0__mux2_2
*CAP
1 *1449:D 0.00019301
2 *1323:Z 0.00019301
3 *1449:D *1287:S 4.81384e-05
4 *1449:D *348:10 8.85399e-06
5 *1449:D *348:12 0.000203256
*RES
1 *1323:Z *1449:D 10.976 
*END

*D_NET *97 0.0025014
*CONN
*I *1450:D I *D gf180mcu_fd_sc_mcu7t5v0__dffrnq_1
*I *1322:ZN O *D gf180mcu_fd_sc_mcu7t5v0__oai21_1
*CAP
1 *1450:D 0.0008605
2 *1322:ZN 0.0008605
3 *1450:D *1321:A2 0.000344646
4 *1450:D *1322:A2 9.76253e-05
5 *1450:D *1450:CLK 2.21335e-05
6 *1450:D *1512:I 3.95619e-06
7 *1450:D *1513:I 0.000312042
*RES
1 *1322:ZN *1450:D 32.408 
*END

*D_NET *98 0.00115509
*CONN
*I *1451:D I *D gf180mcu_fd_sc_mcu7t5v0__dffsnq_1
*I *1320:Z O *D gf180mcu_fd_sc_mcu7t5v0__mux2_2
*CAP
1 *1451:D 0.000293392
2 *1320:Z 0.000293392
3 *1451:D *1423:I 0.000115166
4 *1451:D *349:12 0.000208897
5 *1451:D *349:64 3.26676e-05
6 *1469:RN *1451:D 0.000211575
*RES
1 *1320:Z *1451:D 12.64 
*END

*D_NET *99 0.00247728
*CONN
*I *1452:D I *D gf180mcu_fd_sc_mcu7t5v0__dffrnq_1
*I *1319:ZN O *D gf180mcu_fd_sc_mcu7t5v0__oai21_1
*CAP
1 *1452:D 0.000744945
2 *1319:ZN 0.000744945
3 *1452:D *1183:I 0
4 *1452:D *1316:A1 0.000106745
5 *1452:D *1319:A1 0
6 *1452:D *1319:A2 4.11753e-05
7 *1452:D *1454:D 0.000764522
8 *1452:D *305:58 1.89425e-05
9 *1452:D *305:62 7.86954e-06
10 *1452:D *331:8 4.81384e-05
*RES
1 *1319:ZN *1452:D 26.112 
*END

*D_NET *100 0.00218914
*CONN
*I *1453:D I *D gf180mcu_fd_sc_mcu7t5v0__dffrnq_1
*I *1317:Z O *D gf180mcu_fd_sc_mcu7t5v0__mux2_2
*CAP
1 *1453:D 0.00038575
2 *1317:Z 0.00038575
3 *1453:D *1183:I 3.55894e-05
4 *1453:D *315:43 0.00120226
5 *1453:D *315:45 1.40331e-05
6 *1453:D *315:61 7.16472e-05
7 *1453:D *352:60 9.41125e-05
*RES
1 *1317:Z *1453:D 22.784 
*END

*D_NET *101 0.00250791
*CONN
*I *1454:D I *D gf180mcu_fd_sc_mcu7t5v0__dffrnq_1
*I *1316:ZN O *D gf180mcu_fd_sc_mcu7t5v0__oai21_1
*CAP
1 *1454:D 0.000752333
2 *1316:ZN 0.000752333
3 *1454:D *1408:I 0
4 *1454:D *1473:CLK 1.07369e-05
5 *1454:D *305:58 0.000113773
6 *1454:D *352:60 0.00011421
7 *1452:D *1454:D 0.000764522
*RES
1 *1316:ZN *1454:D 25.28 
*END

*D_NET *102 0.00081677
*CONN
*I *1455:D I *D gf180mcu_fd_sc_mcu7t5v0__dffrnq_1
*I *1314:ZN O *D gf180mcu_fd_sc_mcu7t5v0__oai21_1
*CAP
1 *1455:D 7.58769e-05
2 *1314:ZN 7.58769e-05
3 *1455:D *1196:A2 2.14739e-05
4 *1455:D *151:12 0.000134102
5 *1455:D *305:70 0.000327222
6 *1455:D *330:39 0.000182219
*RES
1 *1314:ZN *1455:D 10.144 
*END

*D_NET *103 0.000660482
*CONN
*I *1456:D I *D gf180mcu_fd_sc_mcu7t5v0__dffrnq_1
*I *1312:ZN O *D gf180mcu_fd_sc_mcu7t5v0__aoi21_1
*CAP
1 *1456:D 0.000213355
2 *1312:ZN 0.000213355
3 *1456:D *1311:A2 0.00019377
4 *1456:D *1312:B 4.00017e-05
*RES
1 *1312:ZN *1456:D 11.08 
*END

*D_NET *104 0.00162235
*CONN
*I *1457:D I *D gf180mcu_fd_sc_mcu7t5v0__dffrnq_1
*I *1309:ZN O *D gf180mcu_fd_sc_mcu7t5v0__aoi21_1
*CAP
1 *1457:D 0.000219834
2 *1309:ZN 0.000219834
3 *1457:D *1309:A1 0.000125283
4 *1457:D *1309:B 0.000261696
5 *1457:D *1457:CLK 7.17602e-05
6 *1457:D *306:21 0.000723938
7 *1457:D *313:68 0
*RES
1 *1309:ZN *1457:D 21.328 
*END

*D_NET *105 0.000806718
*CONN
*I *1458:D I *D gf180mcu_fd_sc_mcu7t5v0__dffrnq_1
*I *1307:ZN O *D gf180mcu_fd_sc_mcu7t5v0__aoi21_1
*CAP
1 *1458:D 0.000196013
2 *1307:ZN 0.000196013
3 *1458:D *1307:A1 0.000414691
*RES
1 *1307:ZN *1458:D 10.872 
*END

*D_NET *106 0.00216971
*CONN
*I *1459:D I *D gf180mcu_fd_sc_mcu7t5v0__dffrnq_1
*I *1305:ZN O *D gf180mcu_fd_sc_mcu7t5v0__aoi21_1
*CAP
1 *1459:D 0.00049905
2 *1305:ZN 0.00049905
3 *1459:D *1290:I1 0.000116476
4 *1459:D *1306:A2 0.000336742
5 *1459:D *1307:B 8.0994e-05
6 *1459:D *1421:I 1.23478e-05
7 *1459:D *1459:CLK 7.27179e-05
8 *1459:D *1543:I 0.000552334
*RES
1 *1305:ZN *1459:D 22.68 
*END

*D_NET *107 0.00114911
*CONN
*I *1460:D I *D gf180mcu_fd_sc_mcu7t5v0__dffrnq_1
*I *1303:ZN O *D gf180mcu_fd_sc_mcu7t5v0__aoi21_1
*CAP
1 *1460:D 0.000381855
2 *1303:ZN 0.000381855
3 *1460:D *295:83 0.000203364
4 *1460:D *295:87 1.71326e-05
5 *1460:D *306:29 0
6 *1457:RN *1460:D 0.000164907
*RES
1 *1303:ZN *1460:D 12.536 
*END

*D_NET *108 0.00048502
*CONN
*I *1461:D I *D gf180mcu_fd_sc_mcu7t5v0__dffrnq_1
*I *1301:ZN O *D gf180mcu_fd_sc_mcu7t5v0__aoi21_1
*CAP
1 *1461:D 9.31643e-05
2 *1301:ZN 9.31643e-05
3 *1461:D *1300:A2 0.00012524
4 *1461:D *1463:CLK 0.000156319
5 *1461:D *299:16 1.71326e-05
*RES
1 *1301:ZN *1461:D 10.144 
*END

*D_NET *109 0.000747566
*CONN
*I *1462:D I *D gf180mcu_fd_sc_mcu7t5v0__dffsnq_1
*I *1299:ZN O *D gf180mcu_fd_sc_mcu7t5v0__oai21_1
*CAP
1 *1462:D 0.000101674
2 *1299:ZN 0.000101674
3 *1462:D *1264:A3 0.000103468
4 *1462:D *1299:A1 0.000419276
5 *1462:D *1522:I 2.14739e-05
*RES
1 *1299:ZN *1462:D 10.352 
*END

*D_NET *110 0.00109388
*CONN
*I *1463:D I *D gf180mcu_fd_sc_mcu7t5v0__dffrnq_1
*I *1297:ZN O *D gf180mcu_fd_sc_mcu7t5v0__aoi21_1
*CAP
1 *1463:D 0.000278672
2 *1297:ZN 0.000278672
3 *1463:D *1409:I 0.000108047
4 *1463:D *306:119 0.000428493
5 *1463:D *307:45 0
*RES
1 *1297:ZN *1463:D 11.704 
*END

*D_NET *111 0.000462437
*CONN
*I *1464:D I *D gf180mcu_fd_sc_mcu7t5v0__dffsnq_1
*I *1295:ZN O *D gf180mcu_fd_sc_mcu7t5v0__oai21_1
*CAP
1 *1464:D 0.00017421
2 *1295:ZN 0.00017421
3 *1464:D *1295:B 6.13569e-05
4 *1464:D *299:14 4.67771e-06
5 *1464:D *299:16 4.79815e-05
*RES
1 *1295:ZN *1464:D 10.456 
*END

*D_NET *112 0.0016627
*CONN
*I *1465:D I *D gf180mcu_fd_sc_mcu7t5v0__dffrnq_1
*I *1292:Z O *D gf180mcu_fd_sc_mcu7t5v0__mux2_2
*CAP
1 *1465:D 0.000440815
2 *1292:Z 0.000440815
3 *1465:D *1189:I 0.000125251
4 *1465:D *1465:CLK 4.47143e-05
5 *1465:D *319:62 0.000607359
6 *1465:D *367:23 3.74436e-06
*RES
1 *1292:Z *1465:D 23.2 
*END

*D_NET *113 0.00163877
*CONN
*I *1466:D I *D gf180mcu_fd_sc_mcu7t5v0__dffrnq_1
*I *1291:Z O *D gf180mcu_fd_sc_mcu7t5v0__mux2_2
*CAP
1 *1466:D 0.000357216
2 *1291:Z 0.000357216
3 *1466:D *1291:S 0.000121177
4 *1466:D *1293:A1 4.07478e-05
5 *1466:D *1466:CLK 0.000200076
6 *1466:D *139:10 0.000106926
7 *1466:D *319:62 0.000189298
8 *1466:D *357:10 0.00026611
*RES
1 *1291:Z *1466:D 22.368 
*END

*D_NET *114 0.00107343
*CONN
*I *1467:D I *D gf180mcu_fd_sc_mcu7t5v0__dffrnq_1
*I *1290:Z O *D gf180mcu_fd_sc_mcu7t5v0__mux2_2
*CAP
1 *1467:D 0.000342651
2 *1290:Z 0.000342651
3 *1467:D *1290:S 1.60428e-05
4 *1467:D *1291:I1 5.81071e-06
5 *1467:D *1467:CLK 6.20232e-05
6 *1467:D *1527:I 0.000111041
7 *1467:D *319:62 0.000158617
8 *1466:RN *1467:D 3.4596e-05
*RES
1 *1290:Z *1467:D 11.6 
*END

*D_NET *115 0.000452101
*CONN
*I *1468:D I *D gf180mcu_fd_sc_mcu7t5v0__dffrnq_1
*I *1288:Z O *D gf180mcu_fd_sc_mcu7t5v0__mux2_2
*CAP
1 *1468:D 0.000158085
2 *1288:Z 0.000158085
3 *1468:D *1288:I1 7.17602e-05
4 *1468:D *294:44 6.41721e-05
*RES
1 *1288:Z *1468:D 10.456 
*END

*D_NET *116 0.001711
*CONN
*I *1469:D I *D gf180mcu_fd_sc_mcu7t5v0__dffrnq_1
*I *1287:Z O *D gf180mcu_fd_sc_mcu7t5v0__mux2_2
*CAP
1 *1469:D 0.000763207
2 *1287:Z 0.000763207
3 *1469:D *1384:I 0
4 *1469:D *1469:CLK 2.11493e-05
5 *1469:D *364:10 7.17602e-05
6 *1494:RN *1469:D 9.168e-05
*RES
1 *1287:Z *1469:D 15.032 
*END

*D_NET *117 0.000471085
*CONN
*I *1470:D I *D gf180mcu_fd_sc_mcu7t5v0__dffrnq_1
*I *1286:Z O *D gf180mcu_fd_sc_mcu7t5v0__mux2_2
*CAP
1 *1470:D 0.000231605
2 *1286:Z 0.000231605
3 *1470:D *1293:A2 0
4 *1470:D *1470:CLK 7.87395e-06
5 *1470:D *350:25 0
*RES
1 *1286:Z *1470:D 10.456 
*END

*D_NET *118 0.00157843
*CONN
*I *1471:D I *D gf180mcu_fd_sc_mcu7t5v0__dffrnq_1
*I *1285:Z O *D gf180mcu_fd_sc_mcu7t5v0__mux2_2
*CAP
1 *1471:D 0.000319109
2 *1285:Z 0.000319109
3 *1471:D *1471:CLK 4.07478e-05
4 *1471:D *1520:I 0.000899468
5 *1471:D *253:42 0
6 *1451:SETN *1471:D 0
*RES
1 *1285:Z *1471:D 12.432 
*END

*D_NET *119 0.00142965
*CONN
*I *1472:D I *D gf180mcu_fd_sc_mcu7t5v0__dffrnq_1
*I *1284:Z O *D gf180mcu_fd_sc_mcu7t5v0__mux2_2
*CAP
1 *1472:D 0.000113868
2 *1284:Z 0.000113868
3 *1472:D *1318:A1 1.06742e-05
4 *1472:D *231:14 6.97265e-05
5 *1472:D *253:42 0.000408718
6 *1472:D *330:39 2.14739e-05
7 *1472:D *349:83 0.000691326
*RES
1 *1284:Z *1472:D 20.288 
*END

*D_NET *120 0.000566178
*CONN
*I *1473:D I *D gf180mcu_fd_sc_mcu7t5v0__dffrnq_1
*I *1283:ZN O *D gf180mcu_fd_sc_mcu7t5v0__oai21_1
*CAP
1 *1473:D 0.000283089
2 *1283:ZN 0.000283089
3 *1473:D *1473:CLK 0
*RES
1 *1283:ZN *1473:D 11.08 
*END

*D_NET *121 0.000606761
*CONN
*I *1474:D I *D gf180mcu_fd_sc_mcu7t5v0__dffrnq_1
*I *1281:ZN O *D gf180mcu_fd_sc_mcu7t5v0__aoi21_1
*CAP
1 *1474:D 7.61949e-05
2 *1281:ZN 7.61949e-05
3 *1474:D *253:42 0.000360259
4 *1474:D *328:27 9.41125e-05
*RES
1 *1281:ZN *1474:D 10.144 
*END

*D_NET *122 0.00114781
*CONN
*I *1475:D I *D gf180mcu_fd_sc_mcu7t5v0__dffrnq_1
*I *1279:ZN O *D gf180mcu_fd_sc_mcu7t5v0__oai21_1
*CAP
1 *1475:D 0.000198634
2 *1279:ZN 0.000198634
3 *1475:D *1279:A1 0.000346997
4 *1475:D *1475:CLK 7.87395e-06
5 *1475:D *253:42 0.000289026
6 *1475:D *328:27 0.000106645
*RES
1 *1279:ZN *1475:D 11.808 
*END

*D_NET *123 0.0010227
*CONN
*I *1476:D I *D gf180mcu_fd_sc_mcu7t5v0__dffrnq_1
*I *1277:ZN O *D gf180mcu_fd_sc_mcu7t5v0__aoi21_1
*CAP
1 *1476:D 0.000249522
2 *1277:ZN 0.000249522
3 *1476:D *1277:B 0.000304228
4 *1476:D *1476:CLK 2.73715e-06
5 *1476:D *1477:D 0
6 *1476:D *237:34 0.000216695
*RES
1 *1277:ZN *1476:D 11.912 
*END

*D_NET *124 0.000748495
*CONN
*I *1477:D I *D gf180mcu_fd_sc_mcu7t5v0__dffrnq_1
*I *1275:ZN O *D gf180mcu_fd_sc_mcu7t5v0__aoi21_1
*CAP
1 *1477:D 0.000160001
2 *1275:ZN 0.000160001
3 *1477:D *1275:A2 0.000428493
4 *1477:D *1292:I1 0
5 *1477:D *1477:CLK 0
6 *1476:D *1477:D 0
*RES
1 *1275:ZN *1477:D 10.664 
*END

*D_NET *125 0.000734475
*CONN
*I *1478:D I *D gf180mcu_fd_sc_mcu7t5v0__dffsnq_1
*I *1272:ZN O *D gf180mcu_fd_sc_mcu7t5v0__nor2_1
*CAP
1 *1478:D 7.87715e-05
2 *1272:ZN 7.87715e-05
3 *1478:D *1272:A1 0.000509988
4 *1478:D *219:10 6.69436e-05
*RES
1 *1272:ZN *1478:D 10.352 
*END

*D_NET *126 0.000457191
*CONN
*I *1479:D I *D gf180mcu_fd_sc_mcu7t5v0__dffrnq_1
*I *1270:ZN O *D gf180mcu_fd_sc_mcu7t5v0__nor2_1
*CAP
1 *1479:D 0.000166892
2 *1270:ZN 0.000166892
3 *1479:D *1493:CLK 0.000103933
4 *1479:D *293:39 1.12327e-05
5 *1479:D *327:16 8.24169e-06
*RES
1 *1270:ZN *1479:D 10.456 
*END

*D_NET *127 0.00502181
*CONN
*I *1480:D I *D gf180mcu_fd_sc_mcu7t5v0__dffrnq_1
*I *1262:ZN O *D gf180mcu_fd_sc_mcu7t5v0__nor2_1
*CAP
1 *1480:D 0.00143228
2 *1262:ZN 0.00143228
3 *1480:D *1261:A1 0.000271764
4 *1480:D *1324:A1 0
5 *1480:D *1336:A2 0
6 *1480:D *1377:I0 0
7 *1480:D *1388:I 2.08074e-05
8 *1480:D *1544:I 0
9 *1480:D *201:14 6.41811e-05
10 *1480:D *218:33 7.93873e-05
11 *1480:D *344:12 0.00146736
12 *1377:S *1480:D 0
13 *1480:RN *1480:D 0.000253755
14 *1487:RN *1480:D 0
*RES
1 *1262:ZN *1480:D 30.48 
*END

*D_NET *128 0.000533184
*CONN
*I *1481:D I *D gf180mcu_fd_sc_mcu7t5v0__dffrnq_1
*I *1260:ZN O *D gf180mcu_fd_sc_mcu7t5v0__aoi21_1
*CAP
1 *1481:D 7.10378e-05
2 *1260:ZN 7.10378e-05
3 *1481:D *1260:A1 8.34358e-05
4 *1481:D *218:33 0.000103933
5 *1481:D *345:14 0.000203739
*RES
1 *1260:ZN *1481:D 10.144 
*END

*D_NET *129 0.00136421
*CONN
*I *1482:D I *D gf180mcu_fd_sc_mcu7t5v0__dffrnq_1
*I *1258:ZN O *D gf180mcu_fd_sc_mcu7t5v0__nor2_1
*CAP
1 *1482:D 0.000130676
2 *1258:ZN 0.000130676
3 *1482:D *1258:A1 0.000203739
4 *1482:D *218:33 0.00049239
5 *1482:D *345:14 0.000151966
6 *1482:D *345:29 0.000254761
*RES
1 *1258:ZN *1482:D 12.224 
*END

*D_NET *130 0.0016235
*CONN
*I *1483:D I *D gf180mcu_fd_sc_mcu7t5v0__dffrnq_1
*I *1255:ZN O *D gf180mcu_fd_sc_mcu7t5v0__oai22_1
*CAP
1 *1483:D 0.000211446
2 *1255:ZN 0.000211446
3 *1483:D *1255:A1 6.83697e-05
4 *1483:D *1255:A2 0.000307671
5 *1483:D *1258:A1 0.000745259
6 *1483:D *304:23 7.93118e-05
*RES
1 *1255:ZN *1483:D 12.12 
*END

*D_NET *131 0.00221967
*CONN
*I *1484:D I *D gf180mcu_fd_sc_mcu7t5v0__dffrnq_1
*I *1235:ZN O *D gf180mcu_fd_sc_mcu7t5v0__nor3_1
*CAP
1 *1484:D 0.00047564
2 *1235:ZN 0.00047564
3 *1484:D *1233:A2 0.000242039
4 *1484:D *1233:A3 0.000591484
5 *1484:D *1235:A1 0.000130148
6 *1484:D *1235:A2 0.000304719
7 *1484:D *300:25 0
*RES
1 *1235:ZN *1484:D 13.992 
*END

*D_NET *132 0.00249959
*CONN
*I *1485:D I *D gf180mcu_fd_sc_mcu7t5v0__dffrnq_1
*I *1233:ZN O *D gf180mcu_fd_sc_mcu7t5v0__nor3_1
*CAP
1 *1485:D 0.000280811
2 *1233:ZN 0.000280811
3 *1485:D *1227:A1 0.000945427
4 *1485:D *1232:A2 0.000660687
5 *1485:D *1233:A1 8.21146e-06
6 *1485:D *1233:A3 0.000156819
7 *1485:D *1484:CLK 5.13977e-05
8 *1485:D *300:25 6.38863e-05
9 *1485:D *300:27 5.15433e-05
*RES
1 *1233:ZN *1485:D 13.576 
*END

*D_NET *133 0.000653289
*CONN
*I *1486:D I *D gf180mcu_fd_sc_mcu7t5v0__dffrnq_1
*I *1231:ZN O *D gf180mcu_fd_sc_mcu7t5v0__nor4_1
*CAP
1 *1486:D 0.000116252
2 *1231:ZN 0.000116252
3 *1486:D *1230:A1 0.000410048
4 *1486:D *1499:CLK 1.07369e-05
*RES
1 *1231:ZN *1486:D 10.144 
*END

*D_NET *134 0.00353367
*CONN
*I *1230:A1 I *D gf180mcu_fd_sc_mcu7t5v0__and2_1
*I *1229:A1 I *D gf180mcu_fd_sc_mcu7t5v0__nor2_1
*I *1324:A1 I *D gf180mcu_fd_sc_mcu7t5v0__nor3_1
*I *1160:ZN O *D gf180mcu_fd_sc_mcu7t5v0__clkinv_1
*CAP
1 *1230:A1 0.000261224
2 *1229:A1 8.88282e-05
3 *1324:A1 9.08006e-05
4 *1160:ZN 0.000218391
5 *134:10 0.000438837
6 *134:8 0.000738824
7 *1229:A1 *1324:A3 6.85302e-05
8 *1229:A1 *1388:I 0
9 *1229:A1 *202:8 0.00033778
10 *1229:A1 *372:10 9.09864e-05
11 *1230:A1 *1231:A4 0.000117959
12 *1230:A1 *1480:CLK 1.09486e-05
13 *1230:A1 *1499:CLK 0.000134366
14 *1324:A1 *1336:A2 9.52581e-05
15 *134:8 *300:31 0.000113886
16 *134:8 *300:33 3.48215e-05
17 *134:8 *372:36 0
18 *134:10 *1231:A3 0.000179953
19 *134:10 *1336:A2 2.46957e-05
20 *134:10 *1480:CLK 5.54907e-05
21 *134:10 *300:33 2.20381e-05
22 *134:10 *372:36 0
23 *1480:D *1324:A1 0
24 *1486:D *1230:A1 0.000410048
*RES
1 *1160:ZN *134:8 11.392 
2 *134:8 *134:10 2.184 
3 *134:10 *1324:A1 9.728 
4 *134:10 *1229:A1 10.352 
5 *134:8 *1230:A1 11.912 
*END

*D_NET *135 0.00209862
*CONN
*I *1234:A1 I *D gf180mcu_fd_sc_mcu7t5v0__xor2_1
*I *1203:A1 I *D gf180mcu_fd_sc_mcu7t5v0__aoi221_1
*I *1200:B2 I *D gf180mcu_fd_sc_mcu7t5v0__oai221_1
*I *1161:ZN O *D gf180mcu_fd_sc_mcu7t5v0__clkinv_1
*CAP
1 *1234:A1 0.000138613
2 *1203:A1 1.6861e-05
3 *1200:B2 0.000165765
4 *1161:ZN 0
5 *135:10 0.000410546
6 *135:4 0.000366533
7 *1200:B2 *1203:A2 0.000185355
8 *1200:B2 *1204:A1 2.13874e-05
9 *1200:B2 *1204:A2 0.000328552
10 *1203:A1 *179:16 0
11 *1234:A1 *1199:B1 0
12 *1234:A1 *1513:I 0
13 *1234:A1 *179:38 0.000261696
14 *135:10 *1200:C 1.32276e-05
15 *135:10 *1203:A2 0.000113016
16 *135:10 *1203:C 5.96239e-05
17 *135:10 *1513:I 1.7449e-05
18 *135:10 *179:16 0
*RES
1 *1161:ZN *135:4 4.5 
2 *135:4 *135:10 2.392 
3 *135:10 *1200:B2 6.372 
4 *135:10 *1203:A1 4.812 
5 *135:4 *1234:A1 15.06 
*END

*D_NET *136 0.00198273
*CONN
*I *1255:A1 I *D gf180mcu_fd_sc_mcu7t5v0__oai22_1
*I *1162:ZN O *D gf180mcu_fd_sc_mcu7t5v0__clkinv_1
*CAP
1 *1255:A1 0.00038735
2 *1162:ZN 0.00038735
3 *1255:A1 *1252:A1 5.85255e-05
4 *1255:A1 *1253:A1 0.000131739
5 *1255:A1 *1437:I 0
6 *1255:A1 *1540:I 0
7 *1255:A1 *222:10 0.000355296
8 *1255:A1 *304:12 0.000594096
9 *1483:D *1255:A1 6.83697e-05
*RES
1 *1162:ZN *1255:A1 22.16 
*END

*D_NET *137 0.000169708
*CONN
*I *1256:A1 I *D gf180mcu_fd_sc_mcu7t5v0__nor2_1
*I *1163:ZN O *D gf180mcu_fd_sc_mcu7t5v0__clkinv_1
*CAP
1 *1256:A1 8.48539e-05
2 *1163:ZN 8.48539e-05
*RES
1 *1163:ZN *1256:A1 9.728 
*END

*D_NET *138 0.0018218
*CONN
*I *1272:A1 I *D gf180mcu_fd_sc_mcu7t5v0__nor2_1
*I *1164:ZN O *D gf180mcu_fd_sc_mcu7t5v0__clkinv_1
*CAP
1 *1272:A1 0.000159438
2 *1164:ZN 0.000159438
3 *1272:A1 *218:33 0.000968671
4 *1272:A1 *219:10 2.42667e-05
5 *1478:D *1272:A1 0.000509988
*RES
1 *1164:ZN *1272:A1 11.912 
*END

*D_NET *139 0.00703681
*CONN
*I *1293:A1 I *D gf180mcu_fd_sc_mcu7t5v0__nand3_1
*I *1310:A1 I *D gf180mcu_fd_sc_mcu7t5v0__and3_1
*I *1275:A1 I *D gf180mcu_fd_sc_mcu7t5v0__aoi21_1
*I *1165:ZN O *D gf180mcu_fd_sc_mcu7t5v0__clkinv_1
*CAP
1 *1293:A1 0.000197242
2 *1310:A1 0.000379211
3 *1275:A1 0.000232774
4 *1165:ZN 0
5 *139:10 0.000753428
6 *139:4 0.000338685
7 *1275:A1 *1275:A2 0.000806404
8 *1275:A1 *1275:B 0.000219976
9 *1275:A1 *310:66 0.000451488
10 *1275:A1 *319:62 0.00049928
11 *1293:A1 *1466:CLK 0.000191452
12 *1293:A1 *357:10 9.32019e-05
13 *1310:A1 *1275:B 0
14 *1310:A1 *1277:A1 0.00040374
15 *1310:A1 *1289:A1 0.000331461
16 *1310:A1 *1310:A3 5.62982e-05
17 *1310:A1 *1431:I 0.000179194
18 *1310:A1 *1466:CLK 2.65403e-05
19 *1310:A1 *140:14 0.00117718
20 *1310:A1 *292:119 1.00441e-05
21 *1310:A1 *349:12 2.98154e-06
22 *139:10 *1289:A1 6.34843e-05
23 *139:10 *1466:CLK 3.60303e-05
24 *139:10 *310:66 3.70435e-05
25 *139:10 *319:62 0.000228771
26 *139:10 *357:10 9.80196e-06
27 *1466:D *1293:A1 4.07478e-05
28 *1466:D *139:10 0.000106926
29 *1476:RN *1310:A1 0.000163418
*RES
1 *1165:ZN *139:4 4.5 
2 *139:4 *139:10 6.372 
3 *139:10 *1275:A1 14.2 
4 *139:10 *1310:A1 14.408 
5 *139:4 *1293:A1 6.372 
*END

*D_NET *140 0.00634066
*CONN
*I *1310:A2 I *D gf180mcu_fd_sc_mcu7t5v0__and3_1
*I *1289:A2 I *D gf180mcu_fd_sc_mcu7t5v0__nand3_1
*I *1277:A1 I *D gf180mcu_fd_sc_mcu7t5v0__aoi21_1
*I *1166:ZN O *D gf180mcu_fd_sc_mcu7t5v0__clkinv_1
*CAP
1 *1310:A2 0
2 *1289:A2 0
3 *1277:A1 8.47369e-05
4 *1166:ZN 0.000180592
5 *140:14 0.000417012
6 *140:8 0.000512867
7 *1277:A1 *1291:S 2.76367e-05
8 *1277:A1 *1292:S 0.00119933
9 *1277:A1 *243:8 0.000322233
10 *1277:A1 *310:66 0.0012711
11 *140:8 *1166:I 5.24641e-05
12 *140:8 *1293:A2 7.24282e-05
13 *140:8 *1520:I 0.000188776
14 *140:8 *292:119 5.35052e-05
15 *140:14 *243:8 0.000219242
16 *140:14 *292:119 4.85821e-05
17 *140:14 *349:12 0.000109236
18 *1310:A1 *1277:A1 0.00040374
19 *1310:A1 *140:14 0.00117718
*RES
1 *1166:ZN *140:8 11.184 
2 *140:8 *140:14 8.66 
3 *140:14 *1277:A1 17.868 
4 *140:14 *1289:A2 4.5 
5 *140:8 *1310:A2 9 
*END

*D_NET *141 0.0108387
*CONN
*I *1264:A3 I *D gf180mcu_fd_sc_mcu7t5v0__nor4_1
*I *1295:A1 I *D gf180mcu_fd_sc_mcu7t5v0__oai21_1
*I *1312:A1 I *D gf180mcu_fd_sc_mcu7t5v0__aoi21_1
*I *1279:A1 I *D gf180mcu_fd_sc_mcu7t5v0__oai21_1
*I *1167:ZN O *D gf180mcu_fd_sc_mcu7t5v0__clkinv_1
*CAP
1 *1264:A3 0.00104318
2 *1295:A1 0.000410007
3 *1312:A1 0.00029934
4 *1279:A1 0.00025787
5 *1167:ZN 4.77504e-05
6 *141:29 0.00156406
7 *141:10 0.00131242
8 *141:8 0.00129077
9 *1264:A3 *1264:A2 0
10 *1264:A3 *1264:A4 2.08037e-05
11 *1264:A3 *1299:A1 1.57479e-05
12 *1264:A3 *1321:A1 6.38503e-05
13 *1264:A3 *1429:I 0.000105621
14 *1264:A3 *1522:I 0.000187241
15 *1264:A3 *1527:I 8.21146e-06
16 *1264:A3 *308:82 0
17 *1264:A3 *354:23 1.74441e-05
18 *1279:A1 *1278:A2 3.3555e-05
19 *1279:A1 *253:42 0.000419265
20 *1279:A1 *328:27 0
21 *1295:A1 *1295:A2 0.000199998
22 *1295:A1 *1300:A2 0
23 *1295:A1 *299:14 0
24 *1312:A1 *1321:A1 2.66236e-05
25 *1312:A1 *253:65 0
26 *141:8 *1429:I 0.000353525
27 *141:29 *1300:A1 0.000341551
28 *141:29 *1313:A1 0
29 *141:29 *1313:A2 0
30 *141:29 *1321:A1 0.000913784
31 *141:29 *253:65 0
32 *141:29 *354:48 0.000214967
33 *1455:RN *141:29 0.000497696
34 *1462:D *1264:A3 0.000103468
35 *1474:RN *1264:A3 0.000273661
36 *1475:D *1279:A1 0.000346997
37 *1505:I *141:8 0.000179953
38 *1505:I *141:10 0.000289333
*RES
1 *1167:ZN *141:8 10.144 
2 *141:8 *141:10 2.184 
3 *141:10 *1279:A1 11.704 
4 *141:10 *141:29 14.172 
5 *141:29 *1312:A1 6.788 
6 *141:29 *1295:A1 16.516 
7 *141:8 *1264:A3 17.528 
*END

*D_NET *142 0.0112064
*CONN
*I *1299:A1 I *D gf180mcu_fd_sc_mcu7t5v0__oai21_1
*I *1263:A1 I *D gf180mcu_fd_sc_mcu7t5v0__nor4_1
*I *1281:A1 I *D gf180mcu_fd_sc_mcu7t5v0__aoi21_1
*I *1283:A1 I *D gf180mcu_fd_sc_mcu7t5v0__oai21_1
*I *1168:ZN O *D gf180mcu_fd_sc_mcu7t5v0__clkinv_1
*CAP
1 *1299:A1 0.000231137
2 *1263:A1 0.00148391
3 *1281:A1 2.74317e-05
4 *1283:A1 0.000446594
5 *1168:ZN 0
6 *142:36 0.00196528
7 *142:25 0.000608832
8 *142:6 0.000777759
9 *1263:A1 *352:39 0
10 *1281:A1 *308:52 0.000103788
11 *1281:A1 *328:27 1.60428e-05
12 *1283:A1 *1283:A2 0.000698193
13 *1283:A1 *1315:A1 0.000198911
14 *1283:A1 *308:28 0.000408794
15 *1283:A1 *308:48 0.000150781
16 *1283:A1 *353:10 8.02357e-05
17 *1299:A1 *1280:A1 4.4457e-05
18 *1299:A1 *1299:A2 0
19 *1299:A1 *1522:I 0.000500772
20 *1299:A1 *296:55 0.000519402
21 *1299:A1 *296:61 0.00072491
22 *1299:A1 *354:23 0.000125252
23 *142:25 *296:61 5.40307e-05
24 *142:25 *308:48 0.000186635
25 *142:25 *308:52 0.000328552
26 *142:25 *328:27 4.05503e-05
27 *142:25 *353:10 0.000259996
28 *142:36 *1280:A1 7.20921e-05
29 *142:36 *296:61 0.000717061
30 *142:36 *352:39 0
31 *1264:A3 *1299:A1 1.57479e-05
32 *1462:D *1299:A1 0.000419276
*RES
1 *1168:ZN *142:6 9 
2 *142:6 *1283:A1 13.888 
3 *142:6 *142:25 8.036 
4 *142:25 *1281:A1 4.812 
5 *142:25 *142:36 6.476 
6 *142:36 *1263:A1 26.632 
7 *142:36 *1299:A1 13.576 
*END

*D_NET *143 0.00306488
*CONN
*I *1218:A1 I *D gf180mcu_fd_sc_mcu7t5v0__oai22_1
*I *1222:A1 I *D gf180mcu_fd_sc_mcu7t5v0__oai21_1
*I *1214:A1 I *D gf180mcu_fd_sc_mcu7t5v0__aoi22_1
*I *1169:ZN O *D gf180mcu_fd_sc_mcu7t5v0__clkinv_1
*CAP
1 *1218:A1 4.05176e-05
2 *1222:A1 0.00012299
3 *1214:A1 0.000184233
4 *1169:ZN 7.22928e-05
5 *143:12 0.000524285
6 *143:8 0.000329873
7 *1214:A1 *188:18 0.00017139
8 *1214:A1 *384:14 0
9 *1218:A1 *1217:B1 0.000419276
10 *1218:A1 *1219:A2 0.00033778
11 *1222:A1 *1222:B 0.000446984
12 *1222:A1 *1225:A2 0.000130275
13 *143:8 *1215:A2 0
14 *143:8 *1218:B1 7.11788e-06
15 *143:8 *188:18 3.3835e-05
16 *143:8 *384:14 0
17 *143:12 *188:18 0.000244032
18 *143:12 *384:14 0
*RES
1 *1169:ZN *143:8 9.52 
2 *143:8 *143:12 2.08 
3 *143:12 *1214:A1 10.248 
4 *143:12 *1222:A1 10.768 
5 *143:8 *1218:A1 10.144 
*END

*D_NET *144 0.00654275
*CONN
*I *1214:B2 I *D gf180mcu_fd_sc_mcu7t5v0__aoi22_1
*I *1217:A1 I *D gf180mcu_fd_sc_mcu7t5v0__oai22_1
*I *1297:A1 I *D gf180mcu_fd_sc_mcu7t5v0__aoi21_1
*I *1170:ZN O *D gf180mcu_fd_sc_mcu7t5v0__clkinv_1
*CAP
1 *1214:B2 0.000199562
2 *1217:A1 0
3 *1297:A1 0.000844033
4 *1170:ZN 0
5 *144:25 0.000660375
6 *144:4 0.00130485
7 *1214:B2 *1217:A2 7.29199e-05
8 *1214:B2 *1219:A2 0.000312091
9 *1214:B2 *1221:A2 2.73715e-06
10 *1214:B2 *1222:B 0.000179194
11 *1214:B2 *1225:A2 0.000253241
12 *1214:B2 *188:18 0.000191674
13 *1214:B2 *190:10 1.17431e-05
14 *1297:A1 *1170:I 4.07478e-05
15 *1297:A1 *1224:A1 3.96072e-05
16 *1297:A1 *1224:A2 4.04794e-05
17 *1297:A1 *1225:B1 3.4596e-05
18 *1297:A1 *1409:I 0
19 *1297:A1 *1417:I 0.000188241
20 *1297:A1 *199:76 0
21 *1297:A1 *283:35 0.000131647
22 *1297:A1 *307:32 0.000188231
23 *1297:A1 *317:27 3.45588e-05
24 *144:25 *1170:I 3.42651e-05
25 *144:25 *1217:B1 1.41781e-05
26 *144:25 *1219:A1 4.4504e-06
27 *144:25 *1219:A2 4.2536e-05
28 *144:25 *1221:A2 5.47431e-06
29 *144:25 *1224:A1 0.000162538
30 *144:25 *283:35 0.0015423
31 *144:25 *326:76 6.49085e-06
*RES
1 *1170:ZN *144:4 4.5 
2 *144:4 *1297:A1 19.532 
3 *144:4 *144:25 5.824 
4 *144:25 *1217:A1 4.5 
5 *144:25 *1214:B2 16.308 
*END

*D_NET *145 0.00343982
*CONN
*I *1217:B2 I *D gf180mcu_fd_sc_mcu7t5v0__oai22_1
*I *1215:A1 I *D gf180mcu_fd_sc_mcu7t5v0__aoi22_1
*I *1171:ZN O *D gf180mcu_fd_sc_mcu7t5v0__clkinv_1
*CAP
1 *1217:B2 0.000129507
2 *1215:A1 0.00035575
3 *1171:ZN 0.000151407
4 *145:8 0.000636664
5 *1215:A1 *1215:B2 2.39167e-05
6 *1215:A1 *1224:A1 5.3492e-05
7 *1215:A1 *1294:A1 3.50983e-05
8 *1215:A1 *146:23 0.000159554
9 *1215:A1 *188:18 0.000592172
10 *1215:A1 *383:20 1.07369e-05
11 *1217:B2 *188:18 2.17565e-05
12 *145:8 *1172:I 3.42651e-05
13 *145:8 *1224:A1 0.000970001
14 *145:8 *146:10 0.000265501
15 *145:8 *146:23 0
*RES
1 *1171:ZN *145:8 11.6 
2 *145:8 *1215:A1 12.744 
3 *145:8 *1217:B2 9.936 
*END

*D_NET *146 0.00637207
*CONN
*I *1215:B2 I *D gf180mcu_fd_sc_mcu7t5v0__aoi22_1
*I *1218:B2 I *D gf180mcu_fd_sc_mcu7t5v0__oai22_1
*I *1301:A1 I *D gf180mcu_fd_sc_mcu7t5v0__aoi21_1
*I *1172:ZN O *D gf180mcu_fd_sc_mcu7t5v0__clkinv_1
*CAP
1 *1215:B2 2.24632e-05
2 *1218:B2 0.000189529
3 *1301:A1 0.000773812
4 *1172:ZN 0.000269139
5 *146:23 0.000556706
6 *146:10 0.00138767
7 *1215:B2 *199:76 0.000162991
8 *1215:B2 *383:20 1.71326e-05
9 *1218:B2 *1218:B1 0.000238178
10 *1218:B2 *1294:A1 4.04741e-05
11 *1218:B2 *188:18 2.17601e-05
12 *1301:A1 *1300:A2 4.33918e-05
13 *1301:A1 *1409:I 0
14 *1301:A1 *199:76 0
15 *146:10 *1172:I 4.07478e-05
16 *146:10 *1224:A1 2.46831e-05
17 *146:10 *1224:A4 6.04145e-05
18 *146:10 *199:76 0
19 *146:23 *1172:I 1.23682e-05
20 *146:23 *1224:A4 7.16472e-05
21 *146:23 *199:76 0.00198999
22 *1215:A1 *1215:B2 2.39167e-05
23 *1215:A1 *146:23 0.000159554
24 *145:8 *146:10 0.000265501
25 *145:8 *146:23 0
*RES
1 *1172:ZN *146:10 11.288 
2 *146:10 *1301:A1 14.512 
3 *146:10 *146:23 9.804 
4 *146:23 *1218:B2 15.476 
5 *146:23 *1215:B2 5.02 
*END

*D_NET *147 0.00338495
*CONN
*I *1212:A1 I *D gf180mcu_fd_sc_mcu7t5v0__oai22_1
*I *1303:A1 I *D gf180mcu_fd_sc_mcu7t5v0__aoi21_1
*I *1173:ZN O *D gf180mcu_fd_sc_mcu7t5v0__clkinv_1
*CAP
1 *1212:A1 0.000127223
2 *1303:A1 0.000565852
3 *1173:ZN 0
4 *147:4 0.000693075
5 *1212:A1 *1173:I 0.000122244
6 *1212:A1 *1207:B2 0.000713728
7 *1212:A1 *339:25 0
8 *1303:A1 *1173:I 0.000186474
9 *1303:A1 *1176:I 3.6966e-05
10 *1303:A1 *1207:B2 0.000419276
11 *1303:A1 *1211:A1 0
12 *1303:A1 *1223:A4 0.000197088
13 *1303:A1 *1309:A1 0.000125283
14 *1303:A1 *150:8 0.000134086
15 *1303:A1 *339:12 2.88366e-05
16 *1457:RN *1303:A1 3.48215e-05
*RES
1 *1173:ZN *147:4 4.5 
2 *147:4 *1303:A1 19.74 
3 *147:4 *1212:A1 6.476 
*END

*D_NET *148 0.00547292
*CONN
*I *1212:B2 I *D gf180mcu_fd_sc_mcu7t5v0__oai22_1
*I *1305:A1 I *D gf180mcu_fd_sc_mcu7t5v0__aoi21_1
*I *1174:ZN O *D gf180mcu_fd_sc_mcu7t5v0__clkinv_1
*CAP
1 *1212:B2 0.00103889
2 *1305:A1 0.000614763
3 *1174:ZN 0.000393408
4 *148:12 0.00204706
5 *1212:B2 *1207:B2 0.000288508
6 *1212:B2 *1210:A1 0
7 *1212:B2 *1213:A1 2.73715e-06
8 *1212:B2 *1223:A3 0
9 *1212:B2 *149:23 0.00013063
10 *1212:B2 *313:118 2.50821e-05
11 *1212:B2 *338:25 0
12 *1305:A1 *1306:A2 5.13977e-05
13 *1305:A1 *1307:A2 5.1908e-05
14 *1305:A1 *1307:B 0.000112665
15 *1305:A1 *306:35 2.66791e-05
16 *1305:A1 *306:41 5.31445e-05
17 *1305:A1 *313:103 0.000308262
18 *1305:A1 *313:118 7.58962e-05
19 *148:12 *1174:I 4.07478e-05
20 *148:12 *1175:I 6.72304e-06
21 *148:12 *1412:I 0
22 *148:12 *313:118 8.05715e-05
23 *1458:RN *1305:A1 0
24 *1458:RN *148:12 9.48851e-05
25 *1460:RN *1212:B2 2.89623e-05
*RES
1 *1174:ZN *148:12 11.808 
2 *148:12 *1305:A1 14.824 
3 *148:12 *1212:B2 16.8 
*END

*D_NET *149 0.0080031
*CONN
*I *1211:A1 I *D gf180mcu_fd_sc_mcu7t5v0__oai22_1
*I *1210:A1 I *D gf180mcu_fd_sc_mcu7t5v0__nand2_1
*I *1307:A1 I *D gf180mcu_fd_sc_mcu7t5v0__aoi21_1
*I *1175:ZN O *D gf180mcu_fd_sc_mcu7t5v0__clkinv_1
*CAP
1 *1211:A1 0.000394331
2 *1210:A1 0.000159668
3 *1307:A1 0.000301605
4 *1175:ZN 3.90058e-05
5 *149:23 0.00175237
6 *149:8 0.00153898
7 *1210:A1 *1210:A2 0.000188241
8 *1210:A1 *1213:A1 0.000288298
9 *1210:A1 *1213:A2 0.000203739
10 *1211:A1 *1210:A2 2.79455e-05
11 *1211:A1 *1211:B1 1.71326e-05
12 *1211:A1 *1211:B2 2.6374e-05
13 *1211:A1 *1213:A2 0
14 *1211:A1 *150:8 0
15 *1307:A1 *1459:CLK 0.0004162
16 *1307:A1 *1543:I 0.000798115
17 *1307:A1 *295:87 0.00019294
18 *1307:A1 *313:103 0.000224235
19 *149:8 *1543:I 0.000134086
20 *149:8 *313:103 8.35178e-06
21 *149:23 *1412:I 8.11055e-05
22 *149:23 *313:118 0.00020008
23 *149:23 *336:8 8.75966e-05
24 *1212:B2 *1210:A1 0
25 *1212:B2 *149:23 0.00013063
26 *1303:A1 *1211:A1 0
27 *1458:D *1307:A1 0.000414691
28 *1458:RN *149:8 0.000271764
29 *1458:RN *149:23 0.000105623
*RES
1 *1175:ZN *149:8 9.936 
2 *149:8 *1307:A1 14.408 
3 *149:8 *149:23 13.548 
4 *149:23 *1210:A1 15.476 
5 *149:23 *1211:A1 16.412 
*END

*D_NET *150 0.0022035
*CONN
*I *1211:B2 I *D gf180mcu_fd_sc_mcu7t5v0__oai22_1
*I *1309:A1 I *D gf180mcu_fd_sc_mcu7t5v0__aoi21_1
*I *1176:ZN O *D gf180mcu_fd_sc_mcu7t5v0__clkinv_1
*CAP
1 *1211:B2 0.000251244
2 *1309:A1 0.000235806
3 *1176:ZN 6.7526e-05
4 *150:8 0.000554577
5 *1211:B2 *1303:A2 9.7618e-05
6 *1211:B2 *1303:B 0.000121726
7 *1309:A1 *1303:A2 0.000185845
8 *1309:A1 *306:21 0.000100557
9 *150:8 *1303:A2 0.000107648
10 *1211:A1 *1211:B2 2.6374e-05
11 *1211:A1 *150:8 0
12 *1303:A1 *1309:A1 0.000125283
13 *1303:A1 *150:8 0.000134086
14 *1457:D *1309:A1 0.000125283
15 *1457:RN *1211:B2 5.37445e-05
16 *1457:RN *1309:A1 1.61847e-05
*RES
1 *1176:ZN *150:8 9.936 
2 *150:8 *1309:A1 11.496 
3 *150:8 *1211:B2 11.184 
*END

*D_NET *151 0.00736241
*CONN
*I *1314:A1 I *D gf180mcu_fd_sc_mcu7t5v0__oai21_1
*I *1199:B2 I *D gf180mcu_fd_sc_mcu7t5v0__aoi22_1
*I *1205:A1 I *D gf180mcu_fd_sc_mcu7t5v0__oai222_1
*I *1177:ZN O *D gf180mcu_fd_sc_mcu7t5v0__clkinv_1
*CAP
1 *1314:A1 0
2 *1199:B2 0.000265458
3 *1205:A1 0.000122554
4 *1177:ZN 0.000291313
5 *151:22 0.00226033
6 *151:12 0.00216363
7 *1199:B2 *1199:B1 0.000124391
8 *1199:B2 *1200:A1 5.40727e-05
9 *1199:B2 *1200:C 0.000334704
10 *1199:B2 *1203:A2 8.16884e-06
11 *1199:B2 *1206:A2 0.000301229
12 *1205:A1 *1199:B1 5.24296e-05
13 *1205:A1 *1206:A2 6.03278e-05
14 *1205:A1 *1206:A4 3.44395e-05
15 *151:12 *1177:I 9.09749e-05
16 *151:12 *1314:B 6.80911e-05
17 *151:12 *1510:I 3.19288e-05
18 *151:12 *330:39 0.000554595
19 *151:22 *1300:A1 3.27889e-05
20 *151:22 *1510:I 1.96666e-05
21 *151:22 *330:39 0.00035721
22 *1455:D *151:12 0.000134102
*RES
1 *1177:ZN *151:12 7.412 
2 *151:12 *151:22 24.732 
3 *151:22 *1205:A1 9.936 
4 *151:22 *1199:B2 12.12 
5 *151:12 *1314:A1 4.5 
*END

*D_NET *152 0.00672664
*CONN
*I *1205:B2 I *D gf180mcu_fd_sc_mcu7t5v0__oai222_1
*I *1201:B2 I *D gf180mcu_fd_sc_mcu7t5v0__aoi221_1
*I *1316:A1 I *D gf180mcu_fd_sc_mcu7t5v0__oai21_1
*I *1178:ZN O *D gf180mcu_fd_sc_mcu7t5v0__clkinv_1
*CAP
1 *1205:B2 0.000411637
2 *1201:B2 0
3 *1316:A1 0.000292995
4 *1178:ZN 9.5252e-05
5 *152:25 0.00148088
6 *152:10 0.00145749
7 *1205:B2 *1201:B1 0.000370419
8 *1205:B2 *1202:A2 0.00016627
9 *1205:B2 *1205:B1 0.000139728
10 *1205:B2 *153:27 0.000148865
11 *1205:B2 *375:6 3.4596e-05
12 *1316:A1 *1195:A2 0.000249521
13 *1316:A1 *1195:A4 0
14 *1316:A1 *1316:B 0.000203739
15 *1316:A1 *1319:A2 1.32276e-05
16 *1316:A1 *305:58 1.78817e-06
17 *1316:A1 *305:62 0
18 *1316:A1 *331:8 0
19 *1316:A1 *333:8 1.12327e-05
20 *152:10 *1195:A1 0
21 *152:10 *1319:A2 1.57245e-05
22 *152:10 *1319:B 0.000115856
23 *152:25 *1195:A1 5.90026e-05
24 *152:25 *1195:A2 0.000159517
25 *152:25 *1195:A4 0
26 *152:25 *1196:A1 0
27 *152:25 *1196:A2 0.000147904
28 *152:25 *1197:A2 1.02007e-05
29 *152:25 *1197:B 0.000497696
30 *152:25 *1201:B1 1.07369e-05
31 *152:25 *1202:A2 5.28859e-05
32 *152:25 *1317:I0 6.03497e-05
33 *152:25 *153:27 0.000412385
34 *152:25 *330:39 0
35 *1452:D *1316:A1 0.000106745
*RES
1 *1178:ZN *152:10 14.436 
2 *152:10 *1316:A1 7.62 
3 *152:10 *152:25 10.296 
4 *152:25 *1201:B2 4.5 
5 *152:25 *1205:B2 8.972 
*END

*D_NET *153 0.00906509
*CONN
*I *1203:B2 I *D gf180mcu_fd_sc_mcu7t5v0__aoi221_1
*I *1205:C2 I *D gf180mcu_fd_sc_mcu7t5v0__oai222_1
*I *1319:A1 I *D gf180mcu_fd_sc_mcu7t5v0__oai21_1
*I *1179:ZN O *D gf180mcu_fd_sc_mcu7t5v0__clkinv_1
*CAP
1 *1203:B2 0.000197851
2 *1205:C2 4.30974e-05
3 *1319:A1 0.000167678
4 *1179:ZN 0
5 *153:27 0.00146755
6 *153:4 0.00139428
7 *1203:B2 *1199:B1 5.75011e-06
8 *1203:B2 *1202:A2 0.000560736
9 *1203:B2 *179:16 0.000324452
10 *1203:B2 *318:56 0.000113907
11 *1203:B2 *375:10 0.000427061
12 *1205:C2 *318:56 8.0566e-05
13 *1205:C2 *375:10 0.000367033
14 *1319:A1 *1319:A2 4.08012e-05
15 *153:27 *1195:A3 0
16 *153:27 *1195:A4 0.000437828
17 *153:27 *1198:A1 0.000512364
18 *153:27 *1205:B1 0.000631684
19 *153:27 *1317:I0 0.000323777
20 *153:27 *292:66 0.000538294
21 *153:27 *305:62 0.000869124
22 *1205:B2 *153:27 0.000148865
23 *1452:D *1319:A1 0
24 *152:25 *153:27 0.000412385
*RES
1 *1179:ZN *153:4 4.5 
2 *153:4 *1319:A1 14.852 
3 *153:4 *153:27 19.58 
4 *153:27 *1205:C2 9.936 
5 *153:27 *1203:B2 12.12 
*END

*D_NET *154 0.0032398
*CONN
*I *1322:A1 I *D gf180mcu_fd_sc_mcu7t5v0__oai21_1
*I *1199:A2 I *D gf180mcu_fd_sc_mcu7t5v0__aoi22_1
*I *1200:A2 I *D gf180mcu_fd_sc_mcu7t5v0__oai221_1
*I *1180:ZN O *D gf180mcu_fd_sc_mcu7t5v0__clkinv_1
*CAP
1 *1322:A1 0.000143423
2 *1199:A2 0.000149984
3 *1200:A2 0.000266928
4 *1180:ZN 9.31662e-05
5 *154:10 0.000453278
6 *154:8 0.000272955
7 *1199:A2 *1194:A2 6.56285e-05
8 *1199:A2 *1200:A1 0.000428493
9 *1199:A2 *1450:CLK 7.96342e-05
10 *1200:A2 *1200:A1 1.12327e-05
11 *1200:A2 *1203:A2 1.55426e-05
12 *1200:A2 *328:34 1.6659e-05
13 *1322:A1 *1321:A2 0.000185538
14 *1322:A1 *1450:CLK 0.00027168
15 *1322:A1 *253:65 0.00018553
16 *1322:A1 *292:72 0.000115986
17 *1322:A1 *328:34 0
18 *154:8 *1194:A2 0.000105621
19 *154:8 *1450:CLK 0.000378517
*RES
1 *1180:ZN *154:8 5.748 
2 *154:8 *154:10 0.312 
3 *154:10 *1200:A2 6.58 
4 *154:10 *1199:A2 6.684 
5 *154:8 *1322:A1 15.372 
*END

*D_NET *155 0.00192701
*CONN
*I *1201:A2 I *D gf180mcu_fd_sc_mcu7t5v0__aoi221_1
*I *1197:A1 I *D gf180mcu_fd_sc_mcu7t5v0__aoi21_1
*I *1181:ZN O *D gf180mcu_fd_sc_mcu7t5v0__clkinv_1
*CAP
1 *1201:A2 0.000233716
2 *1197:A1 8.77334e-06
3 *1181:ZN 0.000223528
4 *155:8 0.000466018
5 *1197:A1 *1197:B 0.000113016
6 *1197:A1 *1202:A2 0.000113016
7 *1201:A2 *1194:A2 1.70688e-05
8 *1201:A2 *1197:B 4.68812e-05
9 *1201:A2 *1202:A2 4.78192e-05
10 *1201:A2 *1204:A1 0.000191446
11 *1201:A2 *1206:A1 0.000406983
12 *155:8 *1197:B 1.25277e-05
13 *155:8 *1201:C 4.62207e-05
*RES
1 *1181:ZN *155:8 10.56 
2 *155:8 *1197:A1 9.312 
3 *155:8 *1201:A2 11.08 
*END

*D_NET *156 0.000956644
*CONN
*I *1324:A2 I *D gf180mcu_fd_sc_mcu7t5v0__nor3_1
*I *1182:ZN O *D gf180mcu_fd_sc_mcu7t5v0__clkinv_1
*CAP
1 *1324:A2 0.000182507
2 *1182:ZN 0.000182507
3 *1324:A2 *1231:A2 0
4 *1324:A2 *1324:A3 0.000231383
5 *1324:A2 *372:10 0.000360248
*RES
1 *1182:ZN *1324:A2 10.768 
*END

*D_NET *157 0.004246
*CONN
*I *1343:A2 I *D gf180mcu_fd_sc_mcu7t5v0__oai32_1
*I *1245:A2 I *D gf180mcu_fd_sc_mcu7t5v0__nor3_1
*I *1268:A2 I *D gf180mcu_fd_sc_mcu7t5v0__xor2_1
*I *1183:ZN O *D gf180mcu_fd_sc_mcu7t5v0__clkinv_1
*CAP
1 *1343:A2 0.000206714
2 *1245:A2 9.09993e-06
3 *1268:A2 0.00059484
4 *1183:ZN 0.000505495
5 *157:24 0.000305159
6 *1245:A2 *1245:A3 1.71326e-05
7 *1245:A2 *1269:A2 9.21455e-05
8 *1268:A2 *297:61 0
9 *1268:A2 *315:32 2.80993e-05
10 *1268:A2 *315:43 8.69612e-05
11 *1268:A2 *360:8 0
12 *1268:A2 *360:23 0
13 *1343:A2 *1245:A3 0.000591484
14 *1343:A2 *1268:A1 0.00126446
15 *1343:A2 *1269:A2 0
16 *1343:A2 *1343:A3 0.000137631
17 *1343:A2 *1343:B1 6.18411e-06
18 *1343:A2 *301:12 0.000107364
19 *157:24 *1268:A1 7.17602e-05
20 *157:24 *1269:A2 0.000134833
21 *157:24 *360:23 2.24654e-05
22 *1495:D *1343:A2 0
23 *1500:SETN *1268:A2 6.41721e-05
*RES
1 *1183:ZN *1268:A2 21.536 
2 *1268:A2 *157:24 5.748 
3 *157:24 *1245:A2 4.916 
4 *157:24 *1343:A2 8.868 
*END

*D_NET *158 0.0043903
*CONN
*I *1237:A2 I *D gf180mcu_fd_sc_mcu7t5v0__nor3_1
*I *1236:A1 I *D gf180mcu_fd_sc_mcu7t5v0__nor2_1
*I *1238:A2 I *D gf180mcu_fd_sc_mcu7t5v0__or3_1
*I *1184:ZN O *D gf180mcu_fd_sc_mcu7t5v0__clkinv_1
*CAP
1 *1237:A2 0.000147641
2 *1236:A1 0
3 *1238:A2 1.79935e-05
4 *1184:ZN 0.000206864
5 *158:17 0.000296482
6 *158:6 0.000373698
7 *1237:A2 *1237:A3 0.000410048
8 *1237:A2 *319:30 0.00057304
9 *1237:A2 *358:12 0.000185295
10 *1237:A2 *358:23 0.000100557
11 *1238:A2 *1272:A2 0.000185295
12 *1238:A2 *1350:A1 5.61634e-05
13 *158:6 *1249:B 0.000204661
14 *158:6 *1272:A2 0.00134546
15 *158:6 *1350:A1 2.77501e-05
16 *158:17 *1238:A3 0.000179953
17 *158:17 *358:23 7.93961e-05
*RES
1 *1184:ZN *158:6 8.14 
2 *158:6 *1238:A2 5.02 
3 *158:6 *158:17 6.06 
4 *158:17 *1236:A1 9 
5 *158:17 *1237:A2 11.496 
*END

*D_NET *159 0.0017518
*CONN
*I *1243:A2 I *D gf180mcu_fd_sc_mcu7t5v0__and4_1
*I *1185:ZN O *D gf180mcu_fd_sc_mcu7t5v0__clkinv_1
*CAP
1 *1243:A2 0.00017942
2 *1185:ZN 0.00017942
3 *1243:A2 *1243:A1 0.000122244
4 *1243:A2 *1249:B 0.00106072
5 *1243:A2 *1502:D 0.000122486
6 *1243:A2 *1502:CLK 8.75081e-05
*RES
1 *1185:ZN *1243:A2 12.328 
*END

*D_NET *160 0.00258834
*CONN
*I *1341:A1 I *D gf180mcu_fd_sc_mcu7t5v0__oai22_1
*I *1186:ZN O *D gf180mcu_fd_sc_mcu7t5v0__clkinv_1
*CAP
1 *1341:A1 0.000563137
2 *1186:ZN 0.000563137
3 *1341:A1 *1186:I 0.000287875
4 *1341:A1 *1341:B2 8.54378e-05
5 *1341:A1 *293:24 3.46177e-05
6 *1341:A1 *293:26 1.59809e-05
7 *1341:A1 *293:30 1.45436e-05
8 *1341:A1 *310:36 0.000964239
9 *1341:A1 *319:30 1.75593e-05
10 *1496:D *1341:A1 4.18157e-05
*RES
1 *1186:ZN *1341:A1 22.992 
*END

*D_NET *161 0.000218196
*CONN
*I *1343:B2 I *D gf180mcu_fd_sc_mcu7t5v0__oai32_1
*I *1187:ZN O *D gf180mcu_fd_sc_mcu7t5v0__clkinv_1
*CAP
1 *1343:B2 0.000109098
2 *1187:ZN 0.000109098
*RES
1 *1187:ZN *1343:B2 9.936 
*END

*D_NET *162 0.0015349
*CONN
*I *1342:B2 I *D gf180mcu_fd_sc_mcu7t5v0__oai22_1
*I *1188:ZN O *D gf180mcu_fd_sc_mcu7t5v0__clkinv_1
*CAP
1 *1342:B2 0.000171692
2 *1188:ZN 0.000171692
3 *1342:B2 *1186:I 0.000521005
4 *1342:B2 *1341:B1 0.000423669
5 *1342:B2 *1342:A1 3.59844e-05
6 *1342:B2 *270:22 0.000197059
7 *1342:B2 *366:12 1.05283e-05
8 *1493:RN *1342:B2 3.26924e-06
*RES
1 *1188:ZN *1342:B2 20.288 
*END

*D_NET *163 0.00155494
*CONN
*I *1341:B2 I *D gf180mcu_fd_sc_mcu7t5v0__oai22_1
*I *1189:ZN O *D gf180mcu_fd_sc_mcu7t5v0__clkinv_1
*CAP
1 *1341:B2 0.000471404
2 *1189:ZN 0.000471404
3 *1341:B2 *1186:I 0
4 *1341:B2 *1342:A2 3.83949e-05
5 *1341:B2 *1465:CLK 0.000410048
6 *1341:A1 *1341:B2 8.54378e-05
7 *1493:RN *1341:B2 3.64364e-05
8 *1496:D *1341:B2 4.18157e-05
*RES
1 *1189:ZN *1341:B2 12.952 
*END

*D_NET *164 0.00124054
*CONN
*I *1226:A2 I *D gf180mcu_fd_sc_mcu7t5v0__and2_1
*I *1228:A4 I *D gf180mcu_fd_sc_mcu7t5v0__nand4_1
*I *1190:ZN O *D gf180mcu_fd_sc_mcu7t5v0__clkinv_1
*CAP
1 *1226:A2 0.000129886
2 *1228:A4 0
3 *1190:ZN 7.29458e-05
4 *164:10 0.000202832
5 *1226:A2 *1226:A1 0.000184188
6 *1226:A2 *1228:A1 1.23682e-05
7 *1226:A2 *1228:A2 0.000159517
8 *164:10 *1228:A3 8.05935e-05
9 *164:10 *300:31 3.118e-05
10 *164:10 *377:16 0.000367033
*RES
1 *1190:ZN *164:10 14.644 
2 *164:10 *1228:A4 4.5 
3 *164:10 *1226:A2 6.164 
*END

*D_NET *165 0.00831432
*CONN
*I *1363:A1 I *D gf180mcu_fd_sc_mcu7t5v0__nor2_1
*I *1364:A1 I *D gf180mcu_fd_sc_mcu7t5v0__and2_1
*I *1208:A2 I *D gf180mcu_fd_sc_mcu7t5v0__nand2_1
*I *1207:A2 I *D gf180mcu_fd_sc_mcu7t5v0__oai22_1
*I *1191:ZN O *D gf180mcu_fd_sc_mcu7t5v0__clkinv_1
*CAP
1 *1363:A1 0
2 *1364:A1 0.000195779
3 *1208:A2 0.000122997
4 *1207:A2 0
5 *1191:ZN 0
6 *165:24 0.000335456
7 *165:6 0.000703202
8 *165:4 0.000719882
9 *1208:A2 *1207:A1 0.000398395
10 *1208:A2 *1209:A2 9.7683e-06
11 *1208:A2 *1225:B1 0.000203364
12 *1208:A2 *339:25 4.07478e-05
13 *1364:A1 *1220:A2 2.42026e-05
14 *1364:A1 *1363:A2 0.000179963
15 *1364:A1 *280:10 7.60693e-05
16 *165:6 *1207:B1 1.57479e-05
17 *165:6 *1209:A1 0.000188422
18 *165:6 *1209:A2 2.24654e-05
19 *165:6 *1212:A2 0.00409914
20 *165:6 *1220:A1 0.000496338
21 *165:6 *1225:B1 2.36218e-05
22 *165:6 *1397:I 0.00012524
23 *165:6 *180:6 0.000260037
24 *1443:RN *165:6 7.34857e-05
*RES
1 *1191:ZN *165:4 4.5 
2 *165:4 *165:6 11.336 
3 *165:6 *1207:A2 4.5 
4 *165:6 *1208:A2 6.372 
5 *165:4 *165:24 5.436 
6 *165:24 *1364:A1 11.08 
7 *165:24 *1363:A1 9 
*END

*D_NET *166 0.00159759
*CONN
*I *1360:A1 I *D gf180mcu_fd_sc_mcu7t5v0__nand2_1
*I *1207:B1 I *D gf180mcu_fd_sc_mcu7t5v0__oai22_1
*I *1192:ZN O *D gf180mcu_fd_sc_mcu7t5v0__clkinv_1
*CAP
1 *1360:A1 3.58447e-05
2 *1207:B1 0.000300609
3 *1192:ZN 9.7864e-05
4 *166:6 0.000434318
5 *1207:B1 *1207:B2 0
6 *1207:B1 *1209:A1 2.24654e-05
7 *1207:B1 *1209:A2 0.000336439
8 *1207:B1 *1212:B1 4.57914e-05
9 *1207:B1 *1213:B 0.000113016
10 *1207:B1 *1220:A1 0.000144665
11 *1360:A1 *1220:A1 3.3698e-05
12 *166:6 *381:18 1.71326e-05
13 *165:6 *1207:B1 1.57479e-05
*RES
1 *1192:ZN *166:6 5.436 
2 *166:6 *1207:B1 7.724 
3 *166:6 *1360:A1 5.02 
*END

*D_NET *167 0.000883332
*CONN
*I *1196:A1 I *D gf180mcu_fd_sc_mcu7t5v0__nand2_1
*I *1194:ZN O *D gf180mcu_fd_sc_mcu7t5v0__nor3_1
*CAP
1 *1196:A1 0.000139501
2 *1194:ZN 0.000139501
3 *1196:A1 *1196:A2 1.71326e-05
4 *1196:A1 *1197:A2 9.56527e-05
5 *1196:A1 *330:45 0.000491544
6 *152:25 *1196:A1 0
*RES
1 *1194:ZN *1196:A1 10.664 
*END

*D_NET *168 0.00269492
*CONN
*I *1196:A2 I *D gf180mcu_fd_sc_mcu7t5v0__nand2_1
*I *1195:ZN O *D gf180mcu_fd_sc_mcu7t5v0__nor4_1
*CAP
1 *1196:A2 0.000486245
2 *1195:ZN 0.000486245
3 *1196:A2 *1195:A1 9.09749e-05
4 *1196:A2 *305:70 0.000480985
5 *1196:A2 *305:83 0.00085638
6 *1196:A2 *330:39 7.63249e-05
7 *1196:A2 *330:45 3.12524e-05
8 *1196:A1 *1196:A2 1.71326e-05
9 *1455:D *1196:A2 2.14739e-05
10 *152:25 *1196:A2 0.000147904
*RES
1 *1195:ZN *1196:A2 14.616 
*END

*D_NET *169 0.000497991
*CONN
*I *1197:A2 I *D gf180mcu_fd_sc_mcu7t5v0__aoi21_1
*I *1196:ZN O *D gf180mcu_fd_sc_mcu7t5v0__nand2_1
*CAP
1 *1197:A2 0.000169805
2 *1196:ZN 0.000169805
3 *1197:A2 *1194:A2 6.18411e-06
4 *1197:A2 *1202:A2 4.63426e-05
5 *1197:A2 *328:27 0
6 *1196:A1 *1197:A2 9.56527e-05
7 *152:25 *1197:A2 1.02007e-05
*RES
1 *1196:ZN *1197:A2 10.456 
*END

*D_NET *170 0.00198618
*CONN
*I *1206:A1 I *D gf180mcu_fd_sc_mcu7t5v0__nor4_1
*I *1197:ZN O *D gf180mcu_fd_sc_mcu7t5v0__aoi21_1
*CAP
1 *1206:A1 0.000264463
2 *1197:ZN 0.000264463
3 *1206:A1 *1202:A2 0.00052354
4 *1206:A1 *1204:A1 0.000379117
5 *1206:A1 *1206:A2 3.4596e-05
6 *1206:A1 *179:16 0.000113016
7 *1201:A2 *1206:A1 0.000406983
*RES
1 *1197:ZN *1206:A1 13.368 
*END

*D_NET *171 0.000645345
*CONN
*I *1201:C I *D gf180mcu_fd_sc_mcu7t5v0__aoi221_1
*I *1198:Z O *D gf180mcu_fd_sc_mcu7t5v0__xor2_1
*CAP
1 *1201:C 0.000163675
2 *1198:Z 0.000163675
3 *1201:C *1197:B 0.000271774
4 *155:8 *1201:C 4.62207e-05
*RES
1 *1198:Z *1201:C 19.56 
*END

*D_NET *172 0.000928635
*CONN
*I *1200:C I *D gf180mcu_fd_sc_mcu7t5v0__oai221_1
*I *1199:ZN O *D gf180mcu_fd_sc_mcu7t5v0__aoi22_1
*CAP
1 *1200:C 0.000243666
2 *1199:ZN 0.000243666
3 *1200:C *1200:A1 1.23682e-05
4 *1200:C *1203:A2 8.10026e-05
5 *1200:C *370:16 0
6 *1199:B2 *1200:C 0.000334704
7 *135:10 *1200:C 1.32276e-05
*RES
1 *1199:ZN *1200:C 11.288 
*END

*D_NET *173 0.00271626
*CONN
*I *1206:A2 I *D gf180mcu_fd_sc_mcu7t5v0__nor4_1
*I *1200:ZN O *D gf180mcu_fd_sc_mcu7t5v0__oai221_1
*CAP
1 *1206:A2 0.000278115
2 *1200:ZN 0.000278115
3 *1206:A2 *1199:B1 8.77606e-06
4 *1206:A2 *1204:A1 0.000395147
5 *1206:A2 *1206:A4 0.000321529
6 *1206:A2 *1513:I 0
7 *1206:A2 *179:16 0.00032511
8 *1206:A2 *318:56 0.000713311
9 *1199:B2 *1206:A2 0.000301229
10 *1205:A1 *1206:A2 6.03278e-05
11 *1206:A1 *1206:A2 3.4596e-05
*RES
1 *1200:ZN *1206:A2 22.68 
*END

*D_NET *174 0.0024372
*CONN
*I *1204:A1 I *D gf180mcu_fd_sc_mcu7t5v0__nand2_1
*I *1201:ZN O *D gf180mcu_fd_sc_mcu7t5v0__aoi221_1
*CAP
1 *1204:A1 0.000500081
2 *1201:ZN 0.000500081
3 *1204:A1 *1194:A2 0.000266678
4 *1204:A1 *1203:A2 6.8199e-07
5 *1204:A1 *1204:A2 4.67771e-06
6 *1204:A1 *1206:A3 0.00011897
7 *1204:A1 *179:16 5.89368e-05
8 *1200:B2 *1204:A1 2.13874e-05
9 *1201:A2 *1204:A1 0.000191446
10 *1206:A1 *1204:A1 0.000379117
11 *1206:A2 *1204:A1 0.000395147
*RES
1 *1201:ZN *1204:A1 15.24 
*END

*D_NET *175 0.000975546
*CONN
*I *1203:C I *D gf180mcu_fd_sc_mcu7t5v0__aoi221_1
*I *1202:Z O *D gf180mcu_fd_sc_mcu7t5v0__xor2_1
*CAP
1 *1203:C 0.000374027
2 *1202:Z 0.000374027
3 *1203:C *1161:I 4.57914e-05
4 *1203:C *1202:A2 0
5 *1203:C *1513:I 0
6 *1203:C *179:16 0.000122076
7 *135:10 *1203:C 5.96239e-05
*RES
1 *1202:Z *1203:C 12.328 
*END

*D_NET *176 0.000623061
*CONN
*I *1204:A2 I *D gf180mcu_fd_sc_mcu7t5v0__nand2_1
*I *1203:ZN O *D gf180mcu_fd_sc_mcu7t5v0__aoi221_1
*CAP
1 *1204:A2 0.000126921
2 *1203:ZN 0.000126921
3 *1204:A2 *1206:A3 1.12327e-05
4 *1204:A2 *179:16 2.47569e-05
5 *1200:B2 *1204:A2 0.000328552
6 *1204:A1 *1204:A2 4.67771e-06
*RES
1 *1203:ZN *1204:A2 10.248 
*END

*D_NET *177 0.000564635
*CONN
*I *1206:A3 I *D gf180mcu_fd_sc_mcu7t5v0__nor4_1
*I *1204:ZN O *D gf180mcu_fd_sc_mcu7t5v0__nand2_1
*CAP
1 *1206:A3 9.43586e-05
2 *1204:ZN 9.43586e-05
3 *1206:A3 *1206:A4 0.000245715
4 *1204:A1 *1206:A3 0.00011897
5 *1204:A2 *1206:A3 1.12327e-05
*RES
1 *1204:ZN *1206:A3 10.04 
*END

*D_NET *178 0.00127404
*CONN
*I *1206:A4 I *D gf180mcu_fd_sc_mcu7t5v0__nor4_1
*I *1205:ZN O *D gf180mcu_fd_sc_mcu7t5v0__oai222_1
*CAP
1 *1206:A4 0.00022351
2 *1205:ZN 0.00022351
3 *1206:A4 *1194:A2 4.07478e-05
4 *1206:A4 *318:56 0.000154861
5 *1206:A4 *328:34 2.97325e-05
6 *1205:A1 *1206:A4 3.44395e-05
7 *1206:A2 *1206:A4 0.000321529
8 *1206:A3 *1206:A4 0.000245715
*RES
1 *1205:ZN *1206:A4 20.08 
*END

*D_NET *179 0.0087561
*CONN
*I *1235:A1 I *D gf180mcu_fd_sc_mcu7t5v0__nor3_1
*I *1233:A1 I *D gf180mcu_fd_sc_mcu7t5v0__nor3_1
*I *1538:I I *D gf180mcu_fd_sc_mcu7t5v0__clkbuf_2
*I *1231:A1 I *D gf180mcu_fd_sc_mcu7t5v0__nor4_1
*I *1206:ZN O *D gf180mcu_fd_sc_mcu7t5v0__nor4_1
*CAP
1 *1235:A1 0.0001926
2 *1233:A1 0.000347109
3 *1538:I 0
4 *1231:A1 0.000665253
5 *1206:ZN 0.000479938
6 *179:38 0.00102947
7 *179:18 0.000974701
8 *179:16 0.00127914
9 *1231:A1 *1231:A2 0.000422972
10 *1231:A1 *302:10 0
11 *1231:A1 *325:27 0.000100342
12 *1231:A1 *372:36 0
13 *1233:A1 *1233:A2 0.000108139
14 *1233:A1 *1235:A2 4.76231e-05
15 *1233:A1 *300:25 0.000145417
16 *1233:A1 *370:16 5.94083e-05
17 *1235:A1 *1235:A2 0.000282191
18 *1235:A1 *1235:A3 5.29249e-05
19 *1235:A1 *325:27 5.68596e-05
20 *179:16 *1202:A2 0.00069948
21 *179:18 *1203:B1 0
22 *179:18 *325:27 0.000145803
23 *179:38 *1203:A2 0
24 *179:38 *1203:B1 0
25 *179:38 *1235:A3 1.95034e-05
26 *179:38 *1513:I 0
27 *179:38 *325:27 0.000278822
28 *1203:A1 *179:16 0
29 *1203:B2 *179:16 0.000324452
30 *1203:C *179:16 0.000122076
31 *1204:A1 *179:16 5.89368e-05
32 *1204:A2 *179:16 2.47569e-05
33 *1206:A1 *179:16 0.000113016
34 *1206:A2 *179:16 0.00032511
35 *1234:A1 *179:38 0.000261696
36 *1484:D *1235:A1 0.000130148
37 *1485:D *1233:A1 8.21146e-06
38 *135:10 *179:16 0
*RES
1 *1206:ZN *179:16 14.928 
2 *179:16 *179:18 2.6 
3 *179:18 *1231:A1 14.616 
4 *179:18 *1538:I 9 
5 *179:16 *179:38 4.888 
6 *179:38 *1233:A1 12.016 
7 *179:38 *1235:A1 11.184 
*END

*D_NET *180 0.00234333
*CONN
*I *1209:A1 I *D gf180mcu_fd_sc_mcu7t5v0__and2_1
*I *1213:C I *D gf180mcu_fd_sc_mcu7t5v0__aoi211_1
*I *1207:ZN O *D gf180mcu_fd_sc_mcu7t5v0__oai22_1
*CAP
1 *1209:A1 1.82119e-05
2 *1213:C 0.000385566
3 *1207:ZN 4.36838e-05
4 *180:6 0.000447462
5 *1209:A1 *1209:A2 2.91549e-05
6 *1213:C *1212:A2 3.48215e-05
7 *1213:C *1212:B1 0.000129132
8 *1213:C *1213:B 0.000289333
9 *1213:C *1220:A2 0.000349456
10 *1213:C *379:12 5.07201e-05
11 *180:6 *1209:A2 9.48668e-05
12 *1207:B1 *1209:A1 2.24654e-05
13 *165:6 *1209:A1 0.000188422
14 *165:6 *180:6 0.000260037
*RES
1 *1207:ZN *180:6 5.228 
2 *180:6 *1213:C 17.556 
3 *180:6 *1209:A1 5.02 
*END

*D_NET *181 0.0014087
*CONN
*I *1209:A2 I *D gf180mcu_fd_sc_mcu7t5v0__and2_1
*I *1208:ZN O *D gf180mcu_fd_sc_mcu7t5v0__nand2_1
*CAP
1 *1209:A2 0.00024132
2 *1208:ZN 0.00024132
3 *1209:A2 *1207:A1 0.000103221
4 *1209:A2 *1212:A2 0.000278752
5 *1209:A2 *1213:B 5.13977e-05
6 *1207:B1 *1209:A2 0.000336439
7 *1208:A2 *1209:A2 9.7683e-06
8 *1209:A1 *1209:A2 2.91549e-05
9 *165:6 *1209:A2 2.24654e-05
10 *180:6 *1209:A2 9.48668e-05
*RES
1 *1208:ZN *1209:A2 11.808 
*END

*D_NET *182 0.00900965
*CONN
*I *1220:A1 I *D gf180mcu_fd_sc_mcu7t5v0__oai211_1
*I *1209:Z O *D gf180mcu_fd_sc_mcu7t5v0__and2_1
*CAP
1 *1220:A1 0.0015132
2 *1209:Z 0.0015132
3 *1220:A1 *1212:A2 1.32276e-05
4 *1220:A1 *1212:B1 0
5 *1220:A1 *1220:A2 0.000485552
6 *1220:A1 *1220:B 4.07478e-05
7 *1220:A1 *1225:A2 1.23682e-05
8 *1220:A1 *1225:B1 0
9 *1220:A1 *1361:A2 0.00196538
10 *1220:A1 *1397:I 3.42651e-05
11 *1220:A1 *1534:I 0.000492195
12 *1220:A1 *283:12 0.00142695
13 *1220:A1 *381:18 0
14 *1220:A1 *382:8 5.47431e-06
15 *1207:B1 *1220:A1 0.000144665
16 *1360:A1 *1220:A1 3.3698e-05
17 *1443:RN *1220:A1 0.000566888
18 *1444:RN *1220:A1 0.000265501
19 *165:6 *1220:A1 0.000496338
*RES
1 *1209:Z *1220:A1 28.136 
*END

*D_NET *183 0.000967251
*CONN
*I *1213:A1 I *D gf180mcu_fd_sc_mcu7t5v0__aoi211_1
*I *1210:ZN O *D gf180mcu_fd_sc_mcu7t5v0__nand2_1
*CAP
1 *1213:A1 0.000177641
2 *1210:ZN 0.000177641
3 *1213:A1 *1207:B2 0
4 *1213:A1 *1210:A2 2.14739e-05
5 *1213:A1 *1212:B1 3.80299e-05
6 *1213:A1 *1213:A2 0.000139186
7 *1213:A1 *1220:A2 0.000122244
8 *1210:A1 *1213:A1 0.000288298
9 *1212:B2 *1213:A1 2.73715e-06
*RES
1 *1210:ZN *1213:A1 11.08 
*END

*D_NET *184 0.000970562
*CONN
*I *1213:A2 I *D gf180mcu_fd_sc_mcu7t5v0__aoi211_1
*I *1211:ZN O *D gf180mcu_fd_sc_mcu7t5v0__oai22_1
*CAP
1 *1213:A2 0.000287763
2 *1211:ZN 0.000287763
3 *1213:A2 *1211:B1 0
4 *1213:A2 *380:25 5.21102e-05
5 *1210:A1 *1213:A2 0.000203739
6 *1211:A1 *1213:A2 0
7 *1213:A1 *1213:A2 0.000139186
*RES
1 *1211:ZN *1213:A2 11.912 
*END

*D_NET *185 0.00144657
*CONN
*I *1213:B I *D gf180mcu_fd_sc_mcu7t5v0__aoi211_1
*I *1212:ZN O *D gf180mcu_fd_sc_mcu7t5v0__oai22_1
*CAP
1 *1213:B 0.000238366
2 *1212:ZN 0.000238366
3 *1213:B *1207:B2 0.000169099
4 *1213:B *1212:A2 0.000346997
5 *1213:B *1212:B1 0
6 *1207:B1 *1213:B 0.000113016
7 *1209:A2 *1213:B 5.13977e-05
8 *1213:C *1213:B 0.000289333
*RES
1 *1212:ZN *1213:B 21.328 
*END

*D_NET *186 0.00831044
*CONN
*I *1220:A2 I *D gf180mcu_fd_sc_mcu7t5v0__oai211_1
*I *1213:ZN O *D gf180mcu_fd_sc_mcu7t5v0__aoi211_1
*CAP
1 *1220:A2 0.00200834
2 *1213:ZN 0.00200834
3 *1220:A2 *1212:B1 0.000211949
4 *1220:A2 *1225:A2 1.12327e-05
5 *1220:A2 *1356:A1 0.000276007
6 *1220:A2 *1359:A2 0.000105623
7 *1220:A2 *1360:A2 0.000161537
8 *1220:A2 *1361:A2 0.000721209
9 *1220:A2 *1365:A4 0
10 *1220:A2 *1534:I 0.000634145
11 *1220:A2 *280:6 7.31277e-05
12 *1220:A2 *280:10 5.59844e-05
13 *1220:A2 *283:12 0.000553453
14 *1220:A2 *283:35 2.73715e-06
15 *1220:A2 *326:12 3.92053e-05
16 *1220:A2 *326:76 8.02961e-05
17 *1220:A2 *379:12 0.000108119
18 *1220:A2 *380:25 0
19 *1220:A2 *381:12 0.000149437
20 *1220:A2 *381:18 0.00012825
21 *1213:A1 *1220:A2 0.000122244
22 *1213:C *1220:A2 0.000349456
23 *1220:A1 *1220:A2 0.000485552
24 *1364:A1 *1220:A2 2.42026e-05
*RES
1 *1213:ZN *1220:A2 39.32 
*END

*D_NET *187 0.000947141
*CONN
*I *1216:A1 I *D gf180mcu_fd_sc_mcu7t5v0__and2_1
*I *1221:B I *D gf180mcu_fd_sc_mcu7t5v0__oai21_1
*I *1214:ZN O *D gf180mcu_fd_sc_mcu7t5v0__aoi22_1
*CAP
1 *1216:A1 0.000132584
2 *1221:B 0.000237988
3 *1214:ZN 0.000105404
4 *1216:A1 *1216:A2 0.000169099
5 *1216:A1 *1219:A1 2.24654e-05
6 *1221:B *1216:A2 1.71326e-05
7 *1221:B *1217:A2 0.000256285
8 *1221:B *385:45 6.18411e-06
*RES
1 *1214:ZN *1221:B 10.04 
2 *1221:B *1216:A1 10.352 
*END

*D_NET *188 0.00372703
*CONN
*I *1216:A2 I *D gf180mcu_fd_sc_mcu7t5v0__and2_1
*I *1221:A1 I *D gf180mcu_fd_sc_mcu7t5v0__oai21_1
*I *1215:ZN O *D gf180mcu_fd_sc_mcu7t5v0__aoi22_1
*CAP
1 *1216:A2 0.000125086
2 *1221:A1 0
3 *1215:ZN 0.000790003
4 *188:18 0.000915089
5 *1216:A2 *1219:A1 0.0001643
6 *1216:A2 *1221:A2 2.38773e-05
7 *1216:A2 *385:45 0
8 *188:18 *1217:A2 1.42508e-05
9 *188:18 *1218:B1 0
10 *188:18 *1219:A2 0
11 *188:18 *1225:A2 1.63088e-05
12 *188:18 *1294:A1 0.000215267
13 *188:18 *283:35 0
14 *1214:A1 *188:18 0.00017139
15 *1214:B2 *188:18 0.000191674
16 *1215:A1 *188:18 0.000592172
17 *1216:A1 *1216:A2 0.000169099
18 *1217:B2 *188:18 2.17565e-05
19 *1218:B2 *188:18 2.17601e-05
20 *1221:B *1216:A2 1.71326e-05
21 *143:8 *188:18 3.3835e-05
22 *143:12 *188:18 0.000244032
*RES
1 *1215:ZN *188:18 29.26 
2 *188:18 *1221:A1 4.5 
3 *188:18 *1216:A2 5.956 
*END

*D_NET *189 0.00210521
*CONN
*I *1220:B I *D gf180mcu_fd_sc_mcu7t5v0__oai211_1
*I *1216:Z O *D gf180mcu_fd_sc_mcu7t5v0__and2_1
*CAP
1 *1220:B 0.000357521
2 *1216:Z 0.000357521
3 *1220:B *1219:A1 0.000284054
4 *1220:B *1219:A2 0.000142707
5 *1220:B *1220:C 0.000803506
6 *1220:B *1225:A1 3.6012e-05
7 *1220:B *1225:A2 8.31419e-05
8 *1220:A1 *1220:B 4.07478e-05
*RES
1 *1216:Z *1220:B 13.576 
*END

*D_NET *190 0.00200906
*CONN
*I *1221:A2 I *D gf180mcu_fd_sc_mcu7t5v0__oai21_1
*I *1219:A1 I *D gf180mcu_fd_sc_mcu7t5v0__nor2_1
*I *1217:ZN O *D gf180mcu_fd_sc_mcu7t5v0__oai22_1
*CAP
1 *1221:A2 3.0658e-05
2 *1219:A1 0.000284961
3 *1217:ZN 6.87599e-05
4 *190:10 0.000384379
5 *1219:A1 *1219:A2 0.000275885
6 *190:10 *1217:A2 9.14687e-05
7 *190:10 *1219:A2 0.000353851
8 *1214:B2 *1221:A2 2.73715e-06
9 *1214:B2 *190:10 1.17431e-05
10 *1216:A1 *1219:A1 2.24654e-05
11 *1216:A2 *1219:A1 0.0001643
12 *1216:A2 *1221:A2 2.38773e-05
13 *1220:B *1219:A1 0.000284054
14 *144:25 *1219:A1 4.4504e-06
15 *144:25 *1221:A2 5.47431e-06
*RES
1 *1217:ZN *190:10 14.644 
2 *190:10 *1219:A1 7.516 
3 *190:10 *1221:A2 4.812 
*END

*D_NET *191 0.00344188
*CONN
*I *1219:A2 I *D gf180mcu_fd_sc_mcu7t5v0__nor2_1
*I *1218:ZN O *D gf180mcu_fd_sc_mcu7t5v0__oai22_1
*CAP
1 *1219:A2 0.000637816
2 *1218:ZN 0.000637816
3 *1219:A2 *1217:B1 0.000273049
4 *1219:A2 *1225:A2 0.000182553
5 *1219:A2 *326:76 0.000245799
6 *1214:B2 *1219:A2 0.000312091
7 *1218:A1 *1219:A2 0.00033778
8 *1219:A1 *1219:A2 0.000275885
9 *1220:B *1219:A2 0.000142707
10 *144:25 *1219:A2 4.2536e-05
11 *188:18 *1219:A2 0
12 *190:10 *1219:A2 0.000353851
*RES
1 *1218:ZN *1219:A2 25.384 
*END

*D_NET *192 0.00122285
*CONN
*I *1220:C I *D gf180mcu_fd_sc_mcu7t5v0__oai211_1
*I *1219:ZN O *D gf180mcu_fd_sc_mcu7t5v0__nor2_1
*CAP
1 *1220:C 0.000209674
2 *1219:ZN 0.000209674
3 *1220:B *1220:C 0.000803506
*RES
1 *1219:ZN *1220:C 11.392 
*END

*D_NET *193 0.000902307
*CONN
*I *1225:A1 I *D gf180mcu_fd_sc_mcu7t5v0__aoi22_1
*I *1220:ZN O *D gf180mcu_fd_sc_mcu7t5v0__oai211_1
*CAP
1 *1225:A1 0.000270456
2 *1220:ZN 0.000270456
3 *1225:A1 *1225:A2 1.3291e-05
4 *1225:A1 *1534:I 0
5 *1225:A1 *283:35 0.00011484
6 *1225:A1 *326:76 0.000197253
7 *1220:B *1225:A1 3.6012e-05
*RES
1 *1220:ZN *1225:A1 19.976 
*END

*D_NET *194 0.00184385
*CONN
*I *1222:B I *D gf180mcu_fd_sc_mcu7t5v0__oai21_1
*I *1221:ZN O *D gf180mcu_fd_sc_mcu7t5v0__oai21_1
*CAP
1 *1222:B 0.000207774
2 *1221:ZN 0.000207774
3 *1222:B *1217:A2 0.000328552
4 *1222:B *1225:A2 3.15816e-05
5 *1222:B *385:45 0.000441992
6 *1214:B2 *1222:B 0.000179194
7 *1222:A1 *1222:B 0.000446984
*RES
1 *1221:ZN *1222:B 12.536 
*END

*D_NET *195 0.00444377
*CONN
*I *1225:A2 I *D gf180mcu_fd_sc_mcu7t5v0__aoi22_1
*I *1222:ZN O *D gf180mcu_fd_sc_mcu7t5v0__oai21_1
*CAP
1 *1225:A2 0.000936406
2 *1222:ZN 0.000936406
3 *1225:A2 *1217:A2 0.000198922
4 *1225:A2 *1222:A2 0
5 *1225:A2 *283:35 0.000209424
6 *1225:A2 *326:76 0.00142862
7 *1214:B2 *1225:A2 0.000253241
8 *1219:A2 *1225:A2 0.000182553
9 *1220:A1 *1225:A2 1.23682e-05
10 *1220:A2 *1225:A2 1.12327e-05
11 *1220:B *1225:A2 8.31419e-05
12 *1222:A1 *1225:A2 0.000130275
13 *1222:B *1225:A2 3.15816e-05
14 *1225:A1 *1225:A2 1.3291e-05
15 *188:18 *1225:A2 1.63088e-05
*RES
1 *1222:ZN *1225:A2 36.88 
*END

*D_NET *196 0.0102152
*CONN
*I *1225:B1 I *D gf180mcu_fd_sc_mcu7t5v0__aoi22_1
*I *1223:ZN O *D gf180mcu_fd_sc_mcu7t5v0__nor4_1
*CAP
1 *1225:B1 0.00312816
2 *1223:ZN 0.00312816
3 *1225:B1 *1212:A2 0.00102056
4 *1225:B1 *1534:I 2.81541e-05
5 *1225:B1 *199:76 0
6 *1225:B1 *283:35 0.000970012
7 *1225:B1 *339:12 0.000276396
8 *1225:B1 *339:25 0.000273534
9 *1225:B1 *382:8 0.000509988
10 *1208:A2 *1225:B1 0.000203364
11 *1220:A1 *1225:B1 0
12 *1297:A1 *1225:B1 3.4596e-05
13 *1444:RN *1225:B1 0
14 *1505:I *1225:B1 0.000618661
15 *165:6 *1225:B1 2.36218e-05
*RES
1 *1223:ZN *1225:B1 47.432 
*END

*D_NET *197 0.000173473
*CONN
*I *1225:B2 I *D gf180mcu_fd_sc_mcu7t5v0__aoi22_1
*I *1224:ZN O *D gf180mcu_fd_sc_mcu7t5v0__nor4_1
*CAP
1 *1225:B2 7.12763e-05
2 *1224:ZN 7.12763e-05
3 *1225:B2 *1170:I 3.09205e-05
*RES
1 *1224:ZN *1225:B2 9.728 
*END

*D_NET *198 0.00214217
*CONN
*I *1534:I I *D gf180mcu_fd_sc_mcu7t5v0__dlyb_1
*I *1225:ZN O *D gf180mcu_fd_sc_mcu7t5v0__aoi22_1
*CAP
1 *1534:I 0.000373867
2 *1225:ZN 0.000373867
3 *1534:I *283:35 0.000117701
4 *1534:I *326:76 0.000122244
5 *1220:A1 *1534:I 0.000492195
6 *1220:A2 *1534:I 0.000634145
7 *1225:A1 *1534:I 0
8 *1225:B1 *1534:I 2.81541e-05
*RES
1 *1225:ZN *1534:I 22.472 
*END

*D_NET *199 0.0297946
*CONN
*I *1374:A2 I *D gf180mcu_fd_sc_mcu7t5v0__nor3_1
*I *1376:A2 I *D gf180mcu_fd_sc_mcu7t5v0__nor3_1
*I *1365:A2 I *D gf180mcu_fd_sc_mcu7t5v0__nor4_1
*I *1362:A2 I *D gf180mcu_fd_sc_mcu7t5v0__nor3_1
*I *1358:A2 I *D gf180mcu_fd_sc_mcu7t5v0__nor3_1
*I *1355:A3 I *D gf180mcu_fd_sc_mcu7t5v0__nor3_1
*I *1368:A2 I *D gf180mcu_fd_sc_mcu7t5v0__nor4_1
*I *1371:A2 I *D gf180mcu_fd_sc_mcu7t5v0__nor3_1
*I *1227:A2 I *D gf180mcu_fd_sc_mcu7t5v0__nand2_1
*I *1234:A2 I *D gf180mcu_fd_sc_mcu7t5v0__xor2_1
*I *1226:Z O *D gf180mcu_fd_sc_mcu7t5v0__and2_1
*CAP
1 *1374:A2 3.6366e-05
2 *1376:A2 0
3 *1365:A2 0
4 *1362:A2 0
5 *1358:A2 0
6 *1355:A3 0.000371898
7 *1368:A2 0.000119588
8 *1371:A2 0
9 *1227:A2 0.000455134
10 *1234:A2 0.00037392
11 *1226:Z 3.6366e-05
12 *199:86 0.000986284
13 *199:78 0.00106906
14 *199:76 0.00205881
15 *199:53 0.00265152
16 *199:47 0.00108137
17 *199:45 0.000784923
18 *199:32 0.000957904
19 *199:17 0.00107942
20 *199:6 0.000671639
21 *1227:A2 *1227:A1 0.000275028
22 *1227:A2 *1232:A1 0.000337769
23 *1234:A2 *1161:I 0.000100752
24 *1234:A2 *1228:A2 9.09864e-05
25 *1234:A2 *1513:I 8.9736e-05
26 *1234:A2 *1519:I 0.000193782
27 *1234:A2 *370:16 0.00210379
28 *1355:A3 *1355:A1 6.11661e-05
29 *1355:A3 *1355:A2 0.00076114
30 *1355:A3 *1358:A3 0.000391905
31 *1355:A3 *1426:I 4.33994e-05
32 *1355:A3 *1471:CLK 0
33 *1355:A3 *1522:I 0.000122244
34 *1355:A3 *296:6 0
35 *1355:A3 *296:19 0
36 *1355:A3 *306:119 0.00103922
37 *1368:A2 *1368:A1 1.07369e-05
38 *1368:A2 *1418:I 3.30734e-06
39 *1368:A2 *1445:CLK 1.70957e-06
40 *1368:A2 *317:90 3.4596e-05
41 *199:6 *1228:A2 0
42 *199:17 *300:31 0.00013467
43 *199:17 *369:8 4.38131e-05
44 *199:17 *369:12 0.000180928
45 *199:17 *370:8 0
46 *199:17 *370:12 0
47 *199:32 *369:8 0.000517404
48 *199:32 *370:8 0
49 *199:45 *1370:A1 0
50 *199:45 *1370:A2 8.53312e-05
51 *199:45 *1374:A3 9.09749e-05
52 *199:45 *369:8 0.00013646
53 *199:45 *370:8 0
54 *199:47 *1374:A1 0.00101075
55 *199:47 *1376:A3 0.000428493
56 *199:47 *285:27 0
57 *199:47 *326:95 3.28669e-05
58 *199:53 *1368:A1 1.41642e-05
59 *199:53 *1368:A3 0.000428493
60 *199:53 *1368:A4 2.36218e-05
61 *199:53 *285:10 9.56679e-05
62 *199:53 *325:23 0
63 *199:53 *326:95 0.000139424
64 *199:53 *383:14 4.0017e-05
65 *199:53 *383:20 1.78817e-06
66 *199:76 *1171:I 0.000124269
67 *199:76 *1224:A1 0.000560747
68 *199:76 *1224:A2 0.000447092
69 *199:76 *1224:A4 0.000101022
70 *199:76 *1365:A3 6.04672e-05
71 *199:76 *1530:I 0.00062651
72 *199:76 *283:35 0
73 *199:76 *317:66 2.87226e-05
74 *199:76 *317:90 5.37778e-05
75 *199:76 *341:25 0.000199156
76 *199:76 *383:20 0.000236681
77 *199:78 *1365:A3 1.71326e-05
78 *199:78 *1365:A4 0.000228466
79 *199:78 *280:10 0.000127703
80 *199:78 *326:12 2.39523e-06
81 *199:78 *326:14 0.00082216
82 *199:78 *341:25 0
83 *199:86 *1397:I 0.000532799
84 *199:86 *280:6 2.35446e-05
85 *199:86 *280:10 4.32888e-05
86 *199:86 *314:25 0.00017114
87 *199:86 *326:14 1.07369e-05
88 *199:86 *326:22 0
89 *1215:B2 *199:76 0.000162991
90 *1225:B1 *199:76 0
91 *1297:A1 *199:76 0
92 *1301:A1 *199:76 0
93 *1443:D *199:86 2.62817e-05
94 *1444:D *199:76 7.87395e-06
95 *1446:RN *199:45 2.39167e-05
96 *1446:RN *199:47 6.41721e-05
97 *1447:D *199:45 2.3245e-05
98 *1448:D *199:53 6.69436e-05
99 *1464:SETN *199:76 0.00121105
100 *146:10 *199:76 0
101 *146:23 *199:76 0.00198999
*RES
1 *1226:Z *199:6 4.812 
2 *199:6 *1234:A2 10.22 
3 *199:6 *199:17 6.892 
4 *199:17 *1227:A2 12.848 
5 *199:17 *199:32 4.68 
6 *199:32 *1371:A2 9 
7 *199:32 *199:45 9.7 
8 *199:45 *199:47 3.016 
9 *199:47 *199:53 8.216 
10 *199:53 *1368:A2 5.54 
11 *199:53 *199:76 28.448 
12 *199:76 *199:78 5.928 
13 *199:78 *199:86 15.24 
14 *199:86 *1355:A3 19.22 
15 *199:86 *1358:A2 4.5 
16 *199:78 *1362:A2 4.5 
17 *199:76 *1365:A2 4.5 
18 *199:47 *1376:A2 4.5 
19 *199:45 *1374:A2 4.812 
*END

*D_NET *200 0.0015469
*CONN
*I *1232:A2 I *D gf180mcu_fd_sc_mcu7t5v0__xor2_1
*I *1227:ZN O *D gf180mcu_fd_sc_mcu7t5v0__nand2_1
*CAP
1 *1232:A2 0.00026336
2 *1227:ZN 0.00026336
3 *1232:A2 *1227:A1 0.000209684
4 *1232:A2 *1485:CLK 0.000125945
5 *1232:A2 *300:27 2.38656e-05
6 *1485:D *1232:A2 0.000660687
*RES
1 *1227:ZN *1232:A2 12.224 
*END

*D_NET *201 0.00527414
*CONN
*I *1230:A2 I *D gf180mcu_fd_sc_mcu7t5v0__and2_1
*I *1229:A2 I *D gf180mcu_fd_sc_mcu7t5v0__nor2_1
*I *1324:A3 I *D gf180mcu_fd_sc_mcu7t5v0__nor3_1
*I *1228:ZN O *D gf180mcu_fd_sc_mcu7t5v0__nand4_1
*CAP
1 *1230:A2 0
2 *1229:A2 0
3 *1324:A3 0.000219397
4 *1228:ZN 0.000427461
5 *201:14 0.000547823
6 *201:8 0.000755888
7 *1324:A3 *1231:A2 1.0603e-05
8 *1324:A3 *1231:A4 5.63072e-05
9 *1324:A3 *1480:CLK 5.13977e-05
10 *1324:A3 *202:8 0.000523075
11 *201:8 *1228:A3 8.23372e-05
12 *201:8 *1389:I 0.000928195
13 *201:8 *300:31 0
14 *201:8 *300:33 0
15 *201:8 *377:10 9.17646e-05
16 *201:8 *377:16 0.000912093
17 *201:14 *1388:I 0
18 *201:14 *1480:CLK 0.000203364
19 *201:14 *300:33 0
20 *201:14 *377:10 0.000100342
21 *1229:A1 *1324:A3 6.85302e-05
22 *1324:A2 *1324:A3 0.000231383
23 *1480:D *201:14 6.41811e-05
*RES
1 *1228:ZN *201:8 16.176 
2 *201:8 *201:14 7.828 
3 *201:14 *1324:A3 7.724 
4 *201:14 *1229:A2 4.5 
5 *201:8 *1230:A2 9 
*END

*D_NET *202 0.0019238
*CONN
*I *1231:A3 I *D gf180mcu_fd_sc_mcu7t5v0__nor4_1
*I *1336:A2 I *D gf180mcu_fd_sc_mcu7t5v0__nor2_1
*I *1229:ZN O *D gf180mcu_fd_sc_mcu7t5v0__nor2_1
*CAP
1 *1231:A3 9.48741e-05
2 *1336:A2 0.000223258
3 *1229:ZN 4.98106e-05
4 *202:8 0.000367943
5 *1231:A3 *372:23 0
6 *1231:A3 *372:36 0
7 *1336:A2 *1336:A1 0
8 *1336:A2 *259:10 0
9 *1336:A2 *372:23 0
10 *202:8 *372:10 2.71548e-05
11 *1229:A1 *202:8 0.00033778
12 *1324:A1 *1336:A2 9.52581e-05
13 *1324:A3 *202:8 0.000523075
14 *1480:D *1336:A2 0
15 *134:10 *1231:A3 0.000179953
16 *134:10 *1336:A2 2.46957e-05
*RES
1 *1229:ZN *202:8 10.352 
2 *202:8 *1336:A2 10.768 
3 *202:8 *1231:A3 10.144 
*END

*D_NET *203 0.000873729
*CONN
*I *1231:A4 I *D gf180mcu_fd_sc_mcu7t5v0__nor4_1
*I *1230:Z O *D gf180mcu_fd_sc_mcu7t5v0__and2_1
*CAP
1 *1231:A4 0.000269973
2 *1230:Z 0.000269973
3 *1231:A4 *1480:CLK 0.000159517
4 *1230:A1 *1231:A4 0.000117959
5 *1324:A3 *1231:A4 5.63072e-05
*RES
1 *1230:Z *1231:A4 11.496 
*END

*D_NET *204 0.0015445
*CONN
*I *1233:A3 I *D gf180mcu_fd_sc_mcu7t5v0__nor3_1
*I *1232:Z O *D gf180mcu_fd_sc_mcu7t5v0__xor2_1
*CAP
1 *1233:A3 0.000341862
2 *1232:Z 0.000341862
3 *1233:A3 *1227:A1 0.000112472
4 *1233:A3 *300:25 0
5 *1484:D *1233:A3 0.000591484
6 *1485:D *1233:A3 0.000156819
*RES
1 *1232:Z *1233:A3 12.536 
*END

*D_NET *205 0.000363036
*CONN
*I *1235:A3 I *D gf180mcu_fd_sc_mcu7t5v0__nor3_1
*I *1234:Z O *D gf180mcu_fd_sc_mcu7t5v0__xor2_1
*CAP
1 *1235:A3 0.000111351
2 *1234:Z 0.000111351
3 *1235:A3 *1235:A2 1.19663e-05
4 *1235:A3 *1513:I 2.22406e-05
5 *1235:A3 *370:16 3.3698e-05
6 *1235:A1 *1235:A3 5.29249e-05
7 *179:38 *1235:A3 1.95034e-05
*RES
1 *1234:Z *1235:A3 19.248 
*END

*D_NET *206 0.00526476
*CONN
*I *1344:A1 I *D gf180mcu_fd_sc_mcu7t5v0__nor2_1
*I *1242:A1 I *D gf180mcu_fd_sc_mcu7t5v0__nand2_1
*I *1338:A2 I *D gf180mcu_fd_sc_mcu7t5v0__nand2_1
*I *1236:ZN O *D gf180mcu_fd_sc_mcu7t5v0__nor2_1
*CAP
1 *1344:A1 3.6366e-05
2 *1242:A1 0
3 *1338:A2 0.000634804
4 *1236:ZN 0.000290158
5 *206:8 0.000698279
6 *206:6 0.000389999
7 *1338:A2 *211:10 0.000114164
8 *1338:A2 *211:16 1.90528e-05
9 *1338:A2 *319:30 0.000715196
10 *1338:A2 *363:35 0.000152501
11 *1338:A2 *366:35 0
12 *206:6 *1237:A3 9.09864e-05
13 *206:6 *1270:A2 3.17907e-05
14 *206:6 *211:16 0.000101723
15 *206:6 *231:29 0.00115838
16 *206:6 *319:30 0.000155943
17 *206:8 *1242:A2 0.000247057
18 *206:8 *1270:A2 2.13874e-05
19 *206:8 *231:29 0.000406972
20 *1493:RN *1338:A2 0
*RES
1 *1236:ZN *206:6 8.556 
2 *206:6 *206:8 1.144 
3 *206:8 *1338:A2 19.948 
4 *206:8 *1242:A1 4.5 
5 *206:6 *1344:A1 4.812 
*END

*D_NET *207 0.00681138
*CONN
*I *1345:A2 I *D gf180mcu_fd_sc_mcu7t5v0__and2_1
*I *1273:A2 I *D gf180mcu_fd_sc_mcu7t5v0__nand2_1
*I *1347:A1 I *D gf180mcu_fd_sc_mcu7t5v0__oai21_1
*I *1237:ZN O *D gf180mcu_fd_sc_mcu7t5v0__nor3_1
*CAP
1 *1345:A2 0.000394496
2 *1273:A2 0
3 *1347:A1 2.90354e-05
4 *1237:ZN 0.000468863
5 *207:25 0.00101547
6 *207:10 0.00111887
7 *1345:A2 *1345:A1 0.000296566
8 *1345:A2 *237:8 6.13659e-05
9 *1345:A2 *270:22 0
10 *1345:A2 *310:88 0
11 *1347:A1 *1348:A2 3.4596e-05
12 *1347:A1 *1353:A2 0.000103788
13 *1347:A1 *1353:B1 1.07369e-05
14 *1347:A1 *270:22 6.8199e-07
15 *207:10 *1353:A2 0
16 *207:10 *235:18 0.0011597
17 *207:10 *269:34 0
18 *207:10 *271:19 0.00137579
19 *207:10 *319:30 0.000529502
20 *207:10 *366:35 0
21 *207:25 *1384:I 3.4596e-05
22 *207:25 *1469:CLK 1.32185e-05
23 *207:25 *270:22 0
24 *207:25 *271:19 0.000139373
25 *207:25 *362:10 0
26 *207:25 *362:12 0
27 *207:25 *362:14 0
28 *1492:RN *1345:A2 0
29 *1494:RN *207:25 2.47364e-05
*RES
1 *1237:ZN *207:10 15.448 
2 *207:10 *1347:A1 9.312 
3 *207:10 *207:25 9.076 
4 *207:25 *1273:A2 4.5 
5 *207:25 *1345:A2 8.036 
*END

*D_NET *208 0.00716852
*CONN
*I *1350:A1 I *D gf180mcu_fd_sc_mcu7t5v0__nor2_1
*I *1249:B I *D gf180mcu_fd_sc_mcu7t5v0__oai31_1
*I *1238:Z O *D gf180mcu_fd_sc_mcu7t5v0__or3_1
*CAP
1 *1350:A1 0.000317814
2 *1249:B 0.000527337
3 *1238:Z 0.000175492
4 *208:8 0.00102064
5 *1249:B *1243:A1 0.000232388
6 *1249:B *1272:A2 0.0020778
7 *1249:B *1502:D 8.1598e-06
8 *1249:B *1504:CLK 0.000702819
9 *1350:A1 *1272:A2 0.000179941
10 *1350:A1 *327:67 7.60693e-05
11 *1238:A2 *1350:A1 5.61634e-05
12 *1243:A2 *1249:B 0.00106072
13 *1537:I *1249:B 0.000500761
14 *158:6 *1249:B 0.000204661
15 *158:6 *1350:A1 2.77501e-05
*RES
1 *1238:Z *208:8 5.54 
2 *208:8 *1249:B 14.796 
3 *208:8 *1350:A1 7.516 
*END

*D_NET *209 0.00478754
*CONN
*I *1243:A3 I *D gf180mcu_fd_sc_mcu7t5v0__and4_1
*I *1239:ZN O *D gf180mcu_fd_sc_mcu7t5v0__nor3_1
*CAP
1 *1243:A3 0.00137788
2 *1239:ZN 0.00137788
3 *1243:A3 *1246:B 3.22108e-05
4 *1243:A3 *1247:A1 0.000112175
5 *1243:A3 *1249:A1 0
6 *1243:A3 *1272:A2 0.000346997
7 *1243:A3 *1340:A2 3.1221e-05
8 *1243:A3 *1495:CLK 7.84307e-05
9 *1243:A3 *211:20 7.16472e-05
10 *1243:A3 *294:52 0.000500761
11 *1243:A3 *294:58 0.000434457
12 *1243:A3 *359:8 3.36851e-05
13 *1243:A3 *365:14 7.73997e-05
14 *1243:A3 *365:20 0.000312805
*RES
1 *1239:ZN *1243:A3 29.336 
*END

*D_NET *210 0.00412735
*CONN
*I *1266:A1 I *D gf180mcu_fd_sc_mcu7t5v0__aoi211_1
*I *1342:A1 I *D gf180mcu_fd_sc_mcu7t5v0__oai22_1
*I *1240:ZN O *D gf180mcu_fd_sc_mcu7t5v0__nor2_1
*CAP
1 *1266:A1 0.000803315
2 *1342:A1 0.000469126
3 *1240:ZN 7.35358e-05
4 *210:6 0.00134598
5 *1266:A1 *1270:A2 0.000531148
6 *1266:A1 *327:10 6.29522e-05
7 *1266:A1 *327:16 0.000138355
8 *1342:A1 *1186:I 4.1437e-05
9 *1342:A1 *1342:A2 1.65042e-05
10 *1342:A1 *1354:A2 1.31384e-05
11 *1342:A1 *270:22 2.49983e-05
12 *1342:A1 *366:35 0.000194054
13 *210:6 *1354:A2 0.000193782
14 *210:6 *366:35 0.000183045
15 *1342:B2 *1342:A1 3.59844e-05
16 *1493:RN *1342:A1 0
*RES
1 *1240:ZN *210:6 5.852 
2 *210:6 *1342:A1 7.932 
3 *210:6 *1266:A1 18.804 
*END

*D_NET *211 0.00993511
*CONN
*I *1242:A2 I *D gf180mcu_fd_sc_mcu7t5v0__nand2_1
*I *1248:A2 I *D gf180mcu_fd_sc_mcu7t5v0__nor3_1
*I *1250:A1 I *D gf180mcu_fd_sc_mcu7t5v0__nor2_1
*I *1243:A4 I *D gf180mcu_fd_sc_mcu7t5v0__and4_1
*I *1241:Z O *D gf180mcu_fd_sc_mcu7t5v0__or3_1
*CAP
1 *1242:A2 9.12268e-05
2 *1248:A2 0
3 *1250:A1 0.000372093
4 *1243:A4 0
5 *1241:Z 0.00034745
6 *211:20 0.000615968
7 *211:16 0.00109816
8 *211:10 0.00129296
9 *1242:A2 *1266:A2 1.57479e-05
10 *1242:A2 *1270:A2 5.85372e-05
11 *1250:A1 *1249:A1 0.000136227
12 *1250:A1 *1249:A2 0.000245715
13 *1250:A1 *1272:A2 3.49145e-05
14 *1250:A1 *1531:I 5.10571e-06
15 *1250:A1 *218:12 0.000439048
16 *1250:A1 *218:33 0.000269899
17 *1250:A1 *219:10 6.73961e-05
18 *1250:A1 *220:10 0.000122244
19 *211:10 *1351:A1 8.23372e-05
20 *211:10 *271:19 0.00026025
21 *211:10 *319:30 0
22 *211:10 *363:35 1.80186e-05
23 *211:10 *366:35 3.51877e-05
24 *211:16 *1184:I 2.46831e-05
25 *211:16 *1237:A3 2.39077e-05
26 *211:16 *1238:A1 4.84332e-05
27 *211:16 *1248:A3 0.000186231
28 *211:16 *1272:A2 0.000128404
29 *211:16 *1351:A1 8.64348e-05
30 *211:16 *1351:A2 0.000118919
31 *211:16 *1351:B 4.07478e-05
32 *211:16 *1504:D 0.000500761
33 *211:16 *218:12 0.000203739
34 *211:16 *231:29 0.00134368
35 *211:16 *358:12 0.000154513
36 *211:16 *363:35 8.77606e-06
37 *211:20 *1184:I 0.000203739
38 *211:20 *1272:A2 5.82277e-05
39 *211:20 *218:12 0.000385509
40 *211:20 *359:42 0.000256274
41 *1243:A3 *211:20 7.16472e-05
42 *1338:A2 *211:10 0.000114164
43 *1338:A2 *211:16 1.90528e-05
44 *206:6 *211:16 0.000101723
45 *206:8 *1242:A2 0.000247057
*RES
1 *1241:Z *211:10 12.12 
2 *211:10 *211:16 14.484 
3 *211:16 *211:20 3.328 
4 *211:20 *1243:A4 4.5 
5 *211:20 *1250:A1 9.284 
6 *211:16 *1248:A2 4.5 
7 *211:10 *1242:A2 9.936 
*END

*D_NET *212 0.00435218
*CONN
*I *1271:B I *D gf180mcu_fd_sc_mcu7t5v0__aoi211_1
*I *1267:A2 I *D gf180mcu_fd_sc_mcu7t5v0__aoi21_1
*I *1266:B I *D gf180mcu_fd_sc_mcu7t5v0__aoi211_1
*I *1242:ZN O *D gf180mcu_fd_sc_mcu7t5v0__nand2_1
*CAP
1 *1271:B 0
2 *1267:A2 8.03497e-05
3 *1266:B 0.000348739
4 *1242:ZN 0
5 *212:23 0.000277752
6 *212:4 0.000546142
7 *1266:B *1266:A2 0.00134853
8 *1266:B *1270:A2 0.000639983
9 *1267:A2 *1270:A1 0
10 *1267:A2 *1271:C 0.000378517
11 *1267:A2 *327:29 4.07478e-05
12 *212:23 *1271:A1 0.000292328
13 *212:23 *1352:A2 0
14 *212:23 *363:35 0.000229992
15 *1493:D *1267:A2 0.000169099
*RES
1 *1242:ZN *212:4 4.5 
2 *212:4 *1266:B 18.284 
3 *212:4 *212:23 10.768 
4 *212:23 *1267:A2 5.956 
5 *212:23 *1271:B 4.5 
*END

*D_NET *213 0.00172589
*CONN
*I *1249:A1 I *D gf180mcu_fd_sc_mcu7t5v0__oai31_1
*I *1243:Z O *D gf180mcu_fd_sc_mcu7t5v0__and4_1
*CAP
1 *1249:A1 0.000350581
2 *1243:Z 0.000350581
3 *1249:A1 *1272:A2 0.000888506
4 *1243:A3 *1249:A1 0
5 *1250:A1 *1249:A1 0.000136227
*RES
1 *1243:Z *1249:A1 21.536 
*END

*D_NET *214 0.00220681
*CONN
*I *1245:A3 I *D gf180mcu_fd_sc_mcu7t5v0__nor3_1
*I *1343:A3 I *D gf180mcu_fd_sc_mcu7t5v0__oai32_1
*I *1269:A1 I *D gf180mcu_fd_sc_mcu7t5v0__nor2_1
*I *1244:ZN O *D gf180mcu_fd_sc_mcu7t5v0__nand2_1
*CAP
1 *1245:A3 0.000116378
2 *1343:A3 8.77781e-05
3 *1269:A1 0
4 *1244:ZN 0.00024097
5 *214:19 0.000231581
6 *214:10 0.000268395
7 *1245:A3 *1269:A2 0.000139667
8 *1245:A3 *235:6 1.57479e-05
9 *1245:A3 *360:29 6.18411e-06
10 *1343:A3 *235:6 0.000183033
11 *214:10 *215:8 6.40262e-06
12 *214:10 *360:29 0
13 *214:19 *1269:A2 5.13977e-05
14 *214:19 *235:6 0.000113027
15 *1245:A2 *1245:A3 1.71326e-05
16 *1343:A2 *1245:A3 0.000591484
17 *1343:A2 *1343:A3 0.000137631
*RES
1 *1244:ZN *214:10 14.644 
2 *214:10 *1269:A1 4.5 
3 *214:10 *214:19 0.624 
4 *214:19 *1343:A3 6.06 
5 *214:19 *1245:A3 6.58 
*END

*D_NET *215 0.00234736
*CONN
*I *1250:A2 I *D gf180mcu_fd_sc_mcu7t5v0__nor2_1
*I *1249:A2 I *D gf180mcu_fd_sc_mcu7t5v0__oai31_1
*I *1245:ZN O *D gf180mcu_fd_sc_mcu7t5v0__nor3_1
*CAP
1 *1250:A2 0
2 *1249:A2 0.000187315
3 *1245:ZN 0.000756307
4 *215:8 0.000943622
5 *1249:A2 *218:33 6.17392e-05
6 *1249:A2 *219:10 8.97565e-05
7 *1249:A2 *358:47 8.77606e-06
8 *215:8 *1244:A2 4.43492e-05
9 *215:8 *358:47 3.37878e-06
10 *1250:A1 *1249:A2 0.000245715
11 *214:10 *215:8 6.40262e-06
*RES
1 *1245:ZN *215:8 13.056 
2 *215:8 *1249:A2 10.664 
3 *215:8 *1250:A2 9 
*END

*D_NET *216 0.00505625
*CONN
*I *1247:A2 I *D gf180mcu_fd_sc_mcu7t5v0__nor2_1
*I *1248:A3 I *D gf180mcu_fd_sc_mcu7t5v0__nor3_1
*I *1246:ZN O *D gf180mcu_fd_sc_mcu7t5v0__oai31_1
*CAP
1 *1247:A2 0.000165691
2 *1248:A3 0.000466366
3 *1246:ZN 0.000185281
4 *216:8 0.000817338
5 *1247:A2 *1247:A1 0.000553789
6 *1247:A2 *269:32 3.13415e-05
7 *1248:A3 *1394:I 7.05624e-05
8 *1248:A3 *217:16 0.000690168
9 *1248:A3 *218:12 0.000203739
10 *1248:A3 *311:31 0.000214117
11 *1248:A3 *358:10 8.58618e-05
12 *1248:A3 *358:12 0.000110346
13 *1248:A3 *358:43 0.000151966
14 *216:8 *217:16 0.000839803
15 *216:8 *311:31 0.000283647
16 *211:16 *1248:A3 0.000186231
*RES
1 *1246:ZN *216:8 11.392 
2 *216:8 *1248:A3 14.2 
3 *216:8 *1247:A2 10.664 
*END

*D_NET *217 0.0158458
*CONN
*I *1339:A1 I *D gf180mcu_fd_sc_mcu7t5v0__and2_1
*I *1523:I I *D gf180mcu_fd_sc_mcu7t5v0__dlyb_1
*I *1288:S I *D gf180mcu_fd_sc_mcu7t5v0__mux2_2
*I *1247:ZN O *D gf180mcu_fd_sc_mcu7t5v0__nor2_1
*CAP
1 *1339:A1 0.000378149
2 *1523:I 0.00078937
3 *1288:S 0
4 *1247:ZN 0.000234423
5 *217:16 0.00123406
6 *217:12 0.00105726
7 *1339:A1 *1392:I 0.00199384
8 *1339:A1 *1531:I 0.00273295
9 *1339:A1 *269:16 0
10 *1339:A1 *311:14 0.000569964
11 *1339:A1 *319:30 0.000375452
12 *1523:I *1264:A2 1.25277e-05
13 *1523:I *1287:S 0
14 *1523:I *1288:I0 0.00127403
15 *1523:I *1323:I1 0
16 *1523:I *1449:CLK 0.00016407
17 *1523:I *348:10 0.000328552
18 *217:12 *1394:I 0.000214564
19 *217:12 *311:14 0.000254486
20 *217:12 *311:31 5.0164e-05
21 *217:12 *319:30 0.000260982
22 *217:16 *1246:B 0.000213534
23 *217:16 *1449:CLK 0.00085643
24 *217:16 *270:22 0.000134086
25 *217:16 *294:52 3.67612e-05
26 *217:16 *311:31 1.23748e-05
27 *217:16 *358:10 0.00106713
28 *1248:A3 *217:16 0.000690168
29 *1502:SETN *1339:A1 0
30 *1504:SETN *217:12 7.0656e-05
31 *216:8 *217:16 0.000839803
*RES
1 *1247:ZN *217:12 15.788 
2 *217:12 *217:16 11.884 
3 *217:16 *1288:S 9 
4 *217:16 *1523:I 16.8 
5 *217:12 *1339:A1 13.652 
*END

*D_NET *218 0.016755
*CONN
*I *1261:A2 I *D gf180mcu_fd_sc_mcu7t5v0__nor2_1
*I *1249:A3 I *D gf180mcu_fd_sc_mcu7t5v0__oai31_1
*I *1248:ZN O *D gf180mcu_fd_sc_mcu7t5v0__nor3_1
*CAP
1 *1261:A2 0
2 *1249:A3 0
3 *1248:ZN 0.00048246
4 *218:33 0.00281928
5 *218:12 0.00330174
6 *218:12 *1531:I 1.32276e-05
7 *218:12 *220:10 0
8 *218:12 *358:43 0.00063899
9 *218:33 *1252:A1 0
10 *218:33 *1255:A2 0.000169099
11 *218:33 *1255:B1 0
12 *218:33 *1258:A1 0.000541092
13 *218:33 *1260:A1 1.23682e-05
14 *218:33 *1260:A2 5.13977e-05
15 *218:33 *1262:A1 6.04028e-05
16 *218:33 *1272:A2 0.000307234
17 *218:33 *1478:CLK 0.000341532
18 *218:33 *1481:CLK 0.00114222
19 *218:33 *1483:CLK 0.000500761
20 *218:33 *1503:CLK 0.000820654
21 *218:33 *1531:I 2.83747e-05
22 *218:33 *219:10 0
23 *218:33 *225:26 2.73715e-06
24 *218:33 *298:23 0.00176524
25 *218:33 *345:10 0
26 *218:33 *345:14 0.00018289
27 *218:33 *358:47 0.000158777
28 sda *218:33 3.50983e-05
29 *1248:A3 *218:12 0.000203739
30 *1249:A2 *218:33 6.17392e-05
31 *1250:A1 *218:12 0.000439048
32 *1250:A1 *218:33 0.000269899
33 *1272:A1 *218:33 0.000968671
34 *1480:D *218:33 7.93873e-05
35 *1481:D *218:33 0.000103933
36 *1482:D *218:33 0.00049239
37 *10:19 *218:33 0.000171329
38 *211:16 *218:12 0.000203739
39 *211:20 *218:12 0.000385509
*RES
1 *1248:ZN *218:12 11.572 
2 *218:12 *1249:A3 4.5 
3 *218:12 *218:33 49.824 
4 *218:33 *1261:A2 4.5 
*END

*D_NET *219 0.00605225
*CONN
*I *1540:I I *D gf180mcu_fd_sc_mcu7t5v0__clkbuf_1
*I *1255:B2 I *D gf180mcu_fd_sc_mcu7t5v0__oai22_1
*I *1249:ZN O *D gf180mcu_fd_sc_mcu7t5v0__oai31_1
*CAP
1 *1540:I 0.000360864
2 *1255:B2 0
3 *1249:ZN 0.00120814
4 *219:10 0.001569
5 *1540:I *1252:A1 0
6 *1540:I *1253:A1 0.000337769
7 *1540:I *1253:A2 1.57479e-05
8 *1540:I *1254:A2 4.16074e-05
9 *1540:I *1489:CLK 0
10 *1540:I *222:10 0
11 *1540:I *223:6 3.4596e-05
12 *219:10 *1252:A1 6.85302e-05
13 *219:10 *1255:B1 0.000419265
14 *219:10 *1272:A2 0.00060068
15 *219:10 *220:10 0.000879235
16 *219:10 *222:10 0
17 sda *219:10 3.17817e-05
18 *1249:A2 *219:10 8.97565e-05
19 *1250:A1 *219:10 6.73961e-05
20 *1255:A1 *1540:I 0
21 *1272:A1 *219:10 2.42667e-05
22 *1478:D *219:10 6.69436e-05
23 *1483:RN *1540:I 0.00012524
24 *10:19 *219:10 0.000111425
25 *218:33 *219:10 0
*RES
1 *1249:ZN *219:10 22.312 
2 *219:10 *1255:B2 9 
3 *219:10 *1540:I 12.744 
*END

*D_NET *220 0.0075624
*CONN
*I *1259:A2 I *D gf180mcu_fd_sc_mcu7t5v0__oai22_1
*I *1254:A1 I *D gf180mcu_fd_sc_mcu7t5v0__nand2_1
*I *1252:A1 I *D gf180mcu_fd_sc_mcu7t5v0__aoi21_1
*I *1250:ZN O *D gf180mcu_fd_sc_mcu7t5v0__nor2_1
*CAP
1 *1259:A2 0.000368709
2 *1254:A1 0
3 *1252:A1 0.000753568
4 *1250:ZN 0.000899293
5 *220:10 0.00128415
6 *1252:A1 *1253:A2 3.91896e-05
7 *1252:A1 *1255:A2 0
8 *1252:A1 *1255:B1 0.000497696
9 *1252:A1 *1339:A2 0
10 *1252:A1 *223:6 0
11 *1259:A2 *1251:A1 2.39523e-06
12 *1259:A2 *1251:A2 0.000663752
13 *1259:A2 *1260:B 1.12327e-05
14 *1259:A2 *221:8 0.000380013
15 *1259:A2 *304:23 0.000747
16 *1259:A2 *346:14 6.69695e-05
17 *220:10 *1339:A2 0
18 *220:10 *1531:I 0.000133399
19 *1250:A1 *220:10 0.000122244
20 *1255:A1 *1252:A1 5.85255e-05
21 *1503:SETN *220:10 0.000586499
22 *1540:I *1252:A1 0
23 *218:12 *220:10 0
24 *218:33 *1252:A1 0
25 *219:10 *1252:A1 6.85302e-05
26 *219:10 *220:10 0.000879235
*RES
1 *1250:ZN *220:10 15.004 
2 *220:10 *1252:A1 8.036 
3 *220:10 *1254:A1 4.5 
4 *1252:A1 *1259:A2 14.824 
*END

*D_NET *221 0.00179895
*CONN
*I *1253:A2 I *D gf180mcu_fd_sc_mcu7t5v0__nor2_1
*I *1252:A2 I *D gf180mcu_fd_sc_mcu7t5v0__aoi21_1
*I *1251:ZN O *D gf180mcu_fd_sc_mcu7t5v0__nand3_1
*CAP
1 *1253:A2 0.000248585
2 *1252:A2 0
3 *1251:ZN 0.000342955
4 *221:8 0.00059154
5 *1253:A2 *1253:A1 6.69577e-05
6 *1253:A2 *304:12 0.000103788
7 *221:8 *1251:A1 0
8 *221:8 *1253:A1 1.01781e-05
9 *1252:A1 *1253:A2 3.91896e-05
10 *1259:A2 *221:8 0.000380013
11 *1483:RN *221:8 0
12 *1540:I *1253:A2 1.57479e-05
*RES
1 *1251:ZN *221:8 7.828 
2 *221:8 *1252:A2 4.5 
3 *221:8 *1253:A2 6.684 
*END

*D_NET *222 0.0039485
*CONN
*I *1258:A1 I *D gf180mcu_fd_sc_mcu7t5v0__nor2_1
*I *1255:A2 I *D gf180mcu_fd_sc_mcu7t5v0__oai22_1
*I *1252:ZN O *D gf180mcu_fd_sc_mcu7t5v0__aoi21_1
*CAP
1 *1258:A1 0.000356981
2 *1255:A2 0.000113289
3 *1252:ZN 0.000250823
4 *222:10 0.000721092
5 *1258:A1 *1257:A2 2.24654e-05
6 *1258:A1 *304:23 0.000120946
7 *1258:A1 *345:29 4.07478e-05
8 *1252:A1 *1255:A2 0
9 *1255:A1 *222:10 0.000355296
10 *1482:D *1258:A1 0.000203739
11 *1483:D *1255:A2 0.000307671
12 *1483:D *1258:A1 0.000745259
13 *1540:I *222:10 0
14 *218:33 *1255:A2 0.000169099
15 *218:33 *1258:A1 0.000541092
16 *219:10 *222:10 0
*RES
1 *1252:ZN *222:10 15.268 
2 *222:10 *1255:A2 6.164 
3 *222:10 *1258:A1 10.012 
*END

*D_NET *223 0.00500109
*CONN
*I *1254:A2 I *D gf180mcu_fd_sc_mcu7t5v0__nand2_1
*I *1339:A2 I *D gf180mcu_fd_sc_mcu7t5v0__and2_1
*I *1253:ZN O *D gf180mcu_fd_sc_mcu7t5v0__nor2_1
*CAP
1 *1254:A2 0.000158426
2 *1339:A2 0.00127817
3 *1253:ZN 0.000199217
4 *223:6 0.00163582
5 *1339:A2 *1432:I 0.000582256
6 *1339:A2 *1500:CLK 0
7 *1339:A2 *1528:I 0
8 *1339:A2 *1531:I 0.000818923
9 *1339:A2 *318:31 0
10 *1339:A2 *360:23 0
11 *1252:A1 *1339:A2 0
12 *1252:A1 *223:6 0
13 *1478:SETN *1339:A2 0.000183045
14 *1502:SETN *1339:A2 0
15 *1503:SETN *1254:A2 3.55663e-05
16 *1503:SETN *1339:A2 3.34656e-05
17 *1540:I *1254:A2 4.16074e-05
18 *1540:I *223:6 3.4596e-05
19 *220:10 *1339:A2 0
*RES
1 *1253:ZN *223:6 5.852 
2 *223:6 *1339:A2 15.732 
3 *223:6 *1254:A2 15.06 
*END

*D_NET *224 0.00100098
*CONN
*I *1255:B1 I *D gf180mcu_fd_sc_mcu7t5v0__oai22_1
*I *1254:ZN O *D gf180mcu_fd_sc_mcu7t5v0__nand2_1
*CAP
1 *1255:B1 4.20078e-05
2 *1254:ZN 4.20078e-05
3 *1252:A1 *1255:B1 0.000497696
4 *218:33 *1255:B1 0
5 *219:10 *1255:B1 0.000419265
*RES
1 *1254:ZN *1255:B1 10.352 
*END

*D_NET *225 0.00474496
*CONN
*I *1262:A1 I *D gf180mcu_fd_sc_mcu7t5v0__nor2_1
*I *1260:A2 I *D gf180mcu_fd_sc_mcu7t5v0__aoi21_1
*I *1259:B1 I *D gf180mcu_fd_sc_mcu7t5v0__oai22_1
*I *1257:A2 I *D gf180mcu_fd_sc_mcu7t5v0__aoi21_1
*I *1256:ZN O *D gf180mcu_fd_sc_mcu7t5v0__nor2_1
*CAP
1 *1262:A1 0.000182716
2 *1260:A2 4.47653e-05
3 *1259:B1 0
4 *1257:A2 9.96691e-05
5 *1256:ZN 6.06099e-05
6 *225:26 0.000495027
7 *225:8 0.000194326
8 *225:6 0.000422813
9 *1257:A2 *304:23 0.000501376
10 *1257:A2 *345:29 0.000193782
11 *1262:A1 *1544:I 0
12 *225:8 *1256:A2 0.00101998
13 *225:8 *1260:B 4.49307e-05
14 *225:8 *304:23 4.07478e-05
15 *225:8 *345:14 0.00042386
16 *225:8 *345:29 6.85302e-05
17 *225:26 *1260:A1 0.00033778
18 *225:26 *1260:B 0.000228466
19 *225:26 *1262:A2 2.73715e-06
20 *225:26 *344:25 0
21 *225:26 *345:14 0.00024584
22 *1258:A1 *1257:A2 2.24654e-05
23 *218:33 *1260:A2 5.13977e-05
24 *218:33 *1262:A1 6.04028e-05
25 *218:33 *225:26 2.73715e-06
*RES
1 *1256:ZN *225:6 5.02 
2 *225:6 *225:8 3.224 
3 *225:8 *1257:A2 6.372 
4 *225:8 *1259:B1 4.5 
5 *225:6 *225:26 3.744 
6 *225:26 *1260:A2 5.124 
7 *225:26 *1262:A1 5.852 
*END

*D_NET *226 0.000302049
*CONN
*I *1258:A2 I *D gf180mcu_fd_sc_mcu7t5v0__nor2_1
*I *1257:ZN O *D gf180mcu_fd_sc_mcu7t5v0__aoi21_1
*CAP
1 *1258:A2 7.48666e-05
2 *1257:ZN 7.48666e-05
3 *1258:A2 *298:14 0
4 *1258:A2 *345:29 0.000152316
*RES
1 *1257:ZN *1258:A2 18.936 
*END

*D_NET *227 0.00207211
*CONN
*I *1260:B I *D gf180mcu_fd_sc_mcu7t5v0__aoi21_1
*I *1259:ZN O *D gf180mcu_fd_sc_mcu7t5v0__oai22_1
*CAP
1 *1260:B 0.000564988
2 *1259:ZN 0.000564988
3 *1260:B *1251:A3 0.00015244
4 *1260:B *1256:A2 0.000389595
5 *1260:B *1262:A2 0
6 *1260:B *304:23 2.73715e-06
7 *1260:B *344:25 0.000112735
8 *1259:A2 *1260:B 1.12327e-05
9 *225:8 *1260:B 4.49307e-05
10 *225:26 *1260:B 0.000228466
*RES
1 *1259:ZN *1260:B 15.344 
*END

*D_NET *228 0.000218649
*CONN
*I *1262:A2 I *D gf180mcu_fd_sc_mcu7t5v0__nor2_1
*I *1261:ZN O *D gf180mcu_fd_sc_mcu7t5v0__nor2_1
*CAP
1 *1262:A2 0.000106587
2 *1261:ZN 0.000106587
3 *1262:A2 *1544:I 2.73715e-06
4 *1260:B *1262:A2 0
5 *225:26 *1262:A2 2.73715e-06
*RES
1 *1261:ZN *1262:A2 9.936 
*END

*D_NET *229 0.0025421
*CONN
*I *1265:A1 I *D gf180mcu_fd_sc_mcu7t5v0__nand2_1
*I *1263:ZN O *D gf180mcu_fd_sc_mcu7t5v0__nor4_1
*CAP
1 *1265:A1 0.000428893
2 *1263:ZN 0.000428893
3 *1265:A1 *1263:A2 0.000125933
4 *1265:A1 *1265:A2 0.000228943
5 *1265:A1 *1285:S 0.000116742
6 *1265:A1 *1509:I 0
7 *1265:A1 *308:82 9.34456e-05
8 *1265:A1 *351:16 0.000256274
9 *1265:A1 *352:14 0.00033778
10 *1265:A1 *352:39 0.000525193
*RES
1 *1263:ZN *1265:A1 14.512 
*END

*D_NET *230 0.00101598
*CONN
*I *1265:A2 I *D gf180mcu_fd_sc_mcu7t5v0__nand2_1
*I *1264:ZN O *D gf180mcu_fd_sc_mcu7t5v0__nor4_1
*CAP
1 *1265:A2 0.00012638
2 *1264:ZN 0.00012638
3 *1265:A2 *1516:I 0.000337769
4 *1265:A2 *308:82 0.00019377
5 *1265:A2 *352:39 2.73715e-06
6 *1265:A1 *1265:A2 0.000228943
*RES
1 *1264:ZN *1265:A2 11.288 
*END

*D_NET *231 0.0165147
*CONN
*I *1266:A2 I *D gf180mcu_fd_sc_mcu7t5v0__aoi211_1
*I *1271:A2 I *D gf180mcu_fd_sc_mcu7t5v0__aoi211_1
*I *1350:A2 I *D gf180mcu_fd_sc_mcu7t5v0__nor2_1
*I *1265:ZN O *D gf180mcu_fd_sc_mcu7t5v0__nand2_1
*CAP
1 *1266:A2 0.000428303
2 *1271:A2 5.49445e-05
3 *1350:A2 0.000113027
4 *1265:ZN 0.00253328
5 *231:29 0.000655139
6 *231:14 0.00281819
7 *1266:A2 *1267:B 0.000398289
8 *1266:A2 *1270:A2 7.15269e-06
9 *1266:A2 *1271:A1 2.38773e-05
10 *1266:A2 *1271:C 2.2517e-05
11 *1266:A2 *319:30 1.36398e-06
12 *1266:A2 *327:29 5.47431e-06
13 *1271:A2 *1267:B 0
14 *1271:A2 *1272:A2 7.87395e-06
15 *1350:A2 *1237:A1 0.000397036
16 *1350:A2 *1352:A1 0
17 *1350:A2 *327:67 0.000125283
18 *231:14 *1237:A1 0.000510584
19 *231:14 *1284:I1 0.000239393
20 *231:14 *1285:S 1.70688e-05
21 *231:14 *1287:I0 3.8585e-05
22 *231:14 *1318:A1 0
23 *231:14 *1320:I0 0
24 *231:14 *1348:A1 0
25 *231:14 *1349:A1 1.18566e-06
26 *231:14 *1352:A1 0
27 *231:14 *1471:CLK 7.05729e-05
28 *231:14 *1507:I 0.000351648
29 *231:14 *253:42 0.00151019
30 *231:14 *269:32 0.000472507
31 *231:14 *294:12 0.000223987
32 *231:14 *308:82 1.85523e-05
33 *231:14 *330:12 0
34 *231:14 *349:83 8.37602e-05
35 *231:14 *351:22 0.000504524
36 *231:14 *352:39 0.000428493
37 *231:14 *366:45 7.63703e-05
38 *231:29 *1272:A2 0
39 *231:29 *1351:B 2.70107e-05
40 *1242:A2 *1266:A2 1.57479e-05
41 *1266:B *1266:A2 0.00134853
42 *1472:D *231:14 6.97265e-05
43 *1493:D *1266:A2 0
44 *1493:D *1271:A2 5.47431e-06
45 *206:6 *231:29 0.00115838
46 *206:8 *231:29 0.000406972
47 *211:16 *231:29 0.00134368
*RES
1 *1265:ZN *231:14 33.336 
2 *231:14 *1350:A2 10.352 
3 *231:14 *231:29 9.284 
4 *231:29 *1271:A2 5.124 
5 *231:29 *1266:A2 10.324 
*END

*D_NET *232 0.00173617
*CONN
*I *1267:B I *D gf180mcu_fd_sc_mcu7t5v0__aoi21_1
*I *1266:ZN O *D gf180mcu_fd_sc_mcu7t5v0__aoi211_1
*CAP
1 *1267:B 0.000210545
2 *1266:ZN 0.000210545
3 *1267:B *319:30 0
4 *1267:B *327:16 6.85302e-05
5 *1267:B *327:29 0.000848258
6 *1266:A2 *1267:B 0.000398289
7 *1271:A2 *1267:B 0
*RES
1 *1266:ZN *1267:B 12.536 
*END

*D_NET *233 0.00128606
*CONN
*I *1270:A1 I *D gf180mcu_fd_sc_mcu7t5v0__nor2_1
*I *1267:ZN O *D gf180mcu_fd_sc_mcu7t5v0__aoi21_1
*CAP
1 *1270:A1 0.000321014
2 *1267:ZN 0.000321014
3 *1270:A1 *1493:CLK 0.000211575
4 *1270:A1 *327:16 0
5 *1270:A1 *327:29 0.000263356
6 *1267:A2 *1270:A1 0
7 *1493:D *1270:A1 0.000169099
*RES
1 *1267:ZN *1270:A1 12.848 
*END

*D_NET *234 0.00145932
*CONN
*I *1269:A2 I *D gf180mcu_fd_sc_mcu7t5v0__nor2_1
*I *1268:Z O *D gf180mcu_fd_sc_mcu7t5v0__xor2_1
*CAP
1 *1269:A2 0.000196873
2 *1268:Z 0.000196873
3 *1269:A2 *1245:A1 0.000190633
4 *1269:A2 *360:23 0.00042505
5 *1269:A2 *360:29 3.18441e-05
6 *1245:A2 *1269:A2 9.21455e-05
7 *1245:A3 *1269:A2 0.000139667
8 *1343:A2 *1269:A2 0
9 *157:24 *1269:A2 0.000134833
10 *214:19 *1269:A2 5.13977e-05
*RES
1 *1268:Z *1269:A2 12.328 
*END

*D_NET *235 0.0128478
*CONN
*I *1340:A1 I *D gf180mcu_fd_sc_mcu7t5v0__or2_1
*I *1344:A2 I *D gf180mcu_fd_sc_mcu7t5v0__nor2_1
*I *1270:A2 I *D gf180mcu_fd_sc_mcu7t5v0__nor2_1
*I *1269:ZN O *D gf180mcu_fd_sc_mcu7t5v0__nor2_1
*CAP
1 *1340:A1 0
2 *1344:A2 0
3 *1270:A2 0.000686983
4 *1269:ZN 0.000295283
5 *235:18 0.0025156
6 *235:6 0.0021239
7 *1270:A2 *319:30 0.00225757
8 *1270:A2 *327:16 2.87314e-05
9 *235:6 *1268:A1 2.39523e-06
10 *235:6 *1343:B1 0
11 *235:6 *359:8 2.79913e-05
12 *235:6 *360:29 0.000732966
13 *235:18 *1349:A1 0
14 *235:18 *1352:A1 0.000147593
15 *235:18 *1353:A2 2.0301e-05
16 *235:18 *271:19 5.23429e-05
17 *235:18 *301:12 0.00117865
18 *1242:A2 *1270:A2 5.85372e-05
19 *1245:A3 *235:6 1.57479e-05
20 *1266:A1 *1270:A2 0.000531148
21 *1266:A2 *1270:A2 7.15269e-06
22 *1266:B *1270:A2 0.000639983
23 *1343:A3 *235:6 0.000183033
24 *1495:D *235:6 1.60338e-05
25 *206:6 *1270:A2 3.17907e-05
26 *206:8 *1270:A2 2.13874e-05
27 *207:10 *235:18 0.0011597
28 *214:19 *235:6 0.000113027
*RES
1 *1269:ZN *235:6 7.932 
2 *235:6 *235:18 32.768 
3 *235:18 *1270:A2 22.652 
4 *235:18 *1344:A2 4.5 
5 *235:6 *1340:A1 4.5 
*END

*D_NET *236 0.0105471
*CONN
*I *1272:A2 I *D gf180mcu_fd_sc_mcu7t5v0__nor2_1
*I *1271:ZN O *D gf180mcu_fd_sc_mcu7t5v0__aoi211_1
*CAP
1 *1272:A2 0.00160495
2 *1271:ZN 0.00160495
3 *1272:A2 *1184:I 6.8808e-05
4 *1272:A2 *1238:A1 0.000160193
5 *1272:A2 *1271:C 0
6 *1272:A2 *1351:A2 0.00040043
7 *1272:A2 *1351:B 1.35124e-05
8 *1272:A2 *1352:A1 0.00017215
9 *1272:A2 *1504:D 7.992e-05
10 *1272:A2 *327:67 0.000125188
11 *1272:A2 *359:42 3.79374e-05
12 *1238:A2 *1272:A2 0.000185295
13 *1243:A3 *1272:A2 0.000346997
14 *1249:A1 *1272:A2 0.000888506
15 *1249:B *1272:A2 0.0020778
16 *1250:A1 *1272:A2 3.49145e-05
17 *1271:A2 *1272:A2 7.87395e-06
18 *1350:A1 *1272:A2 0.000179941
19 *1493:D *1272:A2 0.000117701
20 *158:6 *1272:A2 0.00134546
21 *211:16 *1272:A2 0.000128404
22 *211:20 *1272:A2 5.82277e-05
23 *218:33 *1272:A2 0.000307234
24 *219:10 *1272:A2 0.00060068
25 *231:29 *1272:A2 0
*RES
1 *1271:ZN *1272:A2 31.776 
*END

*D_NET *237 0.00802272
*CONN
*I *1277:A2 I *D gf180mcu_fd_sc_mcu7t5v0__aoi21_1
*I *1274:A2 I *D gf180mcu_fd_sc_mcu7t5v0__nor2_1
*I *1275:A2 I *D gf180mcu_fd_sc_mcu7t5v0__aoi21_1
*I *1276:A2 I *D gf180mcu_fd_sc_mcu7t5v0__nor2_1
*I *1354:A1 I *D gf180mcu_fd_sc_mcu7t5v0__nand2_1
*I *1273:ZN O *D gf180mcu_fd_sc_mcu7t5v0__nand2_1
*CAP
1 *1277:A2 0
2 *1274:A2 8.48539e-05
3 *1275:A2 0.000383247
4 *1276:A2 7.21312e-05
5 *1354:A1 0.000297599
6 *1273:ZN 0.000453474
7 *237:34 0.00128975
8 *237:19 0.00129269
9 *237:8 0.00114998
10 *1274:A2 *1275:B 0
11 *1275:A2 *1275:B 1.64666e-05
12 *1275:A2 *1277:B 2.81522e-06
13 *1275:A2 *1477:CLK 0
14 *1275:A2 *1541:I 0
15 *1276:A2 *1292:I0 4.07478e-05
16 *1276:A2 *310:88 0.00012524
17 *1276:A2 *348:24 0.000108108
18 *1354:A1 *366:12 3.50199e-05
19 *237:8 *1345:A1 0.000296566
20 *237:8 *1514:I 0.000203364
21 *237:8 *270:22 0.00016799
22 *237:8 *293:18 1.19663e-05
23 *237:19 *310:96 0
24 *237:19 *366:12 4.08585e-05
25 *237:34 *1274:A1 3.07938e-05
26 *237:34 *1277:B 3.99399e-06
27 *237:34 *1476:CLK 0
28 *237:34 *310:96 0
29 *237:34 *366:12 3.08279e-06
30 *1275:A1 *1275:A2 0.000806404
31 *1345:A2 *237:8 6.13659e-05
32 *1476:D *237:34 0.000216695
33 *1477:D *1275:A2 0.000428493
34 *1501:D *237:8 0
35 *1501:RN *237:34 0.000399013
*RES
1 *1273:ZN *237:8 13.888 
2 *237:8 *1354:A1 11.184 
3 *237:8 *237:19 2.808 
4 *237:19 *1276:A2 9.936 
5 *237:19 *237:34 11.78 
6 *237:34 *1275:A2 8.556 
7 *237:34 *1274:A2 5.228 
8 *237:34 *1277:A2 4.5 
*END

*D_NET *238 0.00104544
*CONN
*I *1275:B I *D gf180mcu_fd_sc_mcu7t5v0__aoi21_1
*I *1274:ZN O *D gf180mcu_fd_sc_mcu7t5v0__nor2_1
*CAP
1 *1275:B 0.0004045
2 *1274:ZN 0.0004045
3 *1275:B *1431:I 0
4 *1274:A2 *1275:B 0
5 *1275:A1 *1275:B 0.000219976
6 *1275:A2 *1275:B 1.64666e-05
7 *1310:A1 *1275:B 0
*RES
1 *1274:ZN *1275:B 12.224 
*END

*D_NET *239 0.00135459
*CONN
*I *1277:B I *D gf180mcu_fd_sc_mcu7t5v0__aoi21_1
*I *1276:ZN O *D gf180mcu_fd_sc_mcu7t5v0__nor2_1
*CAP
1 *1277:B 0.000521774
2 *1276:ZN 0.000521774
3 *1277:B *1292:I0 0
4 *1277:B *366:12 0
5 *1275:A2 *1277:B 2.81522e-06
6 *1476:D *1277:B 0.000304228
7 *237:34 *1277:B 3.99399e-06
*RES
1 *1276:ZN *1277:B 13.16 
*END

*D_NET *240 0.000478987
*CONN
*I *1279:B I *D gf180mcu_fd_sc_mcu7t5v0__oai21_1
*I *1278:ZN O *D gf180mcu_fd_sc_mcu7t5v0__nand2_1
*CAP
1 *1279:B 0.000120173
2 *1278:ZN 0.000120173
3 *1279:B *1321:A1 0
4 *1279:B *354:48 0.000238642
*RES
1 *1278:ZN *1279:B 10.248 
*END

*D_NET *241 0.000506182
*CONN
*I *1281:B I *D gf180mcu_fd_sc_mcu7t5v0__aoi21_1
*I *1280:ZN O *D gf180mcu_fd_sc_mcu7t5v0__nor2_1
*CAP
1 *1281:B 0.000135255
2 *1280:ZN 0.000135255
3 *1281:B *1280:A1 0.000118657
4 *1281:B *253:42 0.000117015
*RES
1 *1280:ZN *1281:B 10.352 
*END

*D_NET *242 0.000206641
*CONN
*I *1283:B I *D gf180mcu_fd_sc_mcu7t5v0__oai21_1
*I *1282:ZN O *D gf180mcu_fd_sc_mcu7t5v0__nand2_1
*CAP
1 *1283:B 0.000103321
2 *1282:ZN 0.000103321
*RES
1 *1282:ZN *1283:B 9.624 
*END

*D_NET *243 0.00838711
*CONN
*I *1290:S I *D gf180mcu_fd_sc_mcu7t5v0__mux2_2
*I *1291:S I *D gf180mcu_fd_sc_mcu7t5v0__mux2_2
*I *1292:S I *D gf180mcu_fd_sc_mcu7t5v0__mux2_2
*I *1289:ZN O *D gf180mcu_fd_sc_mcu7t5v0__nand3_1
*CAP
1 *1290:S 0.000312373
2 *1291:S 0.000739513
3 *1292:S 0.000591265
4 *1289:ZN 0.000154305
5 *243:8 0.00117271
6 *1290:S *1290:I1 0
7 *1290:S *1291:I1 0.000769969
8 *1290:S *1306:A1 0.000305226
9 *1290:S *1467:CLK 0.000122244
10 *1290:S *1527:I 7.90369e-05
11 *1290:S *319:62 3.65102e-05
12 *1291:S *1289:A1 0.000438819
13 *1291:S *1291:I1 4.41041e-05
14 *1291:S *310:66 2.20647e-05
15 *1291:S *319:62 0
16 *1291:S *349:25 0.000290159
17 *1291:S *349:33 0.000101453
18 *1291:S *357:10 0.000271764
19 *1292:S *1274:A1 4.98252e-05
20 *1292:S *1292:I0 0.000223961
21 *1292:S *1292:I1 3.4596e-05
22 *1292:S *1477:CLK 0.000373028
23 *1292:S *310:66 0.000270519
24 *1292:S *349:25 4.76807e-05
25 *243:8 *1274:A1 0
26 *243:8 *349:12 3.03268e-05
27 *1277:A1 *1291:S 2.76367e-05
28 *1277:A1 *1292:S 0.00119933
29 *1277:A1 *243:8 0.000322233
30 *1466:D *1291:S 0.000121177
31 *1467:D *1290:S 1.60428e-05
32 *140:14 *243:8 0.000219242
*RES
1 *1289:ZN *243:8 10.56 
2 *243:8 *1292:S 16.072 
3 *243:8 *1291:S 14.512 
4 *1291:S *1290:S 21.848 
*END

*D_NET *244 0.0130161
*CONN
*I *1522:I I *D gf180mcu_fd_sc_mcu7t5v0__dlyb_1
*I *1521:I I *D gf180mcu_fd_sc_mcu7t5v0__dlyb_1
*I *1293:ZN O *D gf180mcu_fd_sc_mcu7t5v0__nand3_1
*CAP
1 *1522:I 0.00180763
2 *1521:I 0
3 *1293:ZN 0.00110864
4 *244:12 0.00291627
5 *1522:I *1355:A2 0
6 *1522:I *1425:I 0.000134833
7 *1522:I *1426:I 7.9929e-05
8 *1522:I *1457:CLK 0.000126399
9 *1522:I *1527:I 0.00445982
10 *1522:I *296:6 0
11 *1522:I *306:119 0
12 *1522:I *314:6 3.42651e-05
13 *1522:I *326:22 0
14 *244:12 *1290:I1 0.000125283
15 *244:12 *1457:CLK 0.000109558
16 *244:12 *1527:I 0.000753787
17 *244:12 *349:25 0.000170457
18 *244:12 *349:33 5.53387e-05
19 *244:12 *350:8 0
20 *244:12 *350:14 0.000160598
21 *1264:A3 *1522:I 0.000187241
22 *1299:A1 *1522:I 0.000500772
23 *1355:A3 *1522:I 0.000122244
24 *1441:D *1522:I 0.000106953
25 *1442:D *1522:I 1.60428e-05
26 *1462:D *1522:I 2.14739e-05
27 *1471:RN *1522:I 1.85523e-05
*RES
1 *1293:ZN *244:12 23.068 
2 *244:12 *1521:I 4.5 
3 *244:12 *1522:I 24.78 
*END

*D_NET *245 0.00174193
*CONN
*I *1295:B I *D gf180mcu_fd_sc_mcu7t5v0__oai21_1
*I *1294:ZN O *D gf180mcu_fd_sc_mcu7t5v0__nand2_1
*CAP
1 *1295:B 0.000548813
2 *1294:ZN 0.000548813
3 *1295:B *1295:A2 6.8199e-07
4 *1295:B *299:14 0.000582267
5 *1295:B *299:16 0
6 *1464:D *1295:B 6.13569e-05
*RES
1 *1294:ZN *1295:B 13.992 
*END

*D_NET *246 0.000650532
*CONN
*I *1297:B I *D gf180mcu_fd_sc_mcu7t5v0__aoi21_1
*I *1296:ZN O *D gf180mcu_fd_sc_mcu7t5v0__nor2_1
*CAP
1 *1297:B 9.55798e-05
2 *1296:ZN 9.55798e-05
3 *1297:B *1409:I 0
4 *1297:B *307:32 0.000459373
*RES
1 *1296:ZN *1297:B 19.352 
*END

*D_NET *247 0.00130657
*CONN
*I *1299:B I *D gf180mcu_fd_sc_mcu7t5v0__oai21_1
*I *1298:ZN O *D gf180mcu_fd_sc_mcu7t5v0__nand2_1
*CAP
1 *1299:B 0.00017509
2 *1298:ZN 0.00017509
3 *1299:B *1298:A1 9.11499e-05
4 *1299:B *1299:A2 0.000865238
5 *1299:B *296:55 0
*RES
1 *1298:ZN *1299:B 20.808 
*END

*D_NET *248 0.00104542
*CONN
*I *1301:B I *D gf180mcu_fd_sc_mcu7t5v0__aoi21_1
*I *1300:ZN O *D gf180mcu_fd_sc_mcu7t5v0__nor2_1
*CAP
1 *1301:B 0.000320612
2 *1300:ZN 0.000320612
3 *1301:B *1321:A1 0.000196644
4 *1301:B *1461:CLK 4.15898e-06
5 *1301:B *1463:CLK 0.000203397
*RES
1 *1300:ZN *1301:B 11.184 
*END

*D_NET *249 0.00143111
*CONN
*I *1303:B I *D gf180mcu_fd_sc_mcu7t5v0__aoi21_1
*I *1302:ZN O *D gf180mcu_fd_sc_mcu7t5v0__nor2_1
*CAP
1 *1303:B 0.000485693
2 *1302:ZN 0.000485693
3 *1303:B *1302:A2 0.000271523
4 *1303:B *1303:A2 5.78216e-06
5 *1303:B *1395:I 0
6 *1303:B *306:21 0
7 *1303:B *306:25 6.06951e-05
8 *1211:B2 *1303:B 0.000121726
*RES
1 *1302:ZN *1303:B 21.744 
*END

*D_NET *250 0.000676904
*CONN
*I *1305:B I *D gf180mcu_fd_sc_mcu7t5v0__aoi21_1
*I *1304:ZN O *D gf180mcu_fd_sc_mcu7t5v0__nor2_1
*CAP
1 *1305:B 0.000178523
2 *1304:ZN 0.000178523
3 *1305:B *1306:A1 1.07369e-05
4 *1305:B *1307:B 0.000224626
5 *1305:B *313:48 8.44951e-05
*RES
1 *1304:ZN *1305:B 10.56 
*END

*D_NET *251 0.00225187
*CONN
*I *1307:B I *D gf180mcu_fd_sc_mcu7t5v0__aoi21_1
*I *1306:ZN O *D gf180mcu_fd_sc_mcu7t5v0__nor2_1
*CAP
1 *1307:B 0.000537597
2 *1306:ZN 0.000537597
3 *1307:B *1306:A1 0.000654445
4 *1307:B *1306:A2 1.08279e-05
5 *1307:B *295:87 1.69682e-05
6 *1307:B *306:41 7.29541e-06
7 *1307:B *313:48 4.96334e-06
8 *1305:A1 *1307:B 0.000112665
9 *1305:B *1307:B 0.000224626
10 *1459:D *1307:B 8.0994e-05
11 *1467:RN *1307:B 6.38863e-05
*RES
1 *1306:ZN *1307:B 14.408 
*END

*D_NET *252 0.0032016
*CONN
*I *1309:B I *D gf180mcu_fd_sc_mcu7t5v0__aoi21_1
*I *1308:ZN O *D gf180mcu_fd_sc_mcu7t5v0__nor2_1
*CAP
1 *1309:B 0.000405372
2 *1308:ZN 0.000405372
3 *1309:B *1308:A2 0.00195522
4 *1309:B *292:119 1.86931e-05
5 *1309:B *295:31 0.000155247
6 *1457:D *1309:B 0.000261696
*RES
1 *1308:ZN *1309:B 24.344 
*END

*D_NET *253 0.0251519
*CONN
*I *1321:A2 I *D gf180mcu_fd_sc_mcu7t5v0__nand2_1
*I *1322:A2 I *D gf180mcu_fd_sc_mcu7t5v0__oai21_1
*I *1319:A2 I *D gf180mcu_fd_sc_mcu7t5v0__oai21_1
*I *1520:I I *D gf180mcu_fd_sc_mcu7t5v0__dlyb_1
*I *1310:Z O *D gf180mcu_fd_sc_mcu7t5v0__and3_1
*CAP
1 *1321:A2 0.000298443
2 *1322:A2 2.44118e-05
3 *1319:A2 0.000646262
4 *1520:I 0.00226437
5 *1310:Z 0.000813686
6 *253:65 0.00151653
7 *253:42 0.00329062
8 *1319:A2 *1319:B 0.000510584
9 *1319:A2 *305:58 0
10 *1319:A2 *331:8 3.3698e-05
11 *1321:A2 *1321:A1 1.71326e-05
12 *1321:A2 *1322:B 0.000234266
13 *1321:A2 *1512:I 0.000114398
14 *1321:A2 *292:72 1.78586e-05
15 *1322:A2 *1450:CLK 9.76253e-05
16 *1520:I *1166:I 3.37878e-06
17 *1520:I *1285:I1 0.00011484
18 *1520:I *1470:CLK 8.73871e-05
19 *1520:I *1471:CLK 9.06182e-05
20 *1520:I *292:119 0.000185941
21 *1520:I *295:27 2.52851e-05
22 *1520:I *330:12 0.000883626
23 *1520:I *350:25 7.31737e-05
24 *1520:I *350:38 7.73327e-05
25 *253:42 *1278:A2 5.33807e-05
26 *253:42 *1280:A1 1.08986e-05
27 *253:42 *1285:S 2.8677e-05
28 *253:42 *1313:A1 0.00028351
29 *253:42 *1471:CLK 0.000491544
30 *253:42 *1475:CLK 2.28589e-05
31 *253:42 *308:52 0.000711423
32 *253:42 *308:82 0
33 *253:42 *308:96 0.000325477
34 *253:42 *328:27 8.77159e-05
35 *253:42 *330:39 0.000110023
36 *253:42 *349:83 0.000487138
37 *253:42 *352:39 0.000471172
38 *253:42 *354:38 0
39 *253:42 *354:48 0.000680876
40 *253:65 *1311:A2 0.00111148
41 *253:65 *1312:B 2.89755e-05
42 *253:65 *1313:A1 0.000428493
43 *253:65 *1313:A2 0.000249521
44 *253:65 *1314:B 0.000720651
45 *253:65 *1450:CLK 6.47033e-06
46 *253:65 *1475:CLK 0.000245179
47 *253:65 *1518:I 0
48 *253:65 *292:72 8.88175e-05
49 *253:65 *299:60 0.00179224
50 *253:65 *328:34 0.00017517
51 *253:65 *354:48 1.71324e-06
52 *1279:A1 *253:42 0.000419265
53 *1281:B *253:42 0.000117015
54 *1312:A1 *253:65 0
55 *1316:A1 *1319:A2 1.32276e-05
56 *1319:A1 *1319:A2 4.08012e-05
57 *1322:A1 *1321:A2 0.000185538
58 *1322:A1 *253:65 0.00018553
59 *1450:D *1321:A2 0.000344646
60 *1450:D *1322:A2 9.76253e-05
61 *1452:D *1319:A2 4.11753e-05
62 *1471:D *1520:I 0.000899468
63 *1471:D *253:42 0
64 *1472:D *253:42 0.000408718
65 *1474:D *253:42 0.000360259
66 *1475:D *253:42 0.000289026
67 *140:8 *1520:I 0.000188776
68 *141:29 *253:65 0
69 *152:10 *1319:A2 1.57245e-05
70 *231:14 *253:42 0.00151019
*RES
1 *1310:Z *1520:I 27.776 
2 *1520:I *253:42 28.656 
3 *253:42 *1319:A2 13.992 
4 *253:42 *253:65 23.768 
5 *253:65 *1322:A2 9.312 
6 *253:65 *1321:A2 12.12 
*END

*D_NET *254 0.00158713
*CONN
*I *1312:B I *D gf180mcu_fd_sc_mcu7t5v0__aoi21_1
*I *1311:ZN O *D gf180mcu_fd_sc_mcu7t5v0__nor2_1
*CAP
1 *1312:B 0.000481241
2 *1311:ZN 0.000481241
3 *1312:B *1311:A2 1.26329e-05
4 *1312:B *1321:A1 6.17593e-05
5 *1312:B *1518:I 6.20064e-05
6 *1312:B *299:51 0.000419276
7 *1456:D *1312:B 4.00017e-05
8 *253:65 *1312:B 2.89755e-05
*RES
1 *1311:ZN *1312:B 13.68 
*END

*D_NET *255 0.00305892
*CONN
*I *1314:B I *D gf180mcu_fd_sc_mcu7t5v0__oai21_1
*I *1313:ZN O *D gf180mcu_fd_sc_mcu7t5v0__nand2_1
*CAP
1 *1314:B 0.00023053
2 *1313:ZN 0.00023053
3 *1314:B *1300:A1 0.000490009
4 *1314:B *1313:A2 0.000498816
5 *1314:B *1475:CLK 0.000569964
6 *1314:B *1510:I 7.73463e-05
7 *1314:B *299:60 0.00017298
8 *151:12 *1314:B 6.80911e-05
9 *253:65 *1314:B 0.000720651
*RES
1 *1313:ZN *1314:B 22.368 
*END

*D_NET *256 0.0013023
*CONN
*I *1316:B I *D gf180mcu_fd_sc_mcu7t5v0__oai21_1
*I *1315:ZN O *D gf180mcu_fd_sc_mcu7t5v0__nand2_1
*CAP
1 *1316:B 0.000281141
2 *1315:ZN 0.000281141
3 *1316:B *305:58 3.40995e-07
4 *1316:B *333:8 0.000498711
5 *1316:B *352:60 3.72267e-05
6 *1316:A1 *1316:B 0.000203739
*RES
1 *1315:ZN *1316:B 12.328 
*END

*D_NET *257 0.00824857
*CONN
*I *1319:B I *D gf180mcu_fd_sc_mcu7t5v0__oai21_1
*I *1318:ZN O *D gf180mcu_fd_sc_mcu7t5v0__nand2_1
*CAP
1 *1319:B 0.000940138
2 *1318:ZN 0.000940138
3 *1319:B *1178:I 0.000159505
4 *1319:B *1195:A2 3.57634e-06
5 *1319:B *1287:S 0
6 *1319:B *1315:A1 6.79908e-05
7 *1319:B *1323:S 0
8 *1319:B *1403:I 4.79815e-05
9 *1319:B *1427:I 6.82549e-05
10 *1319:B *1472:CLK 0.00168066
11 *1319:B *305:58 0.000349628
12 *1319:B *330:39 0.00278542
13 *1319:B *333:8 7.53082e-05
14 *1319:A2 *1319:B 0.000510584
15 *1449:SETN *1319:B 0.000428493
16 *1473:RN *1319:B 7.50317e-05
17 *152:10 *1319:B 0.000115856
*RES
1 *1318:ZN *1319:B 32.976 
*END

*D_NET *258 0.00166128
*CONN
*I *1322:B I *D gf180mcu_fd_sc_mcu7t5v0__oai21_1
*I *1321:ZN O *D gf180mcu_fd_sc_mcu7t5v0__nand2_1
*CAP
1 *1322:B 0.000484114
2 *1321:ZN 0.000484114
3 *1322:B *1194:A2 1.18566e-06
4 *1322:B *1512:I 2.25463e-05
5 *1322:B *1513:I 0
6 *1322:B *318:56 0.00043505
7 *1321:A2 *1322:B 0.000234266
*RES
1 *1321:ZN *1322:B 22.16 
*END

*D_NET *259 0.00454122
*CONN
*I *1337:A3 I *D gf180mcu_fd_sc_mcu7t5v0__nor4_1
*I *1539:I I *D gf180mcu_fd_sc_mcu7t5v0__buf_1
*I *1324:ZN O *D gf180mcu_fd_sc_mcu7t5v0__nor3_1
*CAP
1 *1337:A3 0
2 *1539:I 0.0011045
3 *1324:ZN 0.00050348
4 *259:10 0.00160798
5 *1539:I *1335:A2 0
6 *1539:I *1377:I0 3.40445e-05
7 *1539:I *1434:I 2.36218e-05
8 *1539:I *1544:I 0
9 *1539:I *303:18 5.22571e-05
10 *1539:I *316:27 5.10257e-05
11 *1539:I *325:31 0
12 *1539:I *345:10 0.000258305
13 *259:10 *1336:A1 0.000438808
14 *259:10 *1377:I0 3.20057e-06
15 *259:10 *1388:I 7.9929e-05
16 *259:10 *316:62 2.25858e-05
17 *259:10 *325:31 0
18 *259:10 *372:10 0.000193782
19 *1336:A2 *259:10 0
20 *1377:S *259:10 0
21 *1481:RN *1539:I 0.000167703
22 *1487:RN *259:10 0
*RES
1 *1324:ZN *259:10 13.576 
2 *259:10 *1539:I 16.696 
3 *259:10 *1337:A3 9 
*END

*D_NET *260 0.000445627
*CONN
*I *1332:A2 I *D gf180mcu_fd_sc_mcu7t5v0__xor2_1
*I *1325:ZN O *D gf180mcu_fd_sc_mcu7t5v0__nand2_1
*CAP
1 *1332:A2 0.000172181
2 *1325:ZN 0.000172181
3 *1332:A2 *1193:I 7.73997e-05
4 *1332:A2 *1333:A2 2.38656e-05
5 *1332:A2 *318:31 0
*RES
1 *1325:ZN *1332:A2 10.352 
*END

*D_NET *261 0.00126282
*CONN
*I *1330:A2 I *D gf180mcu_fd_sc_mcu7t5v0__xor2_1
*I *1326:ZN O *D gf180mcu_fd_sc_mcu7t5v0__nand3_1
*CAP
1 *1330:A2 0.000283798
2 *1326:ZN 0.000283798
3 *1330:A2 *1326:A1 0.000191446
4 *1330:A2 *1326:A2 0.000113016
5 *1330:A2 *1330:A1 0.000390761
*RES
1 *1326:ZN *1330:A2 12.016 
*END

*D_NET *262 0.000440325
*CONN
*I *1328:A2 I *D gf180mcu_fd_sc_mcu7t5v0__xor2_1
*I *1327:ZN O *D gf180mcu_fd_sc_mcu7t5v0__nand4_1
*CAP
1 *1328:A2 0.0001468
2 *1327:ZN 0.0001468
3 *1328:A2 *374:27 0.000146725
*RES
1 *1327:ZN *1328:A2 10.144 
*END

*D_NET *263 0.00102812
*CONN
*I *1329:A3 I *D gf180mcu_fd_sc_mcu7t5v0__nor3_1
*I *1328:Z O *D gf180mcu_fd_sc_mcu7t5v0__xor2_1
*CAP
1 *1329:A3 9.46627e-05
2 *1328:Z 9.46627e-05
3 *1329:A3 *1198:A2 0.000197059
4 *1329:A3 *1332:A1 0.000367033
5 *1329:A3 *315:69 0
6 *1329:A3 *374:27 0.000274703
*RES
1 *1328:Z *1329:A3 19.768 
*END

*D_NET *264 0.000751488
*CONN
*I *1331:A3 I *D gf180mcu_fd_sc_mcu7t5v0__nor3_1
*I *1330:Z O *D gf180mcu_fd_sc_mcu7t5v0__xor2_1
*CAP
1 *1331:A3 0.000189556
2 *1330:Z 0.000189556
3 *1331:A3 *1330:A1 0
4 *1331:A3 *325:55 0.00033778
5 *1331:A3 *325:61 3.4596e-05
*RES
1 *1330:Z *1331:A3 10.664 
*END

*D_NET *265 0.00153254
*CONN
*I *1333:A3 I *D gf180mcu_fd_sc_mcu7t5v0__nor3_1
*I *1332:Z O *D gf180mcu_fd_sc_mcu7t5v0__xor2_1
*CAP
1 *1333:A3 0.000244108
2 *1332:Z 0.000244108
3 *1333:A3 *1333:A1 0.000157359
4 *1333:A3 *1333:A2 0.000842008
5 *1333:A3 *318:31 4.49574e-05
*RES
1 *1332:Z *1333:A3 12.224 
*END

*D_NET *266 0.00027113
*CONN
*I *1335:A3 I *D gf180mcu_fd_sc_mcu7t5v0__nor3_1
*I *1334:ZN O *D gf180mcu_fd_sc_mcu7t5v0__xnor2_1
*CAP
1 *1335:A3 7.65623e-05
2 *1334:ZN 7.65623e-05
3 *1335:A3 *302:16 5.90026e-05
4 *1488:D *1335:A3 5.90026e-05
*RES
1 *1334:ZN *1335:A3 9.728 
*END

*D_NET *267 0.000973
*CONN
*I *1337:A4 I *D gf180mcu_fd_sc_mcu7t5v0__nor4_1
*I *1336:ZN O *D gf180mcu_fd_sc_mcu7t5v0__nor2_1
*CAP
1 *1337:A4 0.000431601
2 *1336:ZN 0.000431601
3 *1337:A4 *1193:I 0
4 *1337:A4 *1336:A1 0
5 *1337:A4 *1377:I1 2.76494e-05
6 *1337:A4 *1388:I 0
7 *1337:A4 *302:23 6.8199e-07
8 *1487:RN *1337:A4 0
9 *27:10 *1337:A4 8.14679e-05
*RES
1 *1336:ZN *1337:A4 12.328 
*END

*D_NET *268 0.0033876
*CONN
*I *1341:A2 I *D gf180mcu_fd_sc_mcu7t5v0__oai22_1
*I *1342:A2 I *D gf180mcu_fd_sc_mcu7t5v0__oai22_1
*I *1338:ZN O *D gf180mcu_fd_sc_mcu7t5v0__nand2_1
*CAP
1 *1341:A2 0
2 *1342:A2 0.000347184
3 *1338:ZN 0.000500058
4 *268:14 0.000847242
5 *1342:A2 *1186:I 4.96829e-06
6 *1342:A2 *1341:B1 0.000536713
7 *1342:A2 *310:36 0.000820132
8 *1342:A2 *327:10 0
9 *268:14 *1338:A1 2.16279e-05
10 *268:14 *319:30 2.34604e-05
11 *1341:B2 *1342:A2 3.83949e-05
12 *1342:A1 *1342:A2 1.65042e-05
13 *1479:RN *268:14 0.000119476
14 *1493:RN *268:14 0.00011184
*RES
1 *1338:ZN *268:14 8.764 
2 *268:14 *1342:A2 16.516 
3 *268:14 *1341:A2 4.5 
*END

*D_NET *269 0.0108921
*CONN
*I *1340:A2 I *D gf180mcu_fd_sc_mcu7t5v0__or2_1
*I *1346:A2 I *D gf180mcu_fd_sc_mcu7t5v0__nand2_1
*I *1349:A2 I *D gf180mcu_fd_sc_mcu7t5v0__nand2_1
*I *1353:A2 I *D gf180mcu_fd_sc_mcu7t5v0__aoi22_1
*I *1339:Z O *D gf180mcu_fd_sc_mcu7t5v0__and2_1
*CAP
1 *1340:A2 0.000351393
2 *1346:A2 0
3 *1349:A2 0
4 *1353:A2 0.000472563
5 *1339:Z 0.000586063
6 *269:34 0.000620753
7 *269:32 0.00155358
8 *269:16 0.00234284
9 *1340:A2 *294:58 0
10 *1340:A2 *360:29 1.83778e-05
11 *1353:A2 *1240:A1 0.000113016
12 *1353:A2 *1348:A2 0.000165912
13 *1353:A2 *1349:A1 0.000614165
14 *1353:A2 *1353:B1 8.94231e-05
15 *1353:A2 *1492:CLK 0.000365179
16 *1353:A2 *270:22 0
17 *1353:A2 *294:12 4.18042e-05
18 *1353:A2 *366:45 1.06742e-05
19 *269:16 *1244:A1 6.63561e-05
20 *269:16 *1392:I 0
21 *269:16 *359:8 0.000532701
22 *269:16 *360:23 1.25588e-05
23 *269:16 *360:29 4.69619e-06
24 *269:32 *1247:A1 0.000388555
25 *269:32 *1348:A1 0
26 *269:32 *1349:A1 7.45101e-06
27 *269:32 *1352:A1 0
28 *269:32 *1392:I 1.19663e-05
29 *269:32 *1394:I 3.14958e-05
30 *269:32 *311:14 5.91282e-05
31 *269:32 *319:30 0.000168848
32 *269:32 *359:8 0.000676838
33 *269:34 *1348:A1 4.67771e-06
34 *269:34 *1349:A1 0
35 *269:34 *294:12 0
36 *269:34 *319:30 0
37 *269:34 *366:35 0.000325477
38 *1243:A3 *1340:A2 3.1221e-05
39 *1247:A2 *269:32 3.13415e-05
40 *1339:A1 *269:16 0
41 *1347:A1 *1353:A2 0.000103788
42 *1494:D *1353:A2 0.000113016
43 *1502:SETN *269:16 6.99285e-05
44 *1504:SETN *269:32 0.000413506
45 *207:10 *1353:A2 0
46 *207:10 *269:34 0
47 *231:14 *269:32 0.000472507
48 *235:18 *1353:A2 2.0301e-05
*RES
1 *1339:Z *269:16 9.7 
2 *269:16 *269:32 20.856 
3 *269:32 *269:34 1.352 
4 *269:34 *1353:A2 18.7 
5 *269:34 *1349:A2 4.5 
6 *269:32 *1346:A2 4.5 
7 *269:16 *1340:A2 15.476 
*END

*D_NET *270 0.0115921
*CONN
*I *1343:B1 I *D gf180mcu_fd_sc_mcu7t5v0__oai32_1
*I *1342:B1 I *D gf180mcu_fd_sc_mcu7t5v0__oai22_1
*I *1341:B1 I *D gf180mcu_fd_sc_mcu7t5v0__oai22_1
*I *1340:Z O *D gf180mcu_fd_sc_mcu7t5v0__or2_1
*CAP
1 *1343:B1 0.000157311
2 *1342:B1 0
3 *1341:B1 0.000232706
4 *1340:Z 0.00261603
5 *270:22 0.00269143
6 *1341:B1 *1186:I 6.2687e-05
7 *1341:B1 *310:36 0.000119605
8 *1341:B1 *327:10 0
9 *1343:B1 *1268:A1 4.18157e-05
10 *270:22 *1186:I 1.96837e-05
11 *270:22 *1187:I 0
12 *270:22 *1240:A1 0
13 *270:22 *1348:A2 7.02773e-05
14 *270:22 *1353:B1 6.41721e-05
15 *270:22 *1354:A2 3.90883e-05
16 *270:22 *1384:I 0
17 *270:22 *1449:CLK 0.000107648
18 *270:22 *1514:I 0.000126399
19 *270:22 *293:18 0
20 *270:22 *294:31 0.00151526
21 *270:22 *294:44 7.76855e-05
22 *270:22 *310:36 0.000113605
23 *270:22 *311:31 0.000415294
24 *270:22 *365:14 0.000384366
25 *270:22 *365:20 6.32781e-05
26 *270:22 *366:12 2.20381e-05
27 *1342:A1 *270:22 2.49983e-05
28 *1342:A2 *1341:B1 0.000536713
29 *1342:B2 *1341:B1 0.000423669
30 *1342:B2 *270:22 0.000197059
31 *1343:A2 *1343:B1 6.18411e-06
32 *1345:A2 *270:22 0
33 *1347:A1 *270:22 6.8199e-07
34 *1353:A2 *270:22 0
35 *1492:D *270:22 0.000286495
36 *1495:D *1343:B1 0.000457697
37 *1495:D *270:22 0.0004162
38 *207:25 *270:22 0
39 *217:16 *270:22 0.000134086
40 *235:6 *1343:B1 0
41 *237:8 *270:22 0.00016799
*RES
1 *1340:Z *270:22 40.464 
2 *270:22 *1341:B1 11.6 
3 *270:22 *1342:B1 9 
4 *1340:Z *1343:B1 10.872 
*END

*D_NET *271 0.00399813
*CONN
*I *1347:A2 I *D gf180mcu_fd_sc_mcu7t5v0__oai21_1
*I *1353:B1 I *D gf180mcu_fd_sc_mcu7t5v0__aoi22_1
*I *1351:A1 I *D gf180mcu_fd_sc_mcu7t5v0__oai21_1
*I *1344:ZN O *D gf180mcu_fd_sc_mcu7t5v0__nor2_1
*CAP
1 *1347:A2 0
2 *1353:B1 0.000156229
3 *1351:A1 0.000220223
4 *1344:ZN 0
5 *271:19 0.000635305
6 *271:6 0.000699299
7 *1351:A1 *1271:A1 0
8 *1351:A1 *1352:A1 9.5278e-05
9 *1351:A1 *363:35 0
10 *271:19 *1241:A2 6.52687e-06
11 *271:19 *1352:A1 1.20913e-05
12 *271:19 *362:14 1.23184e-05
13 *271:19 *363:35 0
14 *1347:A1 *1353:B1 1.07369e-05
15 *1353:A2 *1353:B1 8.94231e-05
16 *207:10 *271:19 0.00137579
17 *207:25 *271:19 0.000139373
18 *211:10 *1351:A1 8.23372e-05
19 *211:10 *271:19 0.00026025
20 *211:16 *1351:A1 8.64348e-05
21 *235:18 *271:19 5.23429e-05
22 *270:22 *1353:B1 6.41721e-05
*RES
1 *1344:ZN *271:6 9 
2 *271:6 *1351:A1 10.768 
3 *271:6 *271:19 9.388 
4 *271:19 *1353:B1 5.956 
5 *271:19 *1347:A2 4.5 
*END

*D_NET *272 0.0015045
*CONN
*I *1348:A1 I *D gf180mcu_fd_sc_mcu7t5v0__nand2_1
*I *1346:ZN O *D gf180mcu_fd_sc_mcu7t5v0__nand2_1
*CAP
1 *1348:A1 0.000717864
2 *1346:ZN 0.000717864
3 *1348:A1 *1349:A1 5.02077e-05
4 *1348:A1 *311:31 0
5 *1348:A1 *367:38 1.38844e-05
6 *231:14 *1348:A1 0
7 *269:32 *1348:A1 0
8 *269:34 *1348:A1 4.67771e-06
*RES
1 *1346:ZN *1348:A1 21.952 
*END

*D_NET *273 0.00226865
*CONN
*I *1348:A2 I *D gf180mcu_fd_sc_mcu7t5v0__nand2_1
*I *1347:ZN O *D gf180mcu_fd_sc_mcu7t5v0__oai21_1
*CAP
1 *1348:A2 0.000409935
2 *1347:ZN 0.000409935
3 *1348:A2 *1246:A2 0
4 *1348:A2 *294:31 6.03575e-05
5 *1347:A1 *1348:A2 3.4596e-05
6 *1353:A2 *1348:A2 0.000165912
7 *1494:D *1348:A2 0.00111763
8 *270:22 *1348:A2 7.02773e-05
*RES
1 *1347:ZN *1348:A2 13.784 
*END

*D_NET *274 0.00224095
*CONN
*I *1352:A1 I *D gf180mcu_fd_sc_mcu7t5v0__nand2_1
*I *1349:ZN O *D gf180mcu_fd_sc_mcu7t5v0__nand2_1
*CAP
1 *1352:A1 0.000789543
2 *1349:ZN 0.000789543
3 *1352:A1 *1349:A1 3.22441e-06
4 *1352:A1 *1352:A2 2.81613e-05
5 *1352:A1 *327:67 0.000203364
6 *1272:A2 *1352:A1 0.00017215
7 *1350:A2 *1352:A1 0
8 *1351:A1 *1352:A1 9.5278e-05
9 *231:14 *1352:A1 0
10 *235:18 *1352:A1 0.000147593
11 *269:32 *1352:A1 0
12 *271:19 *1352:A1 1.20913e-05
*RES
1 *1349:ZN *1352:A1 24.448 
*END

*D_NET *275 0.00103387
*CONN
*I *1351:A2 I *D gf180mcu_fd_sc_mcu7t5v0__oai21_1
*I *1350:ZN O *D gf180mcu_fd_sc_mcu7t5v0__nor2_1
*CAP
1 *1351:A2 0.000257259
2 *1350:ZN 0.000257259
3 *1272:A2 *1351:A2 0.00040043
4 *211:16 *1351:A2 0.000118919
*RES
1 *1350:ZN *1351:A2 11.912 
*END

*D_NET *276 0.000504878
*CONN
*I *1352:A2 I *D gf180mcu_fd_sc_mcu7t5v0__nand2_1
*I *1351:ZN O *D gf180mcu_fd_sc_mcu7t5v0__oai21_1
*CAP
1 *1352:A2 0.000238358
2 *1351:ZN 0.000238358
3 *1352:A1 *1352:A2 2.81613e-05
4 *212:23 *1352:A2 0
*RES
1 *1351:ZN *1352:A2 19.352 
*END

*D_NET *277 0.00237959
*CONN
*I *1354:A2 I *D gf180mcu_fd_sc_mcu7t5v0__nand2_1
*I *1353:ZN O *D gf180mcu_fd_sc_mcu7t5v0__aoi22_1
*CAP
1 *1354:A2 0.000380848
2 *1353:ZN 0.000380848
3 *1354:A2 *1240:A1 9.65688e-05
4 *1354:A2 *1240:A2 0.000663752
5 *1354:A2 *366:35 2.36218e-05
6 *1354:A2 *367:23 0.000129822
7 *1342:A1 *1354:A2 1.31384e-05
8 *1492:D *1354:A2 0.000458125
9 *210:6 *1354:A2 0.000193782
10 *270:22 *1354:A2 3.90883e-05
*RES
1 *1353:ZN *1354:A2 13.992 
*END

*D_NET *278 0.00058149
*CONN
*I *1360:A2 I *D gf180mcu_fd_sc_mcu7t5v0__nand2_1
*I *1356:ZN O *D gf180mcu_fd_sc_mcu7t5v0__nand2_1
*CAP
1 *1360:A2 0.000175114
2 *1356:ZN 0.000175114
3 *1360:A2 *379:12 6.97265e-05
4 *1220:A2 *1360:A2 0.000161537
*RES
1 *1356:ZN *1360:A2 19.768 
*END

*D_NET *279 0.00125787
*CONN
*I *1358:A3 I *D gf180mcu_fd_sc_mcu7t5v0__nor3_1
*I *1357:ZN O *D gf180mcu_fd_sc_mcu7t5v0__xnor2_1
*CAP
1 *1358:A3 0.000293254
2 *1357:ZN 0.000293254
3 *1358:A3 *1357:A1 4.30651e-05
4 *1358:A3 *306:119 5.10203e-05
5 *1358:A3 *314:29 3.65102e-05
6 *1355:A3 *1358:A3 0.000391905
7 *1442:RN *1358:A3 0.000148865
*RES
1 *1357:ZN *1358:A3 12.432 
*END

*D_NET *280 0.00372219
*CONN
*I *1361:A1 I *D gf180mcu_fd_sc_mcu7t5v0__nand2_1
*I *1364:A2 I *D gf180mcu_fd_sc_mcu7t5v0__and2_1
*I *1363:A2 I *D gf180mcu_fd_sc_mcu7t5v0__nor2_1
*I *1359:ZN O *D gf180mcu_fd_sc_mcu7t5v0__nand3_1
*CAP
1 *1361:A1 0
2 *1364:A2 0
3 *1363:A2 0.000169995
4 *1359:ZN 0.000401926
5 *280:10 0.000543243
6 *280:6 0.000775174
7 *280:6 *1359:A2 0.000122244
8 *280:6 *381:12 0.000926189
9 *280:6 *381:18 0.000203739
10 *1220:A2 *280:6 7.31277e-05
11 *1220:A2 *280:10 5.59844e-05
12 *1364:A1 *1363:A2 0.000179963
13 *1364:A1 *280:10 7.60693e-05
14 *199:78 *280:10 0.000127703
15 *199:86 *280:6 2.35446e-05
16 *199:86 *280:10 4.32888e-05
*RES
1 *1359:ZN *280:6 8.972 
2 *280:6 *280:10 3.536 
3 *280:10 *1363:A2 15.06 
4 *280:10 *1364:A2 4.5 
5 *280:6 *1361:A1 4.5 
*END

*D_NET *281 0.00353505
*CONN
*I *1361:A2 I *D gf180mcu_fd_sc_mcu7t5v0__nand2_1
*I *1360:ZN O *D gf180mcu_fd_sc_mcu7t5v0__nand2_1
*CAP
1 *1361:A2 0.000422178
2 *1360:ZN 0.000422178
3 *1361:A2 *381:12 0
4 *1361:A2 *381:18 4.10573e-06
5 *1220:A1 *1361:A2 0.00196538
6 *1220:A2 *1361:A2 0.000721209
*RES
1 *1360:ZN *1361:A2 24.656 
*END

*D_NET *282 0.00012122
*CONN
*I *1362:A3 I *D gf180mcu_fd_sc_mcu7t5v0__nor3_1
*I *1361:ZN O *D gf180mcu_fd_sc_mcu7t5v0__nand2_1
*CAP
1 *1362:A3 6.06099e-05
2 *1361:ZN 6.06099e-05
*RES
1 *1361:ZN *1362:A3 9.52 
*END

*D_NET *283 0.0141365
*CONN
*I *1366:A2 I *D gf180mcu_fd_sc_mcu7t5v0__and2_1
*I *1367:A2 I *D gf180mcu_fd_sc_mcu7t5v0__nor2_1
*I *1365:A3 I *D gf180mcu_fd_sc_mcu7t5v0__nor4_1
*I *1363:ZN O *D gf180mcu_fd_sc_mcu7t5v0__nor2_1
*CAP
1 *1366:A2 0
2 *1367:A2 7.64092e-05
3 *1365:A3 0.000168512
4 *1363:ZN 0.000301909
5 *283:35 0.00110796
6 *283:12 0.00150197
7 *1365:A3 *326:12 3.23905e-05
8 *1367:A2 *317:90 0.000689365
9 *1367:A2 *383:14 0.000105993
10 *283:12 *1398:I 3.77594e-05
11 *283:12 *326:12 1.94951e-05
12 *283:35 *1218:A2 0.000267969
13 *283:35 *317:96 1.40331e-05
14 *283:35 *326:12 0.000113027
15 *283:35 *326:76 0.00308209
16 *283:35 *326:80 0.00120218
17 *283:35 *383:20 0
18 *283:35 *384:14 0
19 *1220:A1 *283:12 0.00142695
20 *1220:A2 *283:12 0.000553453
21 *1220:A2 *283:35 2.73715e-06
22 *1225:A1 *283:35 0.00011484
23 *1225:A2 *283:35 0.000209424
24 *1225:B1 *283:35 0.000970012
25 *1297:A1 *283:35 0.000131647
26 *1505:I *283:12 0.000268756
27 *1534:I *283:35 0.000117701
28 *144:25 *283:35 0.0015423
29 *188:18 *283:35 0
30 *199:76 *1365:A3 6.04672e-05
31 *199:76 *283:35 0
32 *199:78 *1365:A3 1.71326e-05
*RES
1 *1363:ZN *283:12 19.116 
2 *283:12 *1365:A3 5.956 
3 *283:12 *283:35 34.744 
4 *283:35 *1367:A2 15.268 
5 *283:35 *1366:A2 4.5 
*END

*D_NET *284 0.000928215
*CONN
*I *1365:A4 I *D gf180mcu_fd_sc_mcu7t5v0__nor4_1
*I *1364:Z O *D gf180mcu_fd_sc_mcu7t5v0__and2_1
*CAP
1 *1365:A4 0.000349874
2 *1364:Z 0.000349874
3 *1220:A2 *1365:A4 0
4 *199:78 *1365:A4 0.000228466
*RES
1 *1364:Z *1365:A4 11.912 
*END

*D_NET *285 0.00956647
*CONN
*I *1372:A3 I *D gf180mcu_fd_sc_mcu7t5v0__nand3_1
*I *1369:A2 I *D gf180mcu_fd_sc_mcu7t5v0__nand2_1
*I *1370:A2 I *D gf180mcu_fd_sc_mcu7t5v0__xnor2_1
*I *1368:A3 I *D gf180mcu_fd_sc_mcu7t5v0__nor4_1
*I *1366:Z O *D gf180mcu_fd_sc_mcu7t5v0__and2_1
*CAP
1 *1372:A3 0.000115447
2 *1369:A2 0
3 *1370:A2 0.000837867
4 *1368:A3 0.000549409
5 *1366:Z 0.000234746
6 *285:27 0.00122959
7 *285:23 0.000654244
8 *285:10 0.00093123
9 *1368:A3 *1368:A1 0.000378903
10 *1368:A3 *1402:I 6.33639e-05
11 *1368:A3 *383:14 0
12 *1370:A2 *1371:A3 0
13 *1370:A2 *1373:A1 0
14 *1370:A2 *1374:A1 6.8199e-07
15 *1370:A2 *1374:A3 0
16 *1370:A2 *1376:A3 0
17 *1370:A2 *1447:CLK 9.31476e-05
18 *1370:A2 *384:49 4.38131e-05
19 *1372:A3 *1402:I 1.77267e-05
20 *1372:A3 *383:8 0
21 *285:10 *326:80 0.000885441
22 *285:10 *326:95 7.22679e-05
23 *285:10 *383:14 0
24 *285:23 *1402:I 1.87342e-05
25 *285:23 *383:14 0
26 *285:27 *1369:A1 4.18042e-05
27 *285:27 *1376:A3 0
28 *285:27 *317:96 0.00220066
29 *285:27 *326:95 0.000253744
30 *1445:D *1368:A3 9.41125e-05
31 *1445:RN *1372:A3 3.55894e-05
32 *1446:RN *285:27 4.81384e-05
33 *1447:D *1370:A2 0.000156319
34 *199:45 *1370:A2 8.53312e-05
35 *199:47 *285:27 0
36 *199:53 *1368:A3 0.000428493
37 *199:53 *285:10 9.56679e-05
*RES
1 *1366:Z *285:10 11.912 
2 *285:10 *1368:A3 14.616 
3 *285:10 *285:23 0.936 
4 *285:23 *285:27 10.428 
5 *285:27 *1370:A2 19.948 
6 *285:27 *1369:A2 4.5 
7 *285:23 *1372:A3 9.936 
*END

*D_NET *286 0.0003328
*CONN
*I *1368:A4 I *D gf180mcu_fd_sc_mcu7t5v0__nor4_1
*I *1367:ZN O *D gf180mcu_fd_sc_mcu7t5v0__nor2_1
*CAP
1 *1368:A4 9.34675e-05
2 *1367:ZN 9.34675e-05
3 *1368:A4 *383:14 0.000122244
4 *199:53 *1368:A4 2.36218e-05
*RES
1 *1367:ZN *1368:A4 10.04 
*END

*D_NET *287 0.00159127
*CONN
*I *1373:A2 I *D gf180mcu_fd_sc_mcu7t5v0__xor2_1
*I *1369:ZN O *D gf180mcu_fd_sc_mcu7t5v0__nand2_1
*CAP
1 *1373:A2 0.000123798
2 *1369:ZN 0.000123798
3 *1373:A2 *1369:A1 0.000106908
4 *1373:A2 *1370:A1 0.000870766
5 *1373:A2 *317:96 0.000366003
*RES
1 *1369:ZN *1373:A2 11.6 
*END

*D_NET *288 0.000611996
*CONN
*I *1371:A3 I *D gf180mcu_fd_sc_mcu7t5v0__nor3_1
*I *1370:ZN O *D gf180mcu_fd_sc_mcu7t5v0__xnor2_1
*CAP
1 *1371:A3 0.000268195
2 *1370:ZN 0.000268195
3 *1371:A3 *1439:I 1.15684e-05
4 *1371:A3 *1447:CLK 7.87395e-06
5 *1370:A2 *1371:A3 0
6 *1446:D *1371:A3 5.61634e-05
*RES
1 *1370:ZN *1371:A3 11.184 
*END

*D_NET *289 0.00248573
*CONN
*I *1375:A2 I *D gf180mcu_fd_sc_mcu7t5v0__xor2_1
*I *1372:ZN O *D gf180mcu_fd_sc_mcu7t5v0__nand3_1
*CAP
1 *1375:A2 0.000263646
2 *1372:ZN 0.000263646
3 *1375:A2 *1375:A1 0.000151966
4 *1375:A2 *1399:I 0
5 *1375:A2 *1402:I 0.000198689
6 *1375:A2 *385:27 0.00132763
7 *1375:A2 *386:10 1.46474e-05
8 *1448:RN *1375:A2 0.000265501
*RES
1 *1372:ZN *1375:A2 13.784 
*END

*D_NET *290 0.00104602
*CONN
*I *1374:A3 I *D gf180mcu_fd_sc_mcu7t5v0__nor3_1
*I *1373:Z O *D gf180mcu_fd_sc_mcu7t5v0__xor2_1
*CAP
1 *1374:A3 0.000299858
2 *1373:Z 0.000299858
3 *1370:A2 *1374:A3 0
4 *1446:RN *1374:A3 0.00035533
5 *1447:D *1374:A3 0
6 *199:45 *1374:A3 9.09749e-05
*RES
1 *1373:Z *1374:A3 12.12 
*END

*D_NET *291 0.00132207
*CONN
*I *1376:A3 I *D gf180mcu_fd_sc_mcu7t5v0__nor3_1
*I *1375:Z O *D gf180mcu_fd_sc_mcu7t5v0__xor2_1
*CAP
1 *1376:A3 0.000433896
2 *1375:Z 0.000433896
3 *1376:A3 *326:95 2.57828e-05
4 *1370:A2 *1376:A3 0
5 *199:47 *1376:A3 0.000428493
6 *285:27 *1376:A3 0
*RES
1 *1375:Z *1376:A3 21.536 
*END

*D_NET *292 0.0294991
*CONN
*I *1509:I I *D gf180mcu_fd_sc_mcu7t5v0__clkbuf_16
*I *1508:I I *D gf180mcu_fd_sc_mcu7t5v0__clkbuf_16
*I *1511:I I *D gf180mcu_fd_sc_mcu7t5v0__clkbuf_16
*I *1512:I I *D gf180mcu_fd_sc_mcu7t5v0__clkbuf_16
*I *1513:I I *D gf180mcu_fd_sc_mcu7t5v0__clkbuf_16
*I *1506:I I *D gf180mcu_fd_sc_mcu7t5v0__clkbuf_16
*I *1510:I I *D gf180mcu_fd_sc_mcu7t5v0__clkbuf_16
*I *1507:I I *D gf180mcu_fd_sc_mcu7t5v0__clkbuf_16
*I *1505:Z O *D gf180mcu_fd_sc_mcu7t5v0__clkbuf_16
*CAP
1 *1509:I 0.00133881
2 *1508:I 0.000115469
3 *1511:I 0
4 *1512:I 0.00043106
5 *1513:I 0.00102255
6 *1506:I 0.00152924
7 *1510:I 0.00194967
8 *1507:I 0.00230935
9 *1505:Z 0.00262948
10 *292:119 0.00218941
11 *292:72 0.00216523
12 *292:66 0.00154705
13 *1506:I *1423:I 0.000480356
14 *1506:I *1451:CLK 0.000370026
15 *1506:I *310:96 3.0804e-05
16 *1506:I *348:18 0.000416851
17 *1506:I *349:12 0
18 *1506:I *349:64 0
19 *1507:I *1318:A1 5.47669e-06
20 *1507:I *1318:A2 3.0804e-05
21 *1507:I *1320:I0 2.60748e-05
22 *1507:I *1320:I1 0
23 *1507:I *1323:I0 0.000114446
24 *1507:I *1472:CLK 0.000183678
25 *1507:I *296:61 0.000222063
26 *1507:I *305:22 0
27 *1507:I *328:27 0.00064308
28 *1507:I *330:39 0.000765738
29 *1507:I *353:10 0.000108448
30 *1508:I *1286:S 6.61789e-06
31 *1508:I *1467:CLK 3.07146e-05
32 *1508:I *1527:I 6.22087e-05
33 *1509:I *1263:A2 1.81425e-05
34 *1509:I *1263:A4 0.000121959
35 *1509:I *1285:I0 0
36 *1509:I *1286:S 4.90521e-05
37 *1509:I *1426:I 0.000215368
38 *1509:I *1527:I 0.000725404
39 *1509:I *351:16 0
40 *1510:I *1177:I 0.000121447
41 *1510:I *1300:A1 0.000157757
42 *1510:I *305:70 0
43 *1510:I *328:27 0.000970698
44 *1510:I *330:39 0.000202775
45 *1512:I *1321:A1 0.00011113
46 *1512:I *1450:CLK 0
47 *1512:I *1518:I 0.000103256
48 *1513:I *1161:I 6.862e-05
49 *1513:I *1199:B1 5.20069e-05
50 *1513:I *1450:CLK 0.000384449
51 *1513:I *318:56 0
52 *1513:I *329:12 0
53 *1513:I *370:16 2.47989e-05
54 *292:66 *1198:A1 0.000847774
55 *292:66 *1407:I 1.55799e-05
56 *292:66 *315:65 0
57 *292:72 *1194:A2 0.000440599
58 *292:72 *1201:B1 0.000166676
59 *292:72 *318:56 0.000370077
60 *292:72 *374:44 0.000129869
61 *292:119 *1308:A1 0.00026455
62 *292:119 *1308:A2 0.000302376
63 *292:119 *1466:CLK 0
64 *292:119 *295:21 0.000141823
65 *292:119 *295:27 8.32297e-05
66 *292:119 *295:31 5.38149e-06
67 *292:119 *349:12 8.08673e-05
68 *1203:C *1513:I 0
69 *1206:A2 *1513:I 0
70 *1234:A1 *1513:I 0
71 *1234:A2 *1513:I 8.9736e-05
72 *1235:A3 *1513:I 2.22406e-05
73 *1265:A1 *1509:I 0
74 *1309:B *292:119 1.86931e-05
75 *1310:A1 *292:119 1.00441e-05
76 *1314:B *1510:I 7.73463e-05
77 *1321:A2 *1512:I 0.000114398
78 *1321:A2 *292:72 1.78586e-05
79 *1322:A1 *292:72 0.000115986
80 *1322:B *1512:I 2.25463e-05
81 *1322:B *1513:I 0
82 *1450:D *1512:I 3.95619e-06
83 *1450:D *1513:I 0.000312042
84 *1453:RN *292:66 0.000163234
85 *1472:RN *1509:I 0.000193782
86 *1501:RN *1506:I 0.000101081
87 *1520:I *292:119 0.000185941
88 *135:10 *1513:I 1.7449e-05
89 *140:8 *292:119 5.35052e-05
90 *140:14 *292:119 4.85821e-05
91 *151:12 *1510:I 3.19288e-05
92 *151:22 *1510:I 1.96666e-05
93 *153:27 *292:66 0.000538294
94 *179:38 *1513:I 0
95 *231:14 *1507:I 0.000351648
96 *253:65 *292:72 8.88175e-05
*RES
1 *1505:Z *1507:I 34.224 
2 *1505:Z *1510:I 28.4 
3 *1507:I *1506:I 17.84 
4 *1510:I *292:66 13.756 
5 *292:66 *292:72 16.384 
6 *292:72 *1513:I 21.82 
7 *292:72 *1512:I 8.244 
8 *292:66 *1511:I 4.5 
9 *1506:I *292:119 21.196 
10 *292:119 *1508:I 5.436 
11 *292:119 *1509:I 16.044 
*END

*D_NET *293 0.0134028
*CONN
*I *1476:CLK I *D gf180mcu_fd_sc_mcu7t5v0__dffrnq_1
*I *1501:CLK I *D gf180mcu_fd_sc_mcu7t5v0__dffrnq_1
*I *1477:CLK I *D gf180mcu_fd_sc_mcu7t5v0__dffrnq_1
*I *1465:CLK I *D gf180mcu_fd_sc_mcu7t5v0__dffrnq_1
*I *1496:CLK I *D gf180mcu_fd_sc_mcu7t5v0__dffrnq_1
*I *1493:CLK I *D gf180mcu_fd_sc_mcu7t5v0__dffrnq_1
*I *1479:CLK I *D gf180mcu_fd_sc_mcu7t5v0__dffrnq_1
*I *1497:CLK I *D gf180mcu_fd_sc_mcu7t5v0__dffrnq_1
*I *1514:I I *D gf180mcu_fd_sc_mcu7t5v0__clkbuf_2
*I *1506:Z O *D gf180mcu_fd_sc_mcu7t5v0__clkbuf_16
*CAP
1 *1476:CLK 0.000193633
2 *1501:CLK 0
3 *1477:CLK 0.000408207
4 *1465:CLK 0.000267293
5 *1496:CLK 0
6 *1493:CLK 0.000316977
7 *1479:CLK 0
8 *1497:CLK 0.000335224
9 *1514:I 8.09101e-05
10 *1506:Z 0.000600917
11 *293:39 0.000753956
12 *293:30 0.00149373
13 *293:26 0.000855094
14 *293:24 0.00081309
15 *293:22 0.00104456
16 *293:18 0.000550494
17 *1465:CLK *1186:I 0
18 *1465:CLK *1189:I 0.000125251
19 *1465:CLK *319:62 1.17491e-05
20 *1476:CLK *1292:I0 5.47431e-06
21 *1476:CLK *348:24 4.57914e-05
22 *1477:CLK *1292:I1 1.07369e-05
23 *1477:CLK *310:47 9.77992e-06
24 *1477:CLK *310:53 0.00019118
25 *1477:CLK *310:66 0.000585299
26 *1477:CLK *319:62 6.40609e-05
27 *1493:CLK *327:16 0
28 *293:22 *310:53 4.05671e-05
29 *293:22 *310:88 3.18011e-06
30 *293:24 *310:36 7.11929e-05
31 *293:24 *310:47 3.20057e-06
32 *293:24 *319:62 0.00024196
33 *293:26 *319:62 1.38484e-05
34 *293:30 *1383:I 8.95428e-06
35 *293:30 *310:10 3.21839e-05
36 *293:30 *319:30 0.000803657
37 *293:30 *319:62 3.74436e-06
38 *1270:A1 *1493:CLK 0.000211575
39 *1275:A2 *1477:CLK 0
40 *1292:S *1477:CLK 0.000373028
41 *1341:A1 *293:24 3.46177e-05
42 *1341:A1 *293:26 1.59809e-05
43 *1341:A1 *293:30 1.45436e-05
44 *1341:B2 *1465:CLK 0.000410048
45 *1465:D *1465:CLK 4.47143e-05
46 *1476:D *1476:CLK 2.73715e-06
47 *1477:D *1477:CLK 0
48 *1479:D *1493:CLK 0.000103933
49 *1479:D *293:39 1.12327e-05
50 *1493:D *1493:CLK 7.87395e-06
51 *1493:RN *1465:CLK 0.000127293
52 *1496:RN *1477:CLK 0.000118797
53 *1496:RN *293:22 8.75131e-05
54 *1496:RN *293:24 8.23267e-05
55 *1497:D *1497:CLK 8.3298e-05
56 *1497:D *293:30 0.000312719
57 *1497:D *293:39 1.96905e-05
58 *1501:D *1477:CLK 0
59 *1501:D *293:18 0.00038862
60 *1501:D *293:22 1.65042e-05
61 *1536:I *1497:CLK 0.000491544
62 *1536:I *293:30 3.55699e-06
63 *1536:I *293:39 0.000113027
64 *237:8 *1514:I 0.000203364
65 *237:8 *293:18 1.19663e-05
66 *237:34 *1476:CLK 0
67 *270:22 *1514:I 0.000126399
68 *270:22 *293:18 0
*RES
1 *1506:Z *1514:I 10.352 
2 *1506:Z *293:18 7.308 
3 *293:18 *293:22 6.06 
4 *293:22 *293:24 4.264 
5 *293:24 *293:26 0.728 
6 *293:26 *293:30 11.052 
7 *293:30 *1497:CLK 7.516 
8 *293:30 *293:39 3.016 
9 *293:39 *1479:CLK 4.5 
10 *293:39 *1493:CLK 7.516 
11 *293:26 *1496:CLK 9 
12 *293:24 *1465:CLK 12.016 
13 *293:22 *1477:CLK 13.576 
14 *293:18 *1501:CLK 4.5 
15 *1506:Z *1476:CLK 10.352 
*END

*D_NET *294 0.0192836
*CONN
*I *1469:CLK I *D gf180mcu_fd_sc_mcu7t5v0__dffrnq_1
*I *1468:CLK I *D gf180mcu_fd_sc_mcu7t5v0__dffrnq_1
*I *1495:CLK I *D gf180mcu_fd_sc_mcu7t5v0__dffrnq_1
*I *1502:CLK I *D gf180mcu_fd_sc_mcu7t5v0__dffsnq_1
*I *1504:CLK I *D gf180mcu_fd_sc_mcu7t5v0__dffsnq_1
*I *1449:CLK I *D gf180mcu_fd_sc_mcu7t5v0__dffsnq_1
*I *1494:CLK I *D gf180mcu_fd_sc_mcu7t5v0__dffrnq_1
*I *1492:CLK I *D gf180mcu_fd_sc_mcu7t5v0__dffrnq_1
*I *1507:Z O *D gf180mcu_fd_sc_mcu7t5v0__clkbuf_16
*CAP
1 *1469:CLK 0.000186864
2 *1468:CLK 0
3 *1495:CLK 1.77054e-05
4 *1502:CLK 0.000365169
5 *1504:CLK 0.000286926
6 *1449:CLK 0.000122589
7 *1494:CLK 0
8 *1492:CLK 0.000288231
9 *1507:Z 0.000864316
10 *294:58 0.00135136
11 *294:52 0.00109244
12 *294:44 0.00057142
13 *294:31 0.000631183
14 *294:12 0.000653037
15 *1449:CLK *1288:I0 0.000865238
16 *1449:CLK *311:31 0.000279926
17 *1449:CLK *311:50 0.000553448
18 *1469:CLK *1384:I 0.000241565
19 *1492:CLK *1240:A1 0.000651459
20 *1492:CLK *1347:B 0.000530654
21 *1492:CLK *363:31 0.000488468
22 *1492:CLK *366:35 2.28534e-05
23 *1495:CLK *365:14 2.38773e-05
24 *1502:CLK *1243:A1 0.000161509
25 *1502:CLK *1502:D 4.07478e-05
26 *1504:CLK *1243:A1 2.38656e-05
27 *294:12 *1349:A1 0.000316249
28 *294:12 *366:35 9.84961e-06
29 *294:12 *366:45 0.0001714
30 *294:31 *1246:A2 5.78216e-06
31 *294:31 *1246:A3 0.000337769
32 *294:31 *365:20 1.71324e-06
33 *294:31 *366:45 0
34 *294:44 *1288:I1 0
35 *294:52 *1246:B 7.45101e-06
36 *294:52 *365:14 0.000106745
37 *294:58 *1243:A1 0.000501766
38 *294:58 *311:10 4.62083e-06
39 *294:58 *359:27 0.00147603
40 *1243:A2 *1502:CLK 8.75081e-05
41 *1243:A3 *1495:CLK 7.84307e-05
42 *1243:A3 *294:52 0.000500761
43 *1243:A3 *294:58 0.000434457
44 *1249:B *1504:CLK 0.000702819
45 *1340:A2 *294:58 0
46 *1348:A2 *294:31 6.03575e-05
47 *1353:A2 *1492:CLK 0.000365179
48 *1353:A2 *294:12 4.18042e-05
49 *1468:D *294:44 6.41721e-05
50 *1469:D *1469:CLK 2.11493e-05
51 *1494:D *294:12 4.67771e-06
52 *1494:RN *1469:CLK 0.00067298
53 *1523:I *1449:CLK 0.00016407
54 *207:25 *1469:CLK 1.32185e-05
55 *217:16 *1449:CLK 0.00085643
56 *217:16 *294:52 3.67612e-05
57 *231:14 *294:12 0.000223987
58 *269:34 *294:12 0
59 *270:22 *1449:CLK 0.000107648
60 *270:22 *294:31 0.00151526
61 *270:22 *294:44 7.76855e-05
*RES
1 *1507:Z *294:12 16.62 
2 *294:12 *1492:CLK 8.972 
3 *294:12 *1494:CLK 4.5 
4 *1507:Z *294:31 8.764 
5 *294:31 *1449:CLK 18.804 
6 *294:31 *294:44 1.56 
7 *294:44 *294:52 12.328 
8 *294:52 *294:58 16.176 
9 *294:58 *1504:CLK 7.308 
10 *294:58 *1502:CLK 7.724 
11 *294:52 *1495:CLK 4.812 
12 *294:44 *1468:CLK 4.5 
13 *1507:Z *1469:CLK 11.808 
*END

*D_NET *295 0.020812
*CONN
*I *1460:CLK I *D gf180mcu_fd_sc_mcu7t5v0__dffrnq_1
*I *1458:CLK I *D gf180mcu_fd_sc_mcu7t5v0__dffrnq_1
*I *1459:CLK I *D gf180mcu_fd_sc_mcu7t5v0__dffrnq_1
*I *1467:CLK I *D gf180mcu_fd_sc_mcu7t5v0__dffrnq_1
*I *1515:I I *D gf180mcu_fd_sc_mcu7t5v0__clkbuf_2
*I *1470:CLK I *D gf180mcu_fd_sc_mcu7t5v0__dffrnq_1
*I *1466:CLK I *D gf180mcu_fd_sc_mcu7t5v0__dffrnq_1
*I *1451:CLK I *D gf180mcu_fd_sc_mcu7t5v0__dffsnq_1
*I *1457:CLK I *D gf180mcu_fd_sc_mcu7t5v0__dffrnq_1
*I *1508:Z O *D gf180mcu_fd_sc_mcu7t5v0__clkbuf_16
*CAP
1 *1460:CLK 0
2 *1458:CLK 0
3 *1459:CLK 0.00020858
4 *1467:CLK 0.000701448
5 *1515:I 0
6 *1470:CLK 0.000318937
7 *1466:CLK 0.00082691
8 *1451:CLK 0.00041869
9 *1457:CLK 0.000352199
10 *1508:Z 0.000191515
11 *295:87 0.000591641
12 *295:83 0.000470978
13 *295:33 0.00135147
14 *295:31 0.000602756
15 *295:27 0.000456416
16 *295:21 0.00129114
17 *295:8 0.000767017
18 *1451:CLK *1308:A1 0.00182344
19 *1451:CLK *348:18 0.000979229
20 *1457:CLK *306:21 9.23352e-06
21 *1459:CLK *1306:A2 0.000616013
22 *1466:CLK *1289:A1 5.63044e-06
23 *1466:CLK *1293:A2 0.00074316
24 *1466:CLK *1310:A3 0.00103152
25 *1466:CLK *1431:I 8.79719e-05
26 *1467:CLK *1286:S 0.00127486
27 *1467:CLK *1527:I 0
28 *1467:CLK *349:33 0.000327333
29 *1467:CLK *350:25 2.3947e-05
30 *1470:CLK *1166:I 0.000115658
31 *1470:CLK *1293:A2 1.0603e-05
32 *295:8 *1308:A2 8.32777e-05
33 *295:21 *1308:A2 0.000113661
34 *295:27 *350:25 0.000537885
35 *295:31 *1308:A1 0.000402936
36 *295:33 *1308:A1 0.00057291
37 *295:83 *306:29 0
38 *295:87 *1306:A2 0.000126402
39 *295:87 *306:29 0
40 *295:87 *306:35 0
41 *295:87 *306:41 0.000256591
42 *295:87 *313:48 0
43 *1290:S *1467:CLK 0.000122244
44 *1293:A1 *1466:CLK 0.000191452
45 *1307:A1 *1459:CLK 0.0004162
46 *1307:A1 *295:87 0.00019294
47 *1307:B *295:87 1.69682e-05
48 *1309:B *295:31 0.000155247
49 *1310:A1 *1466:CLK 2.65403e-05
50 *1457:D *1457:CLK 7.17602e-05
51 *1457:RN *295:83 0.000134833
52 *1459:D *1459:CLK 7.27179e-05
53 *1460:D *295:83 0.000203364
54 *1460:D *295:87 1.71326e-05
55 *1466:D *1466:CLK 0.000200076
56 *1466:RN *1467:CLK 2.81522e-06
57 *1467:D *1467:CLK 6.20232e-05
58 *1470:D *1470:CLK 7.87395e-06
59 *1470:RN *295:8 2.88051e-05
60 *1476:RN *1466:CLK 0.000122188
61 *1477:RN *1466:CLK 5.90026e-05
62 *1506:I *1451:CLK 0.000370026
63 *1508:I *1467:CLK 3.07146e-05
64 *1520:I *1470:CLK 8.73871e-05
65 *1520:I *295:27 2.52851e-05
66 *1522:I *1457:CLK 0.000126399
67 *139:10 *1466:CLK 3.60303e-05
68 *244:12 *1457:CLK 0.000109558
69 *292:119 *1466:CLK 0
70 *292:119 *295:21 0.000141823
71 *292:119 *295:27 8.32297e-05
72 *292:119 *295:31 5.38149e-06
*RES
1 *1508:Z *295:8 10.352 
2 *295:8 *1457:CLK 11.808 
3 *295:8 *295:21 2.912 
4 *295:21 *295:27 6.788 
5 *295:27 *295:31 6.684 
6 *295:31 *295:33 1.56 
7 *295:33 *1451:CLK 16.28 
8 *295:33 *1466:CLK 18.256 
9 *295:31 *1470:CLK 12.432 
10 *295:27 *1515:I 4.5 
11 *295:21 *1467:CLK 15.344 
12 *1508:Z *295:83 5.852 
13 *295:83 *295:87 3.328 
14 *295:87 *1459:CLK 7.516 
15 *295:87 *1458:CLK 4.5 
16 *295:83 *1460:CLK 4.5 
*END

*D_NET *296 0.0218069
*CONN
*I *1444:CLK I *D gf180mcu_fd_sc_mcu7t5v0__dffrnq_1
*I *1462:CLK I *D gf180mcu_fd_sc_mcu7t5v0__dffsnq_1
*I *1474:CLK I *D gf180mcu_fd_sc_mcu7t5v0__dffrnq_1
*I *1516:I I *D gf180mcu_fd_sc_mcu7t5v0__clkbuf_2
*I *1472:CLK I *D gf180mcu_fd_sc_mcu7t5v0__dffrnq_1
*I *1443:CLK I *D gf180mcu_fd_sc_mcu7t5v0__dffrnq_1
*I *1442:CLK I *D gf180mcu_fd_sc_mcu7t5v0__dffrnq_1
*I *1471:CLK I *D gf180mcu_fd_sc_mcu7t5v0__dffrnq_1
*I *1441:CLK I *D gf180mcu_fd_sc_mcu7t5v0__dffrnq_1
*I *1509:Z O *D gf180mcu_fd_sc_mcu7t5v0__clkbuf_16
*CAP
1 *1444:CLK 0.000116619
2 *1462:CLK 0
3 *1474:CLK 0
4 *1516:I 0.000617277
5 *1472:CLK 0.000514127
6 *1443:CLK 0
7 *1442:CLK 0
8 *1471:CLK 0.000988938
9 *1441:CLK 0.00019829
10 *1509:Z 0.000491395
11 *296:63 0.0011314
12 *296:61 0.000315728
13 *296:55 0.00066527
14 *296:51 0.000936821
15 *296:44 0.000645424
16 *296:19 0.00115206
17 *296:6 0.00067804
18 *1441:CLK *306:119 8.80888e-05
19 *1444:CLK *326:14 0
20 *1444:CLK *341:10 3.09205e-05
21 *1471:CLK *1263:A3 6.26086e-05
22 *1471:CLK *1263:A4 0
23 *1471:CLK *1320:S 0
24 *1471:CLK *330:12 2.11055e-05
25 *1471:CLK *330:39 0.000193782
26 *1471:CLK *351:22 6.32854e-05
27 *1471:CLK *352:8 0
28 *1472:CLK *1264:A2 0
29 *1472:CLK *1318:A1 0.000105621
30 *1472:CLK *1318:A2 2.14739e-05
31 *1472:CLK *1323:S 0
32 *1472:CLK *305:22 3.91975e-05
33 *1472:CLK *330:39 0.0011207
34 *1516:I *1264:A2 0
35 *1516:I *1281:A2 1.4348e-05
36 *1516:I *308:65 3.13582e-05
37 *1516:I *308:82 0.000133888
38 *1516:I *349:83 0
39 *1516:I *352:39 0.000103533
40 *296:6 *1426:I 2.81522e-06
41 *296:6 *306:119 5.63044e-06
42 *296:19 *1355:A2 0
43 *296:44 *314:29 3.18325e-05
44 *296:51 *314:29 7.9669e-06
45 *296:51 *314:38 0.000587718
46 *296:51 *314:51 2.14739e-05
47 *296:51 *326:14 0
48 *296:55 *1298:A1 0
49 *296:55 *1299:A2 0
50 *296:55 *1428:I 0.00196048
51 *296:61 *1281:A2 0.00028351
52 *296:61 *1428:I 0.000280581
53 *296:61 *308:65 0.000657043
54 *296:61 *328:27 0.00057304
55 *296:61 *354:10 0
56 *1265:A2 *1516:I 0.000337769
57 *1299:A1 *296:55 0.000519402
58 *1299:A1 *296:61 0.00072491
59 *1299:B *296:55 0
60 *1319:B *1472:CLK 0.00168066
61 *1355:A3 *1471:CLK 0
62 *1355:A3 *296:6 0
63 *1355:A3 *296:19 0
64 *1441:D *1441:CLK 0.000129211
65 *1441:D *296:6 7.63249e-05
66 *1441:D *296:19 0
67 *1442:D *296:6 0.000341651
68 *1442:D *296:19 0.000346468
69 *1442:RN *296:44 0.00012524
70 *1443:D *296:44 6.8199e-07
71 *1443:D *296:51 2.62817e-05
72 *1462:SETN *1444:CLK 0.000547671
73 *1462:SETN *296:51 3.4596e-05
74 *1471:D *1471:CLK 4.07478e-05
75 *1472:RN *1471:CLK 0.000152316
76 *1507:I *1472:CLK 0.000183678
77 *1507:I *296:61 0.000222063
78 *1520:I *1471:CLK 9.06182e-05
79 *1522:I *296:6 0
80 *142:25 *296:61 5.40307e-05
81 *142:36 *296:61 0.000717061
82 *231:14 *1471:CLK 7.05729e-05
83 *253:42 *1471:CLK 0.000491544
*RES
1 *1509:Z *296:6 7.308 
2 *296:6 *1441:CLK 6.372 
3 *296:6 *296:19 6.06 
4 *296:19 *1471:CLK 17.32 
5 *296:19 *1442:CLK 9 
6 *1509:Z *296:44 5.852 
7 *296:44 *1443:CLK 4.5 
8 *296:44 *296:51 4.472 
9 *296:51 *296:55 10.012 
10 *296:55 *296:61 10.948 
11 *296:61 *296:63 4.5 
12 *296:63 *1472:CLK 16.28 
13 *296:63 *1516:I 14.2 
14 *296:61 *1474:CLK 4.5 
15 *296:55 *1462:CLK 9 
16 *296:51 *1444:CLK 6.06 
*END

*D_NET *297 0.0138878
*CONN
*I *1453:CLK I *D gf180mcu_fd_sc_mcu7t5v0__dffrnq_1
*I *1452:CLK I *D gf180mcu_fd_sc_mcu7t5v0__dffrnq_1
*I *1473:CLK I *D gf180mcu_fd_sc_mcu7t5v0__dffrnq_1
*I *1454:CLK I *D gf180mcu_fd_sc_mcu7t5v0__dffrnq_1
*I *1491:CLK I *D gf180mcu_fd_sc_mcu7t5v0__dffrnq_1
*I *1500:CLK I *D gf180mcu_fd_sc_mcu7t5v0__dffsnq_1
*I *1503:CLK I *D gf180mcu_fd_sc_mcu7t5v0__dffsnq_1
*I *1478:CLK I *D gf180mcu_fd_sc_mcu7t5v0__dffsnq_1
*I *1510:Z O *D gf180mcu_fd_sc_mcu7t5v0__clkbuf_16
*CAP
1 *1453:CLK 0
2 *1452:CLK 0
3 *1473:CLK 0.000560853
4 *1454:CLK 0
5 *1491:CLK 0.000403161
6 *1500:CLK 0.000443254
7 *1503:CLK 0.000177596
8 *1478:CLK 8.97467e-05
9 *1510:Z 0.000418879
10 *297:67 0.00123442
11 *297:61 0.00109573
12 *297:57 0.00084104
13 *297:18 0.000987923
14 *297:10 0.0016838
15 *297:4 0.000923129
16 *1473:CLK *1385:I 0.000203364
17 *1491:CLK *1333:A2 6.18411e-06
18 *1500:CLK *1432:I 0
19 *1500:CLK *1528:I 0.0010392
20 *1500:CLK *360:8 2.38865e-05
21 *1500:CLK *360:23 2.73715e-06
22 *297:10 *1545:I 6.3718e-05
23 *297:18 *1393:I 0
24 *297:61 *1183:I 0.000125251
25 *297:67 *1268:A1 0
26 *297:67 *1288:I1 0
27 *1268:A2 *297:61 0
28 *1339:A2 *1500:CLK 0
29 *1454:D *1473:CLK 1.07369e-05
30 *1473:D *1473:CLK 0
31 *1478:SETN *1500:CLK 5.18778e-05
32 *1491:D *1491:CLK 6.18411e-06
33 *1500:SETN *297:61 3.14958e-05
34 *10:12 *297:10 0.000932991
35 *10:12 *297:18 0.00136847
36 *218:33 *1478:CLK 0.000341532
37 *218:33 *1503:CLK 0.000820654
*RES
1 *1510:Z *297:4 4.5 
2 *297:4 *297:10 8.868 
3 *297:10 *297:18 10.636 
4 *297:18 *1478:CLK 5.436 
5 *297:18 *1503:CLK 6.684 
6 *297:10 *1500:CLK 13.368 
7 *297:4 *1491:CLK 7.308 
8 *1510:Z *297:57 7.308 
9 *297:57 *297:61 3.328 
10 *297:61 *297:67 9.492 
11 *297:67 *1454:CLK 9 
12 *297:67 *1473:CLK 13.368 
13 *297:61 *1452:CLK 4.5 
14 *297:57 *1453:CLK 4.5 
*END

*D_NET *298 0.0177915
*CONN
*I *1490:CLK I *D gf180mcu_fd_sc_mcu7t5v0__dffrnq_1
*I *1498:CLK I *D gf180mcu_fd_sc_mcu7t5v0__dffrnq_1
*I *1487:CLK I *D gf180mcu_fd_sc_mcu7t5v0__dffrnq_1
*I *1488:CLK I *D gf180mcu_fd_sc_mcu7t5v0__dffrnq_1
*I *1489:CLK I *D gf180mcu_fd_sc_mcu7t5v0__dffrnq_1
*I *1517:I I *D gf180mcu_fd_sc_mcu7t5v0__clkbuf_2
*I *1481:CLK I *D gf180mcu_fd_sc_mcu7t5v0__dffrnq_1
*I *1482:CLK I *D gf180mcu_fd_sc_mcu7t5v0__dffrnq_1
*I *1483:CLK I *D gf180mcu_fd_sc_mcu7t5v0__dffrnq_1
*I *1511:Z O *D gf180mcu_fd_sc_mcu7t5v0__clkbuf_16
*CAP
1 *1490:CLK 0.000283362
2 *1498:CLK 0.000491087
3 *1487:CLK 0
4 *1488:CLK 0
5 *1489:CLK 0.000569505
6 *1517:I 5.9681e-05
7 *1481:CLK 0.000236164
8 *1482:CLK 0
9 *1483:CLK 0.00012099
10 *1511:Z 0.000591761
11 *298:64 0.00126097
12 *298:55 0.00099943
13 *298:46 0.000799057
14 *298:23 0.00061151
15 *298:14 0.00102185
16 *298:10 0.000966677
17 *298:8 0.000689882
18 *1489:CLK *318:31 0.000113512
19 *1489:CLK *347:10 4.84332e-05
20 *1490:CLK *1326:A3 0.00018297
21 *1490:CLK *1330:A1 2.90152e-05
22 *1490:CLK *325:61 0.000182747
23 *1498:CLK *1434:I 0
24 *1498:CLK *303:18 7.22679e-05
25 *1498:CLK *344:12 2.02353e-05
26 *1517:I *1251:A1 0.000651459
27 *1517:I *1251:A2 0.000103788
28 *1517:I *1251:A3 0.000131647
29 *1517:I *1529:I 0.000203739
30 *298:8 *1529:I 1.55001e-05
31 *298:8 *318:56 5.47866e-05
32 *298:10 *1251:A2 0.000107648
33 *298:10 *1529:I 2.42726e-05
34 *298:14 *1251:A2 0.00052232
35 *298:14 *345:29 0
36 *298:55 *1251:A3 0
37 *298:55 *1436:I 2.55248e-05
38 *298:55 *318:31 1.92209e-05
39 *298:64 *1335:A2 0
40 *298:64 *303:18 0.00263924
41 *298:64 *346:14 0.000112835
42 *1258:A2 *298:14 0
43 *1482:RN *298:55 4.57914e-05
44 *1482:RN *298:64 2.52541e-05
45 *1483:RN *1489:CLK 5.32454e-05
46 *1487:D *1498:CLK 6.18411e-06
47 *1487:D *298:64 0.000122503
48 *1488:D *298:64 0.000120909
49 *1490:D *1490:CLK 4.63309e-05
50 *1540:I *1489:CLK 0
51 *218:33 *1481:CLK 0.00114222
52 *218:33 *1483:CLK 0.000500761
53 *218:33 *298:23 0.00176524
*RES
1 *1511:Z *298:8 10.976 
2 *298:8 *298:10 1.976 
3 *298:10 *298:14 8.348 
4 *298:14 *1483:CLK 5.852 
5 *298:14 *298:23 4.68 
6 *298:23 *1482:CLK 4.5 
7 *298:23 *1481:CLK 7.516 
8 *298:10 *1517:I 10.768 
9 *298:8 *298:46 4.5 
10 *298:46 *1489:CLK 8.764 
11 *298:46 *298:55 1.768 
12 *298:55 *1488:CLK 4.5 
13 *298:55 *298:64 9.152 
14 *298:64 *1487:CLK 4.5 
15 *298:64 *1498:CLK 7.828 
16 *1511:Z *1490:CLK 11.808 
*END

*D_NET *299 0.0203607
*CONN
*I *1450:CLK I *D gf180mcu_fd_sc_mcu7t5v0__dffrnq_1
*I *1445:CLK I *D gf180mcu_fd_sc_mcu7t5v0__dffrnq_1
*I *1518:I I *D gf180mcu_fd_sc_mcu7t5v0__clkbuf_2
*I *1455:CLK I *D gf180mcu_fd_sc_mcu7t5v0__dffrnq_1
*I *1475:CLK I *D gf180mcu_fd_sc_mcu7t5v0__dffrnq_1
*I *1456:CLK I *D gf180mcu_fd_sc_mcu7t5v0__dffrnq_1
*I *1464:CLK I *D gf180mcu_fd_sc_mcu7t5v0__dffsnq_1
*I *1463:CLK I *D gf180mcu_fd_sc_mcu7t5v0__dffrnq_1
*I *1461:CLK I *D gf180mcu_fd_sc_mcu7t5v0__dffrnq_1
*I *1512:Z O *D gf180mcu_fd_sc_mcu7t5v0__clkbuf_16
*CAP
1 *1450:CLK 0.000416775
2 *1445:CLK 0.000552131
3 *1518:I 0.000682179
4 *1455:CLK 0.000118848
5 *1475:CLK 0.000190046
6 *1456:CLK 3.6366e-05
7 *1464:CLK 0
8 *1463:CLK 0.000458356
9 *1461:CLK 3.92483e-05
10 *1512:Z 0.000580078
11 *299:60 0.000630276
12 *299:51 0.000799646
13 *299:43 0.0010209
14 *299:16 0.000915552
15 *299:14 0.000892111
16 *299:6 0.000815707
17 *1445:CLK *1368:A1 6.95257e-05
18 *1445:CLK *1530:I 5.52791e-05
19 *1445:CLK *317:66 9.56679e-05
20 *1445:CLK *317:90 4.62012e-05
21 *1445:CLK *318:87 4.54748e-05
22 *1445:CLK *318:94 2.38773e-05
23 *1445:CLK *329:12 4.18157e-05
24 *1450:CLK *1194:A2 2.14739e-05
25 *1450:CLK *1200:A1 1.63544e-05
26 *1450:CLK *370:16 4.67771e-06
27 *1455:CLK *1195:A1 0.000229355
28 *1455:CLK *1313:A2 0.00076764
29 *1455:CLK *305:66 0.000197059
30 *1455:CLK *334:8 0.000159376
31 *1463:CLK *1300:A2 1.57479e-05
32 *1463:CLK *1321:A1 0
33 *1463:CLK *307:45 0
34 *1475:CLK *328:27 0.00165914
35 *1518:I *1321:A1 3.57634e-06
36 *299:6 *335:10 0.000103788
37 *299:14 *1295:A2 0
38 *299:14 *335:10 0.000256274
39 *299:16 *1295:A2 2.38656e-05
40 *299:16 *1321:A1 0
41 *299:43 *335:10 0.00167109
42 *299:51 *1312:A2 0
43 *299:51 *1321:A1 4.13954e-05
44 *299:51 *335:10 2.91651e-05
45 *299:51 *335:12 1.47044e-05
46 *299:60 *328:27 0.000919966
47 *299:60 *328:34 7.87395e-06
48 *1199:A2 *1450:CLK 7.96342e-05
49 *1295:A1 *299:14 0
50 *1295:B *299:14 0.000582267
51 *1295:B *299:16 0
52 *1301:B *1461:CLK 4.15898e-06
53 *1301:B *1463:CLK 0.000203397
54 *1312:B *1518:I 6.20064e-05
55 *1312:B *299:51 0.000419276
56 *1314:B *1475:CLK 0.000569964
57 *1314:B *299:60 0.00017298
58 *1322:A1 *1450:CLK 0.00027168
59 *1322:A2 *1450:CLK 9.76253e-05
60 *1368:A2 *1445:CLK 1.70957e-06
61 *1450:D *1450:CLK 2.21335e-05
62 *1456:RN *299:6 5.63044e-06
63 *1456:RN *299:14 3.26763e-05
64 *1461:D *1463:CLK 0.000156319
65 *1461:D *299:16 1.71326e-05
66 *1464:D *299:14 4.67771e-06
67 *1464:D *299:16 4.79815e-05
68 *1475:D *1475:CLK 7.87395e-06
69 *1512:I *1450:CLK 0
70 *1512:I *1518:I 0.000103256
71 *1513:I *1450:CLK 0.000384449
72 *154:8 *1450:CLK 0.000378517
73 *253:42 *1475:CLK 2.28589e-05
74 *253:65 *1450:CLK 6.47033e-06
75 *253:65 *1475:CLK 0.000245179
76 *253:65 *1518:I 0
77 *253:65 *299:60 0.00179224
*RES
1 *1512:Z *299:6 4.812 
2 *299:6 *299:14 13.368 
3 *299:14 *299:16 3.016 
4 *299:16 *1461:CLK 4.812 
5 *299:16 *1463:CLK 8.244 
6 *299:14 *1464:CLK 4.5 
7 *299:6 *299:43 13.264 
8 *299:43 *299:51 12.328 
9 *299:51 *1456:CLK 4.812 
10 *299:51 *299:60 5.928 
11 *299:60 *1475:CLK 8.972 
12 *299:60 *1455:CLK 16.1 
13 *299:43 *1518:I 6.788 
14 *1512:Z *1445:CLK 13.264 
15 *1518:I *1450:CLK 13.992 
*END

*D_NET *300 0.0118386
*CONN
*I *1447:CLK I *D gf180mcu_fd_sc_mcu7t5v0__dffrnq_1
*I *1448:CLK I *D gf180mcu_fd_sc_mcu7t5v0__dffrnq_1
*I *1446:CLK I *D gf180mcu_fd_sc_mcu7t5v0__dffrnq_1
*I *1484:CLK I *D gf180mcu_fd_sc_mcu7t5v0__dffrnq_1
*I *1485:CLK I *D gf180mcu_fd_sc_mcu7t5v0__dffrnq_1
*I *1499:CLK I *D gf180mcu_fd_sc_mcu7t5v0__dffrnq_1
*I *1486:CLK I *D gf180mcu_fd_sc_mcu7t5v0__dffrnq_1
*I *1480:CLK I *D gf180mcu_fd_sc_mcu7t5v0__dffrnq_1
*I *1519:I I *D gf180mcu_fd_sc_mcu7t5v0__clkbuf_2
*I *1513:Z O *D gf180mcu_fd_sc_mcu7t5v0__clkbuf_16
*CAP
1 *1447:CLK 0.000599546
2 *1448:CLK 0.000225575
3 *1446:CLK 0.000108979
4 *1484:CLK 6.32744e-05
5 *1485:CLK 0.00017468
6 *1499:CLK 0.000375196
7 *1486:CLK 0
8 *1480:CLK 0.000198564
9 *1519:I 0.000282817
10 *1513:Z 0.000349753
11 *300:93 0.000825121
12 *300:33 0.000353936
13 *300:31 0.00136282
14 *300:27 0.00120273
15 *300:25 0.00049666
16 *300:8 0.000761175
17 *1446:CLK *1439:I 0.000509988
18 *1447:CLK *1374:A1 0
19 *1447:CLK *326:95 0
20 *1448:CLK *325:23 9.56679e-05
21 *1448:CLK *326:95 0
22 *1485:CLK *1228:A1 2.38773e-05
23 *1485:CLK *370:16 7.96024e-05
24 *1499:CLK *377:16 0.000125933
25 *1519:I *1161:I 2.93608e-05
26 *1519:I *325:27 0.000519391
27 *300:8 *325:25 0.000355286
28 *300:8 *325:27 0.000480569
29 *300:25 *370:16 0.000231744
30 *300:27 *370:16 0.000124068
31 *300:31 *1160:I 5.13873e-05
32 *300:31 *1161:I 0
33 *300:31 *1228:A3 0
34 *300:31 *1389:I 0
35 *300:31 *369:12 1.99013e-05
36 *300:31 *370:12 3.6966e-05
37 *300:31 *371:10 5.47697e-05
38 *300:31 *377:16 0
39 *1230:A1 *1480:CLK 1.09486e-05
40 *1230:A1 *1499:CLK 0.000134366
41 *1231:A4 *1480:CLK 0.000159517
42 *1232:A2 *1485:CLK 0.000125945
43 *1232:A2 *300:27 2.38656e-05
44 *1233:A1 *300:25 0.000145417
45 *1233:A3 *300:25 0
46 *1234:A2 *1519:I 0.000193782
47 *1324:A3 *1480:CLK 5.13977e-05
48 *1370:A2 *1447:CLK 9.31476e-05
49 *1371:A3 *1447:CLK 7.87395e-06
50 *1446:D *1447:CLK 0
51 *1484:D *300:25 0
52 *1484:RN *1447:CLK 0
53 *1484:RN *1448:CLK 0
54 *1485:D *1484:CLK 5.13977e-05
55 *1485:D *300:25 6.38863e-05
56 *1485:D *300:27 5.15433e-05
57 *1486:D *1499:CLK 1.07369e-05
58 *134:8 *300:31 0.000113886
59 *134:8 *300:33 3.48215e-05
60 *134:10 *1480:CLK 5.54907e-05
61 *134:10 *300:33 2.20381e-05
62 *164:10 *300:31 3.118e-05
63 *199:17 *300:31 0.00013467
64 *201:8 *300:31 0
65 *201:8 *300:33 0
66 *201:14 *1480:CLK 0.000203364
67 *201:14 *300:33 0
*RES
1 *1513:Z *300:8 11.184 
2 *300:8 *1519:I 12.016 
3 *300:8 *300:25 7.1 
4 *300:25 *300:27 1.768 
5 *300:27 *300:31 12.508 
6 *300:31 *300:33 1.144 
7 *300:33 *1480:CLK 11.496 
8 *300:33 *1486:CLK 9 
9 *300:31 *1499:CLK 12.016 
10 *300:27 *1485:CLK 6.06 
11 *300:25 *1484:CLK 5.332 
12 *1513:Z *1446:CLK 10.352 
13 *1513:Z *300:93 4.5 
14 *300:93 *1448:CLK 6.268 
15 *300:93 *1447:CLK 8.764 
*END

*D_NET *301 0.0248697
*CONN
*I *1498:D I *D gf180mcu_fd_sc_mcu7t5v0__dffrnq_1
*I *1377:I0 I *D gf180mcu_fd_sc_mcu7t5v0__mux2_2
*I *1535:Z O *D gf180mcu_fd_sc_mcu7t5v0__dlyb_1
*CAP
1 *1498:D 0.000687469
2 *1377:I0 0.000191153
3 *1535:Z 0.000322617
4 *301:12 0.00754296
5 *301:10 0.00698696
6 *301:10 *367:8 0
7 *301:10 *367:23 0
8 *301:12 *367:23 0.00434769
9 *301:12 *367:38 0.00285211
10 *1343:A2 *301:12 0.000107364
11 *1480:D *1377:I0 0
12 *1480:RN *1498:D 0
13 *1493:RN *301:10 0.000125283
14 *1496:D *301:12 0.000490198
15 *1539:I *1377:I0 3.40445e-05
16 *235:18 *301:12 0.00117865
17 *259:10 *1377:I0 3.20057e-06
*RES
1 *1535:Z *301:10 15.684 
2 *301:10 *301:12 55.016 
3 *301:12 *1377:I0 14.852 
4 *301:12 *1498:D 18.7 
*END

*D_NET *302 0.0101662
*CONN
*I *1331:A1 I *D gf180mcu_fd_sc_mcu7t5v0__nor3_1
*I *1329:A1 I *D gf180mcu_fd_sc_mcu7t5v0__nor3_1
*I *1333:A1 I *D gf180mcu_fd_sc_mcu7t5v0__nor3_1
*I *1377:I1 I *D gf180mcu_fd_sc_mcu7t5v0__mux2_2
*I *1337:A1 I *D gf180mcu_fd_sc_mcu7t5v0__nor4_1
*I *1335:A1 I *D gf180mcu_fd_sc_mcu7t5v0__nor3_1
*I *1538:Z O *D gf180mcu_fd_sc_mcu7t5v0__clkbuf_2
*CAP
1 *1331:A1 0
2 *1329:A1 0
3 *1333:A1 0.000742545
4 *1377:I1 0.000256304
5 *1337:A1 0
6 *1335:A1 0
7 *1538:Z 0.000837052
8 *302:43 0.00124778
9 *302:39 0.000505232
10 *302:23 0.000590155
11 *302:16 0.000669279
12 *302:10 0.00117248
13 *1333:A1 *1193:I 3.43201e-05
14 *1333:A1 *1198:A2 0
15 *1333:A1 *1332:A1 0.000287149
16 *1333:A1 *1333:A2 1.78512e-05
17 *1333:A1 *1437:I 0.000109506
18 *1333:A1 *315:71 6.33007e-05
19 *1333:A1 *318:31 7.86377e-05
20 *1333:A1 *325:61 1.07369e-05
21 *1333:A1 *374:8 0
22 *302:10 *372:36 0
23 *302:10 *375:10 0
24 *302:16 *1193:I 0
25 *302:16 *1335:A2 1.71326e-05
26 *302:16 *316:51 0.000772897
27 *302:23 *1193:I 0
28 *302:23 *1335:A2 0.000210903
29 *302:23 *1337:A2 0.000159517
30 *302:43 *1193:I 0.000480548
31 *302:43 *316:51 0.000103788
32 *302:43 *325:61 0.000341517
33 *1231:A1 *302:10 0
34 *1333:A3 *1333:A1 0.000157359
35 *1335:A3 *302:16 5.90026e-05
36 *1337:A4 *1377:I1 2.76494e-05
37 *1337:A4 *302:23 6.8199e-07
38 *1487:D *1377:I1 3.2098e-05
39 *1488:D *302:16 8.21146e-06
40 *1488:RN *302:43 0.000663752
41 *1489:D *1333:A1 4.03079e-05
42 *1490:D *302:10 0.000289343
43 *1491:D *1333:A1 0.000179194
*RES
1 *1538:Z *302:10 15.24 
2 *302:10 *302:16 7.828 
3 *302:16 *1335:A1 4.5 
4 *302:16 *302:23 3.016 
5 *302:23 *1337:A1 4.5 
6 *302:23 *1377:I1 6.372 
7 *302:10 *302:39 4.5 
8 *302:39 *302:43 6.24 
9 *302:43 *1333:A1 19.844 
10 *302:43 *1329:A1 4.5 
11 *302:39 *1331:A1 4.5 
*END

*D_NET *303 0.0123037
*CONN
*I *1327:A4 I *D gf180mcu_fd_sc_mcu7t5v0__nand4_1
*I *1326:A3 I *D gf180mcu_fd_sc_mcu7t5v0__nand3_1
*I *1325:A2 I *D gf180mcu_fd_sc_mcu7t5v0__nand2_1
*I *1334:A2 I *D gf180mcu_fd_sc_mcu7t5v0__xnor2_1
*I *1539:Z O *D gf180mcu_fd_sc_mcu7t5v0__buf_1
*CAP
1 *1327:A4 0.000126746
2 *1326:A3 0.000168032
3 *1325:A2 0.000133371
4 *1334:A2 0
5 *1539:Z 0.000958968
6 *303:40 0.000459463
7 *303:27 0.000600235
8 *303:18 0.00126115
9 *1325:A2 *1193:I 0
10 *1325:A2 *1325:A1 0.000428493
11 *1325:A2 *1334:A1 7.22679e-05
12 *1325:A2 *318:31 3.07284e-05
13 *1326:A3 *1326:A2 3.56849e-05
14 *1326:A3 *1330:A1 7.87395e-06
15 *1326:A3 *373:6 5.92716e-05
16 *1326:A3 *373:8 0.000103703
17 *1327:A4 *325:61 2.696e-05
18 *1327:A4 *373:8 6.91919e-05
19 *1327:A4 *373:12 0.000500761
20 *303:18 *1434:I 0
21 *303:18 *1529:I 0
22 *303:18 *316:10 0.000253855
23 *303:18 *316:27 4.7773e-05
24 *303:18 *316:51 0.000594278
25 *303:18 *346:14 0.000134172
26 *303:27 *1334:A1 0.00104095
27 *303:27 *318:31 6.84289e-06
28 *303:40 *318:56 0.00062279
29 *303:40 *373:36 0.0014923
30 *1481:RN *303:18 1.03283e-05
31 *1482:RN *303:18 9.00208e-05
32 *1488:D *303:27 2.08037e-05
33 *1490:CLK *1326:A3 0.00018297
34 *1498:CLK *303:18 7.22679e-05
35 *1539:I *303:18 5.22571e-05
36 *298:64 *303:18 0.00263924
*RES
1 *1539:Z *303:18 24.628 
2 *303:18 *1334:A2 4.5 
3 *303:18 *303:27 3.328 
4 *303:27 *1325:A2 6.06 
5 *303:27 *303:40 13.056 
6 *303:40 *1326:A3 6.684 
7 *303:40 *1327:A4 6.06 
*END

*D_NET *304 0.0052449
*CONN
*I *1256:A2 I *D gf180mcu_fd_sc_mcu7t5v0__nor2_1
*I *1259:A1 I *D gf180mcu_fd_sc_mcu7t5v0__oai22_1
*I *1252:B I *D gf180mcu_fd_sc_mcu7t5v0__aoi21_1
*I *1540:Z O *D gf180mcu_fd_sc_mcu7t5v0__clkbuf_1
*CAP
1 *1256:A2 9.40563e-05
2 *1259:A1 0
3 *1252:B 0
4 *1540:Z 0.000217977
5 *304:23 0.00058858
6 *304:12 0.000712501
7 *1256:A2 *1251:A3 0
8 *304:12 *1253:A1 3.22108e-05
9 *304:23 *1251:A3 0
10 *1253:A2 *304:12 0.000103788
11 *1255:A1 *304:12 0.000594096
12 *1257:A2 *304:23 0.000501376
13 *1258:A1 *304:23 0.000120946
14 *1259:A2 *304:23 0.000747
15 *1260:B *1256:A2 0.000389595
16 *1260:B *304:23 2.73715e-06
17 *1483:D *304:23 7.93118e-05
18 *225:8 *1256:A2 0.00101998
19 *225:8 *304:23 4.07478e-05
*RES
1 *1540:Z *304:12 15.372 
2 *304:12 *1252:B 4.5 
3 *304:12 *304:23 6.344 
4 *304:23 *1259:A1 4.5 
5 *304:23 *1256:A2 7.308 
*END

*D_NET *305 0.019856
*CONN
*I *1318:A2 I *D gf180mcu_fd_sc_mcu7t5v0__nand2_1
*I *1316:A2 I *D gf180mcu_fd_sc_mcu7t5v0__oai21_1
*I *1317:S I *D gf180mcu_fd_sc_mcu7t5v0__mux2_2
*I *1313:A2 I *D gf180mcu_fd_sc_mcu7t5v0__nand2_1
*I *1312:A2 I *D gf180mcu_fd_sc_mcu7t5v0__aoi21_1
*I *1311:A2 I *D gf180mcu_fd_sc_mcu7t5v0__nor2_1
*I *1314:A2 I *D gf180mcu_fd_sc_mcu7t5v0__oai21_1
*I *1315:A2 I *D gf180mcu_fd_sc_mcu7t5v0__nand2_1
*I *1323:S I *D gf180mcu_fd_sc_mcu7t5v0__mux2_2
*I *1320:S I *D gf180mcu_fd_sc_mcu7t5v0__mux2_2
*I *1520:Z O *D gf180mcu_fd_sc_mcu7t5v0__dlyb_1
*CAP
1 *1318:A2 8.09571e-05
2 *1316:A2 0
3 *1317:S 0
4 *1313:A2 0.000359974
5 *1312:A2 0.000144787
6 *1311:A2 0.000204104
7 *1314:A2 0
8 *1315:A2 0
9 *1323:S 0.000100516
10 *1320:S 0.000692395
11 *1520:Z 0.000145464
12 *305:83 0.000996706
13 *305:70 0.00072357
14 *305:66 0.000734018
15 *305:62 0.00069161
16 *305:58 0.000920111
17 *305:43 0.00200434
18 *305:35 0.00158216
19 *305:22 0.0006711
20 *1313:A2 *1300:A1 0.000224056
21 *1313:A2 *334:8 6.28659e-05
22 *1318:A2 *1318:A1 0.000148368
23 *1318:A2 *1323:I0 0.000333635
24 *1318:A2 *349:83 3.48225e-05
25 *1323:S *1287:S 3.09205e-05
26 *1323:S *1323:I0 0.00028351
27 *1323:S *349:83 7.24199e-05
28 *305:22 *1287:S 0
29 *305:22 *349:64 0.000137062
30 *305:35 *1323:I0 0.000273626
31 *305:35 *349:83 5.06107e-05
32 *305:58 *333:8 0.000349628
33 *305:58 *352:60 6.35093e-06
34 *305:62 *1195:A4 1.71326e-05
35 *305:62 *1198:A1 1.07369e-05
36 *305:62 *331:8 0.000226986
37 *305:62 *352:60 0.000252344
38 *305:66 *1195:A1 1.57245e-05
39 *305:66 *1300:A1 0.000488693
40 *305:83 *1202:A2 6.58506e-06
41 *305:83 *328:27 0
42 *305:83 *330:45 0.000289212
43 *1196:A2 *305:70 0.000480985
44 *1196:A2 *305:83 0.00085638
45 *1312:B *1311:A2 1.26329e-05
46 *1314:B *1313:A2 0.000498816
47 *1316:A1 *305:58 1.78817e-06
48 *1316:A1 *305:62 0
49 *1316:B *305:58 3.40995e-07
50 *1319:A2 *305:58 0
51 *1319:B *1323:S 0
52 *1319:B *305:58 0.000349628
53 *1452:D *305:58 1.89425e-05
54 *1452:D *305:62 7.86954e-06
55 *1453:RN *305:62 0.000340424
56 *1454:D *305:58 0.000113773
57 *1454:RN *305:62 0
58 *1455:D *305:70 0.000327222
59 *1455:RN *1313:A2 0
60 *1455:CLK *1313:A2 0.00076764
61 *1455:CLK *305:66 0.000197059
62 *1456:D *1311:A2 0.00019377
63 *1471:CLK *1320:S 0
64 *1472:CLK *1318:A2 2.14739e-05
65 *1472:CLK *1323:S 0
66 *1472:CLK *305:22 3.91975e-05
67 *1507:I *1318:A2 3.0804e-05
68 *1507:I *305:22 0
69 *1510:I *305:70 0
70 *141:29 *1313:A2 0
71 *153:27 *305:62 0.000869124
72 *253:65 *1311:A2 0.00111148
73 *253:65 *1313:A2 0.000249521
74 *299:51 *1312:A2 0
*RES
1 *1520:Z *1320:S 10.248 
2 *1320:S *305:22 12.848 
3 *305:22 *1323:S 10.456 
4 *305:22 *305:35 0.728 
5 *305:35 *305:43 22.756 
6 *305:43 *1315:A2 4.5 
7 *305:43 *305:58 13.888 
8 *305:58 *305:62 6.032 
9 *305:62 *305:66 7.724 
10 *305:66 *305:70 5.852 
11 *305:70 *1314:A2 4.5 
12 *305:70 *305:83 10.012 
13 *305:83 *1311:A2 12.016 
14 *305:83 *1312:A2 9.936 
15 *305:66 *1313:A2 13.784 
16 *305:62 *1317:S 4.5 
17 *305:58 *1316:A2 4.5 
18 *305:35 *1318:A2 10.248 
*END

*D_NET *306 0.0269905
*CONN
*I *1294:A2 I *D gf180mcu_fd_sc_mcu7t5v0__nand2_1
*I *1295:A2 I *D gf180mcu_fd_sc_mcu7t5v0__oai21_1
*I *1303:A2 I *D gf180mcu_fd_sc_mcu7t5v0__aoi21_1
*I *1302:A2 I *D gf180mcu_fd_sc_mcu7t5v0__nor2_1
*I *1309:A2 I *D gf180mcu_fd_sc_mcu7t5v0__aoi21_1
*I *1304:A2 I *D gf180mcu_fd_sc_mcu7t5v0__nor2_1
*I *1307:A2 I *D gf180mcu_fd_sc_mcu7t5v0__aoi21_1
*I *1305:A2 I *D gf180mcu_fd_sc_mcu7t5v0__aoi21_1
*I *1306:A2 I *D gf180mcu_fd_sc_mcu7t5v0__nor2_1
*I *1308:A2 I *D gf180mcu_fd_sc_mcu7t5v0__nor2_1
*I *1521:Z O *D gf180mcu_fd_sc_mcu7t5v0__dlyb_1
*CAP
1 *1294:A2 0.000388191
2 *1295:A2 0.000376907
3 *1303:A2 0.000204719
4 *1302:A2 0.0032548
5 *1309:A2 0
6 *1304:A2 0
7 *1307:A2 0.000171139
8 *1305:A2 0
9 *1306:A2 0.000373356
10 *1308:A2 0.000238372
11 *1521:Z 0
12 *306:119 0.00380981
13 *306:41 0.000582635
14 *306:35 0.000675693
15 *306:29 0.000773319
16 *306:25 0.000570167
17 *306:23 0.000302215
18 *306:21 0.000573854
19 *306:4 0.000607507
20 *1294:A2 *317:66 0.0012145
21 *1295:A2 *1300:A2 0
22 *1302:A2 *313:68 8.82427e-05
23 *1306:A2 *1421:I 0.000337769
24 *306:21 *313:68 9.22771e-06
25 *306:25 *313:68 1.95797e-05
26 *306:29 *313:48 0.000166955
27 *306:29 *313:68 0.000414278
28 *306:35 *313:48 7.1123e-05
29 *306:35 *313:103 0
30 *306:119 *1211:B1 0
31 *306:119 *1302:A1 0.000215256
32 *306:119 *1355:A2 0.00110841
33 *306:119 *1357:A1 1.02007e-05
34 *306:119 *1429:I 0.000880629
35 *306:119 *307:8 0.000139043
36 *306:119 *307:26 0.000571772
37 *306:119 *307:45 0
38 *306:119 *313:68 1.57479e-05
39 *306:119 *314:29 5.47431e-06
40 *306:119 *314:38 0
41 *306:119 *314:51 0
42 *306:119 *317:40 6.43437e-05
43 *306:119 *317:53 6.43437e-05
44 *306:119 *317:66 0.000110947
45 *306:119 *326:22 0.000745248
46 *1211:B2 *1303:A2 9.7618e-05
47 *1295:A1 *1295:A2 0.000199998
48 *1295:B *1295:A2 6.8199e-07
49 *1303:B *1302:A2 0.000271523
50 *1303:B *1303:A2 5.78216e-06
51 *1303:B *306:21 0
52 *1303:B *306:25 6.06951e-05
53 *1305:A1 *1306:A2 5.13977e-05
54 *1305:A1 *1307:A2 5.1908e-05
55 *1305:A1 *306:35 2.66791e-05
56 *1305:A1 *306:41 5.31445e-05
57 *1307:B *1306:A2 1.08279e-05
58 *1307:B *306:41 7.29541e-06
59 *1309:A1 *1303:A2 0.000185845
60 *1309:A1 *306:21 0.000100557
61 *1309:B *1308:A2 0.00195522
62 *1355:A3 *306:119 0.00103922
63 *1358:A3 *306:119 5.10203e-05
64 *1441:RN *306:119 8.23891e-06
65 *1441:CLK *306:119 8.80888e-05
66 *1442:D *306:119 0.00016066
67 *1442:RN *306:119 0
68 *1457:D *306:21 0.000723938
69 *1457:RN *1303:A2 0.000176038
70 *1457:RN *306:25 0
71 *1457:RN *306:29 7.93118e-05
72 *1457:CLK *306:21 9.23352e-06
73 *1459:D *1306:A2 0.000336742
74 *1459:CLK *1306:A2 0.000616013
75 *1460:D *306:29 0
76 *1463:D *306:119 0.000428493
77 *1467:RN *1306:A2 1.91601e-05
78 *1522:I *306:119 0
79 *150:8 *1303:A2 0.000107648
80 *292:119 *1308:A2 0.000302376
81 *295:8 *1308:A2 8.32777e-05
82 *295:21 *1308:A2 0.000113661
83 *295:83 *306:29 0
84 *295:87 *1306:A2 0.000126402
85 *295:87 *306:29 0
86 *295:87 *306:35 0
87 *295:87 *306:41 0.000256591
88 *296:6 *306:119 5.63044e-06
89 *299:14 *1295:A2 0
90 *299:16 *1295:A2 2.38656e-05
*RES
1 *1521:Z *306:4 4.5 
2 *306:4 *1308:A2 18.596 
3 *306:4 *306:21 7.828 
4 *306:21 *306:23 4.5 
5 *306:23 *306:25 0.728 
6 *306:25 *306:29 4.784 
7 *306:29 *306:35 6.372 
8 *306:35 *306:41 5.956 
9 *306:41 *1306:A2 9.908 
10 *306:41 *1305:A2 4.5 
11 *306:35 *1307:A2 10.144 
12 *306:29 *1304:A2 4.5 
13 *306:25 *1309:A2 4.5 
14 *306:23 *1302:A2 6.788 
15 *306:21 *1303:A2 11.08 
16 *1302:A2 *306:119 36.352 
17 *306:119 *1295:A2 12.328 
18 *306:119 *1294:A2 13.16 
*END

*D_NET *307 0.0069871
*CONN
*I *1297:A2 I *D gf180mcu_fd_sc_mcu7t5v0__aoi21_1
*I *1300:A2 I *D gf180mcu_fd_sc_mcu7t5v0__nor2_1
*I *1301:A2 I *D gf180mcu_fd_sc_mcu7t5v0__aoi21_1
*I *1296:A2 I *D gf180mcu_fd_sc_mcu7t5v0__nor2_1
*I *1298:A2 I *D gf180mcu_fd_sc_mcu7t5v0__nand2_1
*I *1299:A2 I *D gf180mcu_fd_sc_mcu7t5v0__oai21_1
*I *1522:Z O *D gf180mcu_fd_sc_mcu7t5v0__dlyb_1
*CAP
1 *1297:A2 0
2 *1300:A2 0.000400121
3 *1301:A2 0
4 *1296:A2 0
5 *1298:A2 0
6 *1299:A2 0.000318846
7 *1522:Z 3.6366e-05
8 *307:45 0.000995916
9 *307:32 0.000804431
10 *307:26 0.00070216
11 *307:8 0.000472743
12 *307:6 0.000683787
13 *1299:A2 *1429:I 0
14 *1300:A2 *334:8 0
15 *307:8 *314:51 6.41811e-05
16 *307:26 *1530:I 2.25385e-05
17 *307:26 *317:27 7.79714e-05
18 *307:32 *1409:I 0
19 *307:32 *317:27 0
20 *1295:A1 *1300:A2 0
21 *1295:A2 *1300:A2 0
22 *1297:A1 *307:32 0.000188231
23 *1297:B *307:32 0.000459373
24 *1299:A1 *1299:A2 0
25 *1299:B *1299:A2 0.000865238
26 *1301:A1 *1300:A2 4.33918e-05
27 *1461:D *1300:A2 0.00012524
28 *1463:D *307:45 0
29 *1463:CLK *1300:A2 1.57479e-05
30 *1463:CLK *307:45 0
31 *296:55 *1299:A2 0
32 *306:119 *307:8 0.000139043
33 *306:119 *307:26 0.000571772
34 *306:119 *307:45 0
*RES
1 *1522:Z *307:6 4.812 
2 *307:6 *307:8 1.56 
3 *307:8 *1299:A2 16.932 
4 *307:8 *1298:A2 4.5 
5 *307:6 *307:26 4.472 
6 *307:26 *307:32 11.184 
7 *307:32 *1296:A2 4.5 
8 *307:32 *307:45 4.16 
9 *307:45 *1301:A2 4.5 
10 *307:45 *1300:A2 16.62 
11 *307:26 *1297:A2 4.5 
*END

*D_NET *308 0.0239352
*CONN
*I *1286:S I *D gf180mcu_fd_sc_mcu7t5v0__mux2_2
*I *1278:A2 I *D gf180mcu_fd_sc_mcu7t5v0__nand2_1
*I *1279:A2 I *D gf180mcu_fd_sc_mcu7t5v0__oai21_1
*I *1284:S I *D gf180mcu_fd_sc_mcu7t5v0__mux2_2
*I *1285:S I *D gf180mcu_fd_sc_mcu7t5v0__mux2_2
*I *1280:A2 I *D gf180mcu_fd_sc_mcu7t5v0__nor2_1
*I *1281:A2 I *D gf180mcu_fd_sc_mcu7t5v0__aoi21_1
*I *1282:A2 I *D gf180mcu_fd_sc_mcu7t5v0__nand2_1
*I *1283:A2 I *D gf180mcu_fd_sc_mcu7t5v0__oai21_1
*I *1287:S I *D gf180mcu_fd_sc_mcu7t5v0__mux2_2
*I *1523:Z O *D gf180mcu_fd_sc_mcu7t5v0__dlyb_1
*CAP
1 *1286:S 0.000301947
2 *1278:A2 0.000365072
3 *1279:A2 0
4 *1284:S 0
5 *1285:S 0.0007852
6 *1280:A2 0
7 *1281:A2 7.41291e-05
8 *1282:A2 0
9 *1283:A2 0.000140056
10 *1287:S 0.000975113
11 *1523:Z 0.00134267
12 *308:96 0.000454458
13 *308:82 0.00134512
14 *308:65 0.00101047
15 *308:52 0.000324265
16 *308:48 0.00040124
17 *308:28 0.000147318
18 *308:26 0.000585138
19 *1278:A2 *1280:A1 0
20 *1278:A2 *328:27 1.23682e-05
21 *1278:A2 *352:39 7.75241e-06
22 *1283:A2 *1282:A1 0.000125283
23 *1285:S *1284:I1 4.47991e-05
24 *1285:S *1285:I0 0.000496743
25 *1285:S *330:12 9.00155e-05
26 *1285:S *350:25 0.000277832
27 *1285:S *350:38 0.00126643
28 *1285:S *351:16 0.00133316
29 *1285:S *351:22 7.70282e-05
30 *1285:S *352:14 0.000346997
31 *1285:S *352:39 8.14957e-05
32 *1286:S *1285:I0 0.000122244
33 *1286:S *350:25 0.00195487
34 *1287:S *1403:I 6.13569e-05
35 *1287:S *348:12 0
36 *1287:S *348:14 0
37 *1287:S *349:64 1.60338e-05
38 *308:26 *1315:A1 1.37902e-05
39 *308:26 *1403:I 1.07369e-05
40 *308:26 *1427:I 0.000437806
41 *308:28 *1282:A1 0.000125283
42 *308:28 *352:39 0.000325271
43 *308:48 *1315:A1 7.20921e-05
44 *308:48 *352:39 0.00162266
45 *308:48 *353:10 0.000121485
46 *308:52 *328:27 3.84909e-05
47 *308:82 *1264:A2 0.000113027
48 *308:82 *1280:A1 4.67771e-06
49 *308:82 *1321:A1 0.000209278
50 *308:82 *352:14 0
51 *308:82 *352:39 0.000250343
52 *308:96 *328:27 2.50411e-05
53 *1264:A3 *308:82 0
54 *1265:A1 *1285:S 0.000116742
55 *1265:A1 *308:82 9.34456e-05
56 *1265:A2 *308:82 0.00019377
57 *1279:A1 *1278:A2 3.3555e-05
58 *1281:A1 *308:52 0.000103788
59 *1283:A1 *1283:A2 0.000698193
60 *1283:A1 *308:28 0.000408794
61 *1283:A1 *308:48 0.000150781
62 *1319:B *1287:S 0
63 *1323:S *1287:S 3.09205e-05
64 *1449:D *1287:S 4.81384e-05
65 *1449:SETN *1287:S 0
66 *1467:CLK *1286:S 0.00127486
67 *1508:I *1286:S 6.61789e-06
68 *1509:I *1286:S 4.90521e-05
69 *1516:I *1281:A2 1.4348e-05
70 *1516:I *308:65 3.13582e-05
71 *1516:I *308:82 0.000133888
72 *1523:I *1287:S 0
73 *142:25 *308:48 0.000186635
74 *142:25 *308:52 0.000328552
75 *231:14 *1285:S 1.70688e-05
76 *231:14 *308:82 1.85523e-05
77 *253:42 *1278:A2 5.33807e-05
78 *253:42 *1285:S 2.8677e-05
79 *253:42 *308:52 0.000711423
80 *253:42 *308:82 0
81 *253:42 *308:96 0.000325477
82 *296:61 *1281:A2 0.00028351
83 *296:61 *308:65 0.000657043
84 *305:22 *1287:S 0
*RES
1 *1523:Z *1287:S 16.072 
2 *1523:Z *308:26 12.432 
3 *308:26 *308:28 1.144 
4 *308:28 *1283:A2 11.184 
5 *308:28 *1282:A2 9 
6 *308:26 *308:48 8.764 
7 *308:48 *308:52 6.476 
8 *308:52 *1281:A2 9.728 
9 *308:52 *308:65 6.268 
10 *308:65 *1280:A2 4.5 
11 *308:65 *308:82 16.072 
12 *308:82 *1285:S 13.34 
13 *308:82 *1284:S 4.5 
14 *308:48 *308:96 0.936 
15 *308:96 *1279:A2 4.5 
16 *308:96 *1278:A2 15.58 
17 *1285:S *1286:S 14.928 
*END

*D_NET *309 0.000246595
*CONN
*I *1545:I I *D gf180mcu_fd_sc_mcu7t5v0__buf_3
*I *1478:Q O *D gf180mcu_fd_sc_mcu7t5v0__dffsnq_1
*CAP
1 *1545:I 9.14386e-05
2 *1478:Q 9.14386e-05
3 *1545:I *315:32 0
4 *297:10 *1545:I 6.3718e-05
*RES
1 *1478:Q *1545:I 18.728 
*END

*D_NET *310 0.0199975
*CONN
*I *1433:I I *D gf180mcu_fd_sc_mcu7t5v0__clkinv_1
*I *1382:I I *D gf180mcu_fd_sc_mcu7t5v0__clkinv_1
*I *1423:I I *D gf180mcu_fd_sc_mcu7t5v0__clkinv_1
*I *1391:I I *D gf180mcu_fd_sc_mcu7t5v0__clkinv_1
*I *1430:I I *D gf180mcu_fd_sc_mcu7t5v0__clkinv_1
*I *1431:I I *D gf180mcu_fd_sc_mcu7t5v0__clkinv_1
*I *1419:I I *D gf180mcu_fd_sc_mcu7t5v0__clkinv_1
*I *1386:I I *D gf180mcu_fd_sc_mcu7t5v0__clkinv_1
*I *1387:I I *D gf180mcu_fd_sc_mcu7t5v0__clkinv_1
*I *1383:I I *D gf180mcu_fd_sc_mcu7t5v0__clkinv_1
*I *1524:Z O *D gf180mcu_fd_sc_mcu7t5v0__dlyb_1
*CAP
1 *1433:I 0
2 *1382:I 0
3 *1423:I 0.000514426
4 *1391:I 0
5 *1430:I 0
6 *1431:I 0.000356593
7 *1419:I 0.000424874
8 *1386:I 0
9 *1387:I 0
10 *1383:I 0.000437853
11 *1524:Z 0
12 *310:96 0.000914923
13 *310:88 0.000939788
14 *310:66 0.000637865
15 *310:53 0.000962365
16 *310:47 0.000960854
17 *310:36 0.000774499
18 *310:32 0.000842855
19 *310:10 0.000668941
20 *310:4 0.000464787
21 *1383:I *1532:I 0.000240389
22 *1419:I *1292:I0 0.000202476
23 *1419:I *1292:I1 7.93118e-05
24 *1419:I *1541:I 1.35124e-05
25 *1423:I *349:12 5.15322e-05
26 *1423:I *349:64 5.47431e-06
27 *310:10 *1532:I 0.000203107
28 *310:10 *319:6 0
29 *310:32 *319:6 0
30 *310:32 *319:30 0.000402872
31 *310:36 *319:30 2.13246e-06
32 *310:36 *327:10 0
33 *310:53 *1292:I0 7.04505e-05
34 *310:53 *319:62 3.71367e-05
35 *310:66 *1289:A1 1.23478e-05
36 *310:66 *319:62 0.000249316
37 *310:88 *1292:I0 0.000120241
38 *310:88 *348:24 0.000116769
39 *310:96 *1308:A1 0.000397047
40 *310:96 *348:24 0.000868177
41 *310:96 *364:10 0
42 cap_ctrl[0] *1419:I 0
43 *1275:A1 *310:66 0.000451488
44 *1275:B *1431:I 0
45 *1276:A2 *310:88 0.00012524
46 *1277:A1 *310:66 0.0012711
47 *1291:S *310:66 2.20647e-05
48 *1292:S *310:66 0.000270519
49 *1310:A1 *1431:I 0.000179194
50 *1341:A1 *310:36 0.000964239
51 *1341:B1 *310:36 0.000119605
52 *1342:A2 *310:36 0.000820132
53 *1345:A2 *310:88 0
54 *1451:D *1423:I 0.000115166
55 *1465:RN *1419:I 0.000591484
56 *1466:CLK *1431:I 8.79719e-05
57 *1469:RN *1423:I 0.000509988
58 *1477:RN *1431:I 0.000100568
59 *1477:CLK *310:47 9.77992e-06
60 *1477:CLK *310:53 0.00019118
61 *1477:CLK *310:66 0.000585299
62 *1493:RN *310:32 0
63 *1496:RN *310:47 8.07883e-05
64 *1497:D *1383:I 4.03094e-05
65 *1497:D *310:32 4.67028e-06
66 *1497:D *310:36 9.70075e-05
67 *1497:RN *1383:I 5.90026e-05
68 *1501:D *310:47 0.000267898
69 *1501:D *310:88 0.000238835
70 *1506:I *1423:I 0.000480356
71 *1506:I *310:96 3.0804e-05
72 *139:10 *310:66 3.70435e-05
73 *237:19 *310:96 0
74 *237:34 *310:96 0
75 *270:22 *310:36 0.000113605
76 *293:22 *310:53 4.05671e-05
77 *293:22 *310:88 3.18011e-06
78 *293:24 *310:36 7.11929e-05
79 *293:24 *310:47 3.20057e-06
80 *293:30 *1383:I 8.95428e-06
81 *293:30 *310:10 3.21839e-05
*RES
1 *1524:Z *310:4 4.5 
2 *310:4 *310:10 6.788 
3 *310:10 *1383:I 12.536 
4 *310:10 *1387:I 9 
5 *310:4 *310:32 1.872 
6 *310:32 *310:36 11.26 
7 *310:36 *1386:I 9 
8 *310:36 *310:47 6.268 
9 *310:47 *310:53 6.58 
10 *310:53 *1419:I 13.056 
11 *310:53 *310:66 11.26 
12 *310:66 *1431:I 7.516 
13 *310:66 *1430:I 4.5 
14 *310:47 *310:88 5.096 
15 *310:88 *310:96 13.368 
16 *310:96 *1391:I 4.5 
17 *310:96 *1423:I 10.324 
18 *310:88 *1382:I 4.5 
19 *310:32 *1433:I 4.5 
*END

*D_NET *311 0.0183194
*CONN
*I *1392:I I *D gf180mcu_fd_sc_mcu7t5v0__clkinv_1
*I *1422:I I *D gf180mcu_fd_sc_mcu7t5v0__clkinv_1
*I *1385:I I *D gf180mcu_fd_sc_mcu7t5v0__clkinv_1
*I *1427:I I *D gf180mcu_fd_sc_mcu7t5v0__clkinv_1
*I *1403:I I *D gf180mcu_fd_sc_mcu7t5v0__clkinv_1
*I *1384:I I *D gf180mcu_fd_sc_mcu7t5v0__clkinv_1
*I *1394:I I *D gf180mcu_fd_sc_mcu7t5v0__clkinv_1
*I *1525:Z O *D gf180mcu_fd_sc_mcu7t5v0__dlyb_1
*CAP
1 *1392:I 0.000472983
2 *1422:I 3.6366e-05
3 *1385:I 0.000249395
4 *1427:I 0.000173178
5 *1403:I 0.000135416
6 *1384:I 0.00093094
7 *1394:I 0.000169524
8 *1525:Z 0.000374019
9 *311:58 0.000987356
10 *311:52 0.0013278
11 *311:50 0.000731339
12 *311:31 0.00207025
13 *311:14 0.00117714
14 *311:10 0.00101064
15 *1394:I *319:30 0.000395678
16 *1427:I *1315:A1 1.71326e-05
17 *311:10 *358:10 3.60642e-05
18 *311:10 *359:27 0.000104425
19 *311:31 *1246:A3 4.98252e-05
20 *311:31 *367:38 1.12352e-05
21 *311:58 *1264:A2 0
22 *311:58 *365:8 7.75984e-05
23 *1248:A3 *1394:I 7.05624e-05
24 *1248:A3 *311:31 0.000214117
25 *1287:S *1403:I 6.13569e-05
26 *1319:B *1403:I 4.79815e-05
27 *1319:B *1427:I 6.82549e-05
28 *1339:A1 *1392:I 0.00199384
29 *1339:A1 *311:14 0.000569964
30 *1348:A1 *311:31 0
31 *1449:CLK *311:31 0.000279926
32 *1449:CLK *311:50 0.000553448
33 *1468:RN *311:52 9.09864e-05
34 *1469:D *1384:I 0
35 *1469:CLK *1384:I 0.000241565
36 *1473:RN *1427:I 0.000500761
37 *1473:CLK *1385:I 0.000203364
38 *1495:RN *1385:I 0.000807021
39 *1502:SETN *1392:I 7.17602e-05
40 *1504:SETN *311:14 0.000185295
41 *207:25 *1384:I 3.4596e-05
42 *216:8 *311:31 0.000283647
43 *217:12 *1394:I 0.000214564
44 *217:12 *311:14 0.000254486
45 *217:12 *311:31 5.0164e-05
46 *217:16 *311:31 1.23748e-05
47 *269:16 *1392:I 0
48 *269:32 *1392:I 1.19663e-05
49 *269:32 *1394:I 3.14958e-05
50 *269:32 *311:14 5.91282e-05
51 *270:22 *1384:I 0
52 *270:22 *311:31 0.000415294
53 *294:58 *311:10 4.62083e-06
54 *308:26 *1403:I 1.07369e-05
55 *308:26 *1427:I 0.000437806
*RES
1 *1525:Z *311:10 15.684 
2 *311:10 *311:14 6.684 
3 *311:14 *1394:I 11.08 
4 *311:14 *311:31 6.968 
5 *311:31 *1384:I 15.76 
6 *311:31 *311:50 7.62 
7 *311:50 *311:52 2.6 
8 *311:52 *311:58 14.72 
9 *311:58 *1403:I 5.644 
10 *311:58 *1427:I 7.516 
11 *311:52 *1385:I 7.516 
12 *311:50 *1422:I 4.812 
13 *311:10 *1392:I 10.012 
*END

*D_NET *312 0.00106737
*CONN
*I *1532:I I *D gf180mcu_fd_sc_mcu7t5v0__dlyb_1
*I *1536:Z O *D gf180mcu_fd_sc_mcu7t5v0__dlyb_1
*CAP
1 *1532:I 0.000275725
2 *1536:Z 0.000275725
3 *1383:I *1532:I 0.000240389
4 *1497:D *1532:I 0
5 *1497:RN *1532:I 7.24282e-05
6 *310:10 *1532:I 0.000203107
*RES
1 *1536:Z *1532:I 20.912 
*END

*D_NET *313 0.0184767
*CONN
*I *1413:I I *D gf180mcu_fd_sc_mcu7t5v0__clkinv_1
*I *1414:I I *D gf180mcu_fd_sc_mcu7t5v0__clkinv_1
*I *1412:I I *D gf180mcu_fd_sc_mcu7t5v0__clkinv_1
*I *1395:I I *D gf180mcu_fd_sc_mcu7t5v0__clkinv_1
*I *1425:I I *D gf180mcu_fd_sc_mcu7t5v0__clkinv_1
*I *1405:I I *D gf180mcu_fd_sc_mcu7t5v0__clkinv_1
*I *1411:I I *D gf180mcu_fd_sc_mcu7t5v0__clkinv_1
*I *1424:I I *D gf180mcu_fd_sc_mcu7t5v0__clkinv_1
*I *1421:I I *D gf180mcu_fd_sc_mcu7t5v0__clkinv_1
*I *1420:I I *D gf180mcu_fd_sc_mcu7t5v0__clkinv_1
*I *1526:Z O *D gf180mcu_fd_sc_mcu7t5v0__dlyb_1
*CAP
1 *1413:I 0.000427859
2 *1414:I 0
3 *1412:I 0.000264337
4 *1395:I 0.000253638
5 *1425:I 0.000110734
6 *1405:I 0.000755942
7 *1411:I 0.000194813
8 *1424:I 0
9 *1421:I 0.000418765
10 *1420:I 0.000261628
11 *1526:Z 0
12 *313:118 0.000857559
13 *313:103 0.00119195
14 *313:70 0.00108129
15 *313:68 0.0013179
16 *313:48 0.00146022
17 *313:40 0.000974659
18 *313:12 0.000832605
19 *313:6 0.000213203
20 *1395:I *1302:A1 4.38131e-05
21 *1405:I *1263:A4 9.96173e-06
22 *1405:I *1320:I1 7.13072e-05
23 *1405:I *351:10 0.000288972
24 *1412:I *1174:I 0
25 *1413:I *1175:I 2.14739e-05
26 *1413:I *337:10 2.08795e-05
27 *1413:I *338:10 1.60338e-05
28 *1413:I *338:25 0.000863104
29 *1420:I *1291:I1 6.35991e-05
30 *1420:I *1306:A1 0
31 *1420:I *319:62 0.000937013
32 *1421:I *1290:I1 0.000959067
33 *313:12 *1306:A1 6.40114e-06
34 *313:40 *1290:I1 7.18709e-05
35 *313:40 *1306:A1 0.000216413
36 *313:48 *1290:I1 5.11472e-05
37 *313:48 *1306:A1 6.64873e-05
38 *313:48 *350:8 5.77841e-05
39 *313:68 *1302:A1 0.00012524
40 *313:70 *1302:A1 8.99624e-05
41 *313:70 *351:10 0.000235121
42 *313:103 *1290:I1 0.000102404
43 *313:103 *1306:A1 7.3514e-05
44 *313:103 *1543:I 2.55592e-05
45 *1212:B2 *313:118 2.50821e-05
46 *1302:A2 *313:68 8.82427e-05
47 *1303:B *1395:I 0
48 *1305:A1 *313:103 0.000308262
49 *1305:A1 *313:118 7.58962e-05
50 *1305:B *313:48 8.44951e-05
51 *1306:A2 *1421:I 0.000337769
52 *1307:A1 *313:103 0.000224235
53 *1307:B *313:48 4.96334e-06
54 *1441:D *1395:I 0
55 *1457:D *313:68 0
56 *1458:RN *1412:I 9.7618e-05
57 *1458:RN *1413:I 0
58 *1458:RN *313:103 1.90528e-05
59 *1458:RN *313:118 0
60 *1459:D *1421:I 1.23478e-05
61 *1466:RN *1420:I 0.000605853
62 *1467:RN *1421:I 0.000256274
63 *1471:RN *1425:I 0.000100568
64 *1522:I *1425:I 0.000134833
65 *148:12 *1412:I 0
66 *148:12 *313:118 8.05715e-05
67 *149:8 *313:103 8.35178e-06
68 *149:23 *1412:I 8.11055e-05
69 *149:23 *313:118 0.00020008
70 *295:87 *313:48 0
71 *306:21 *313:68 9.22771e-06
72 *306:25 *313:68 1.95797e-05
73 *306:29 *313:48 0.000166955
74 *306:29 *313:68 0.000414278
75 *306:35 *313:48 7.1123e-05
76 *306:35 *313:103 0
77 *306:119 *313:68 1.57479e-05
*RES
1 *1526:Z *313:6 9 
2 *313:6 *313:12 1.56 
3 *313:12 *1420:I 13.264 
4 *313:12 *1421:I 14.096 
5 *313:6 *313:40 1.352 
6 *313:40 *313:48 8.348 
7 *313:48 *1424:I 4.5 
8 *313:48 *1411:I 14.852 
9 *313:48 *313:68 11.468 
10 *313:68 *313:70 2.808 
11 *313:70 *1405:I 15.136 
12 *313:70 *1425:I 10.248 
13 *313:68 *1395:I 10.976 
14 *313:40 *313:103 10.22 
15 *313:103 *1412:I 6.372 
16 *313:103 *313:118 8.036 
17 *313:118 *1414:I 9 
18 *313:118 *1413:I 12.536 
*END

*D_NET *314 0.0144254
*CONN
*I *1397:I I *D gf180mcu_fd_sc_mcu7t5v0__clkinv_1
*I *1416:I I *D gf180mcu_fd_sc_mcu7t5v0__clkinv_1
*I *1398:I I *D gf180mcu_fd_sc_mcu7t5v0__clkinv_1
*I *1428:I I *D gf180mcu_fd_sc_mcu7t5v0__clkinv_1
*I *1396:I I *D gf180mcu_fd_sc_mcu7t5v0__clkinv_1
*I *1426:I I *D gf180mcu_fd_sc_mcu7t5v0__clkinv_1
*I *1527:Z O *D gf180mcu_fd_sc_mcu7t5v0__dlyb_1
*CAP
1 *1397:I 0.000662342
2 *1416:I 0
3 *1398:I 0.000777581
4 *1428:I 0.000394542
5 *1396:I 0
6 *1426:I 0.000648335
7 *1527:Z 2.72453e-05
8 *314:51 0.0010551
9 *314:38 0.00113205
10 *314:29 0.000530232
11 *314:25 0.00113659
12 *314:6 0.00107958
13 *1397:I *381:12 0.000728818
14 *1398:I *1298:A1 0.000109096
15 *1398:I *326:12 0.000277589
16 *1426:I *1527:I 0.000218634
17 *1426:I *352:8 3.7145e-05
18 *1428:I *354:10 6.55606e-05
19 *314:6 *1355:A2 0
20 *314:51 *341:25 0
21 *1220:A1 *1397:I 3.42651e-05
22 *1355:A3 *1426:I 4.33994e-05
23 *1358:A3 *314:29 3.65102e-05
24 *1442:D *1426:I 2.2517e-05
25 *1442:D *314:6 6.8199e-07
26 *1442:RN *314:29 3.4596e-05
27 *1443:RN *1397:I 0.000256274
28 *1462:SETN *314:51 0.00095772
29 *1505:I *1398:I 0
30 *1509:I *1426:I 0.000215368
31 *1522:I *1426:I 7.9929e-05
32 *1522:I *314:6 3.42651e-05
33 *165:6 *1397:I 0.00012524
34 *199:86 *1397:I 0.000532799
35 *199:86 *314:25 0.00017114
36 *283:12 *1398:I 3.77594e-05
37 *296:6 *1426:I 2.81522e-06
38 *296:44 *314:29 3.18325e-05
39 *296:51 *314:29 7.9669e-06
40 *296:51 *314:38 0.000587718
41 *296:51 *314:51 2.14739e-05
42 *296:55 *1428:I 0.00196048
43 *296:61 *1428:I 0.000280581
44 *306:119 *314:29 5.47431e-06
45 *306:119 *314:38 0
46 *306:119 *314:51 0
47 *307:8 *314:51 6.41811e-05
*RES
1 *1527:Z *314:6 4.812 
2 *314:6 *1426:I 19.22 
3 *314:6 *314:25 7.516 
4 *314:25 *314:29 5.228 
5 *314:29 *1396:I 4.5 
6 *314:29 *314:38 4.368 
7 *314:38 *1428:I 19.22 
8 *314:38 *314:51 3.016 
9 *314:51 *1398:I 19.844 
10 *314:51 *1416:I 4.5 
11 *314:25 *1397:I 16.488 
*END

*D_NET *315 0.0180989
*CONN
*I *1407:I I *D gf180mcu_fd_sc_mcu7t5v0__clkinv_1
*I *1381:I I *D gf180mcu_fd_sc_mcu7t5v0__clkinv_1
*I *1379:I I *D gf180mcu_fd_sc_mcu7t5v0__clkinv_1
*I *1193:I I *D gf180mcu_fd_sc_mcu7t5v0__clkinv_1
*I *1437:I I *D gf180mcu_fd_sc_mcu7t5v0__clkinv_1
*I *1406:I I *D gf180mcu_fd_sc_mcu7t5v0__clkinv_1
*I *1408:I I *D gf180mcu_fd_sc_mcu7t5v0__clkinv_1
*I *1390:I I *D gf180mcu_fd_sc_mcu7t5v0__clkinv_1
*I *1432:I I *D gf180mcu_fd_sc_mcu7t5v0__clkinv_1
*I *1393:I I *D gf180mcu_fd_sc_mcu7t5v0__clkinv_1
*I *1528:Z O *D gf180mcu_fd_sc_mcu7t5v0__dlyb_1
*CAP
1 *1407:I 0.000322107
2 *1381:I 0
3 *1379:I 0
4 *1193:I 0.0015388
5 *1437:I 0.000812099
6 *1406:I 0
7 *1408:I 0.000453641
8 *1390:I 0
9 *1432:I 4.05886e-05
10 *1393:I 0.000225357
11 *1528:Z 0
12 *315:71 0.00266472
13 *315:69 0.000522242
14 *315:65 0.000842864
15 *315:61 0.001245
16 *315:45 0.000736772
17 *315:43 0.00102243
18 *315:32 0.0012755
19 *315:21 0.000959725
20 *315:6 0.00031984
21 *1193:I *1325:A1 2.08037e-05
22 *1193:I *1332:A1 1.19663e-05
23 *1193:I *1333:A2 2.66619e-05
24 *1193:I *1334:A1 5.73867e-05
25 *1193:I *1336:A1 0
26 *1193:I *1337:A2 4.79893e-05
27 *1193:I *1388:I 0
28 *1193:I *316:51 0.000146725
29 *1193:I *316:62 0.000169464
30 *1408:I *352:60 2.2517e-05
31 *1437:I *1253:A1 0
32 *1437:I *347:10 0
33 *315:43 *1183:I 4.41641e-05
34 *315:45 *352:60 3.65447e-05
35 *315:61 *1300:A1 2.50372e-05
36 *315:65 *1198:A1 0
37 *315:65 *376:6 0
38 *315:69 *1198:A2 0
39 *315:69 *1328:A1 0
40 *315:69 *374:27 0
41 *315:71 *1332:A1 0
42 *315:71 *374:27 0
43 *1255:A1 *1437:I 0
44 *1268:A2 *315:32 2.80993e-05
45 *1268:A2 *315:43 8.69612e-05
46 *1325:A2 *1193:I 0
47 *1329:A3 *315:69 0
48 *1332:A2 *1193:I 7.73997e-05
49 *1333:A1 *1193:I 3.43201e-05
50 *1333:A1 *1437:I 0.000109506
51 *1333:A1 *315:71 6.33007e-05
52 *1337:A4 *1193:I 0
53 *1339:A2 *1432:I 0.000582256
54 *1452:RN *1408:I 0.0001133
55 *1453:D *315:43 0.00120226
56 *1453:D *315:45 1.40331e-05
57 *1453:D *315:61 7.16472e-05
58 *1453:RN *1407:I 0.00026464
59 *1454:D *1408:I 0
60 *1478:SETN *1432:I 0.000500761
61 *1489:RN *315:71 0.000185622
62 *1491:D *1193:I 8.62297e-05
63 *1491:RN *315:65 0.000591484
64 *1500:CLK *1432:I 0
65 *1545:I *315:32 0
66 *292:66 *1407:I 1.55799e-05
67 *292:66 *315:65 0
68 *297:18 *1393:I 0
69 *302:16 *1193:I 0
70 *302:23 *1193:I 0
71 *302:43 *1193:I 0.000480548
*RES
1 *1528:Z *315:6 9 
2 *315:6 *1393:I 10.976 
3 *315:6 *315:21 0.52 
4 *315:21 *1432:I 10.56 
5 *315:21 *315:32 4.888 
6 *315:32 *1390:I 9 
7 *315:32 *315:43 10.22 
8 *315:43 *315:45 1.976 
9 *315:45 *1408:I 7.828 
10 *315:45 *1406:I 4.5 
11 *315:43 *315:61 2.184 
12 *315:61 *315:65 5.2 
13 *315:65 *315:69 6.268 
14 *315:69 *315:71 3.432 
15 *315:71 *1437:I 13.888 
16 *315:71 *1193:I 21.896 
17 *315:69 *1379:I 9 
18 *315:65 *1381:I 4.5 
19 *315:61 *1407:I 7.62 
*END

*D_NET *316 0.0209437
*CONN
*I *1440:I I *D gf180mcu_fd_sc_mcu7t5v0__clkinv_1
*I *1380:I I *D gf180mcu_fd_sc_mcu7t5v0__clkinv_1
*I *1388:I I *D gf180mcu_fd_sc_mcu7t5v0__clkinv_1
*I *1378:I I *D gf180mcu_fd_sc_mcu7t5v0__clkinv_1
*I *1434:I I *D gf180mcu_fd_sc_mcu7t5v0__clkinv_1
*I *1435:I I *D gf180mcu_fd_sc_mcu7t5v0__clkinv_1
*I *1436:I I *D gf180mcu_fd_sc_mcu7t5v0__clkinv_1
*I *1529:Z O *D gf180mcu_fd_sc_mcu7t5v0__dlyb_1
*CAP
1 *1440:I 0.000379642
2 *1380:I 0.000187667
3 *1388:I 0.000958638
4 *1378:I 0
5 *1434:I 0.000343338
6 *1435:I 0
7 *1436:I 0.000152155
8 *1529:Z 0
9 *316:73 0.000810591
10 *316:62 0.00140657
11 *316:51 0.000725007
12 *316:27 0.00103505
13 *316:10 0.0011465
14 *316:6 0.000822984
15 *1380:I *1202:A2 2.21714e-05
16 *1380:I *372:36 0.000202464
17 *1388:I *1336:A1 0.000488468
18 *1388:I *372:10 2.79876e-05
19 *1434:I *1544:I 5.63044e-06
20 *1434:I *344:25 5.89368e-05
21 *1436:I *1251:A3 0.00115052
22 *1440:I *1202:A1 0.000380013
23 *1440:I *325:27 0.000569981
24 *1440:I *372:36 0
25 *316:10 *346:14 5.55221e-05
26 *316:27 *1251:A3 6.41959e-05
27 *316:27 *344:25 0.000482506
28 *316:51 *325:55 1.12327e-05
29 *316:62 *1336:A1 1.49202e-05
30 *316:62 *325:29 0.000283521
31 *316:62 *325:31 0.00019118
32 *316:62 *325:55 0.0002623
33 *316:73 *1336:A1 8.61067e-05
34 *316:73 *325:27 0.00108643
35 *316:73 *325:29 0.00132754
36 *316:73 *372:23 5.6943e-05
37 *316:73 *372:36 0.000218434
38 *1193:I *1388:I 0
39 *1193:I *316:51 0.000146725
40 *1193:I *316:62 0.000169464
41 *1229:A1 *1388:I 0
42 *1337:A4 *1388:I 0
43 *1480:D *1388:I 2.08074e-05
44 *1481:RN *316:27 0.000724917
45 *1482:RN *1436:I 0.00122181
46 *1482:RN *316:27 0.000582267
47 *1483:RN *1436:I 0
48 *1487:RN *1388:I 0.000736031
49 *1488:RN *316:51 8.02494e-05
50 *1498:RN *1388:I 0.000265501
51 *1498:CLK *1434:I 0
52 *1539:I *1434:I 2.36218e-05
53 *1539:I *316:27 5.10257e-05
54 *27:10 *1388:I 5.47431e-06
55 *201:14 *1388:I 0
56 *259:10 *1388:I 7.9929e-05
57 *259:10 *316:62 2.25858e-05
58 *298:55 *1436:I 2.55248e-05
59 *302:16 *316:51 0.000772897
60 *302:43 *316:51 0.000103788
61 *303:18 *1434:I 0
62 *303:18 *316:10 0.000253855
63 *303:18 *316:27 4.7773e-05
64 *303:18 *316:51 0.000594278
*RES
1 *1529:Z *316:6 9 
2 *316:6 *316:10 6.268 
3 *316:10 *1436:I 8.556 
4 *316:10 *316:27 8.008 
5 *316:27 *1435:I 4.5 
6 *316:27 *1434:I 7.1 
7 *316:6 *316:51 10.012 
8 *316:51 *1378:I 4.5 
9 *316:51 *316:62 7.62 
10 *316:62 *1388:I 17.424 
11 *316:62 *316:73 6.136 
12 *316:73 *1380:I 10.56 
13 *316:73 *1440:I 13.16 
*END

*D_NET *317 0.0337437
*CONN
*I *1399:I I *D gf180mcu_fd_sc_mcu7t5v0__clkinv_1
*I *1401:I I *D gf180mcu_fd_sc_mcu7t5v0__clkinv_1
*I *1400:I I *D gf180mcu_fd_sc_mcu7t5v0__clkinv_1
*I *1389:I I *D gf180mcu_fd_sc_mcu7t5v0__clkinv_1
*I *1418:I I *D gf180mcu_fd_sc_mcu7t5v0__clkinv_1
*I *1410:I I *D gf180mcu_fd_sc_mcu7t5v0__clkinv_1
*I *1415:I I *D gf180mcu_fd_sc_mcu7t5v0__clkinv_1
*I *1409:I I *D gf180mcu_fd_sc_mcu7t5v0__clkinv_1
*I *1417:I I *D gf180mcu_fd_sc_mcu7t5v0__clkinv_1
*I *1429:I I *D gf180mcu_fd_sc_mcu7t5v0__clkinv_1
*I *1530:Z O *D gf180mcu_fd_sc_mcu7t5v0__dlyb_1
*CAP
1 *1399:I 0.000506144
2 *1401:I 0.000623847
3 *1400:I 8.51084e-05
4 *1389:I 0.00152627
5 *1418:I 3.42777e-05
6 *1410:I 0.000392167
7 *1415:I 0
8 *1409:I 0.000936886
9 *1417:I 5.00143e-05
10 *1429:I 0.000541567
11 *1530:Z 0
12 *317:98 0.00188447
13 *317:96 0.00164055
14 *317:90 0.00200608
15 *317:66 0.00171867
16 *317:53 0.000646429
17 *317:40 0.00115201
18 *317:27 0.000523847
19 *317:4 0.000910791
20 *1389:I *1190:I 0.000283446
21 *1389:I *1228:A3 2.47495e-05
22 *1389:I *370:8 0.000345096
23 *1389:I *370:12 8.80767e-05
24 *1399:I *383:8 3.84797e-05
25 *1399:I *385:45 0.000161509
26 *1399:I *386:10 0.000161509
27 *1401:I *1373:A1 0
28 *1401:I *385:8 0
29 *1401:I *385:27 2.24654e-05
30 *1409:I *1296:A1 0
31 *1409:I *334:8 0.000131391
32 *1410:I *1530:I 4.21456e-05
33 *1410:I *318:56 0
34 *1429:I *1167:I 0
35 *1429:I *1321:A1 0
36 *317:27 *1530:I 0.000560736
37 *317:40 *1530:I 0.00057304
38 *317:53 *1530:I 0.000525443
39 *317:66 *1530:I 0.00235675
40 *317:90 *1530:I 9.96253e-05
41 *317:90 *383:8 3.37878e-06
42 *317:90 *383:14 2.15819e-05
43 *317:96 *1366:A1 0.000337769
44 *317:96 *1369:A1 3.04322e-05
45 *317:96 *326:80 0.000113963
46 *317:96 *326:95 1.32185e-05
47 *317:96 *384:8 0.00198206
48 *317:96 *384:14 0.000118517
49 *317:96 *384:49 0.000616896
50 *317:96 *385:27 5.79939e-05
51 *317:98 *1370:A1 0.000194973
52 *317:98 *1373:A1 0
53 *1264:A3 *1429:I 0.000105621
54 *1294:A2 *317:66 0.0012145
55 *1297:A1 *1409:I 0
56 *1297:A1 *1417:I 0.000188241
57 *1297:A1 *317:27 3.45588e-05
58 *1297:B *1409:I 0
59 *1299:A2 *1429:I 0
60 *1301:A1 *1409:I 0
61 *1367:A2 *317:90 0.000689365
62 *1368:A2 *1418:I 3.30734e-06
63 *1368:A2 *317:90 3.4596e-05
64 *1373:A2 *317:96 0.000366003
65 *1375:A2 *1399:I 0
66 *1445:RN *1399:I 0
67 *1445:CLK *317:66 9.56679e-05
68 *1445:CLK *317:90 4.62012e-05
69 *1446:RN *317:96 3.18309e-05
70 *1446:RN *317:98 0.000833024
71 *1447:RN *1401:I 0.000582256
72 *1461:RN *317:66 0.000265501
73 *1463:D *1409:I 0.000108047
74 *1464:SETN *317:66 2.00197e-05
75 *1499:RN *1389:I 9.7618e-05
76 *1505:I *1429:I 0.000165807
77 *1505:I *317:27 0
78 *141:8 *1429:I 0.000353525
79 *199:76 *317:66 2.87226e-05
80 *199:76 *317:90 5.37778e-05
81 *201:8 *1389:I 0.000928195
82 *283:35 *317:96 1.40331e-05
83 *285:27 *317:96 0.00220066
84 *300:31 *1389:I 0
85 *306:119 *1429:I 0.000880629
86 *306:119 *317:40 6.43437e-05
87 *306:119 *317:53 6.43437e-05
88 *306:119 *317:66 0.000110947
89 *307:26 *317:27 7.79714e-05
90 *307:32 *1409:I 0
91 *307:32 *317:27 0
*RES
1 *1530:Z *317:4 4.5 
2 *317:4 *1429:I 19.22 
3 *317:4 *317:27 12.328 
4 *317:27 *1417:I 14.02 
5 *317:27 *317:40 1.56 
6 *317:40 *1409:I 20.468 
7 *317:40 *317:53 1.56 
8 *317:53 *1415:I 4.5 
9 *317:53 *317:66 9.568 
10 *317:66 *1410:I 16.516 
11 *317:66 *1418:I 4.812 
12 *317:66 *317:90 10.324 
13 *317:90 *317:96 21.792 
14 *317:96 *317:98 3.432 
15 *317:98 *1389:I 22.52 
16 *317:98 *1400:I 9.52 
17 *317:96 *1401:I 14.408 
18 *317:90 *1399:I 13.68 
*END

*D_NET *318 0.035098
*CONN
*I *1438:I I *D gf180mcu_fd_sc_mcu7t5v0__clkinv_1
*I *1402:I I *D gf180mcu_fd_sc_mcu7t5v0__clkinv_1
*I *1439:I I *D gf180mcu_fd_sc_mcu7t5v0__clkinv_1
*I *1404:I I *D gf180mcu_fd_sc_mcu7t5v0__clkinv_1
*I *1530:I I *D gf180mcu_fd_sc_mcu7t5v0__dlyb_1
*I *1529:I I *D gf180mcu_fd_sc_mcu7t5v0__dlyb_1
*I *1528:I I *D gf180mcu_fd_sc_mcu7t5v0__dlyb_1
*I *1531:Z O *D gf180mcu_fd_sc_mcu7t5v0__dlyb_1
*CAP
1 *1438:I 0
2 *1402:I 0.00114062
3 *1439:I 0.000959573
4 *1404:I 0
5 *1530:I 0.00137031
6 *1529:I 0.000769023
7 *1528:I 0.000332036
8 *1531:Z 0
9 *318:94 0.00246786
10 *318:87 0.00049356
11 *318:56 0.00382169
12 *318:31 0.00451579
13 *318:4 0.00175331
14 *1402:I *1368:A1 9.3909e-05
15 *1402:I *1375:A1 3.60231e-05
16 *1402:I *325:23 0
17 *1402:I *326:95 0
18 *1402:I *386:10 3.67027e-05
19 *1439:I *1371:A1 0.00140463
20 *1528:I *360:8 0.000150317
21 *1529:I *1251:A1 3.42651e-05
22 *1529:I *1251:A2 2.82894e-06
23 *1529:I *1251:A3 0.000692218
24 *1529:I *346:14 2.94292e-05
25 *1530:I *1171:I 0
26 *1530:I *1224:A4 0
27 *1530:I *329:12 2.69756e-05
28 *1530:I *341:25 2.93608e-05
29 *318:31 *1333:A2 1.64229e-05
30 *318:31 *347:10 0.00010374
31 *318:31 *360:8 3.46633e-05
32 *318:56 *1194:A2 0.000365312
33 *318:56 *1330:A1 5.35037e-05
34 *318:56 *329:12 0.00101495
35 *318:56 *373:36 1.27019e-05
36 *318:56 *374:44 0.000210877
37 *318:56 *375:10 0.000189451
38 *318:94 *1368:A1 0
39 *318:94 *329:12 4.83913e-05
40 *1203:B2 *318:56 0.000113907
41 *1205:C2 *318:56 8.0566e-05
42 *1206:A2 *318:56 0.000713311
43 *1206:A4 *318:56 0.000154861
44 *1322:B *318:56 0.00043505
45 *1325:A2 *318:31 3.07284e-05
46 *1332:A2 *318:31 0
47 *1333:A1 *318:31 7.86377e-05
48 *1333:A3 *318:31 4.49574e-05
49 *1339:A2 *1528:I 0
50 *1339:A2 *318:31 0
51 *1368:A3 *1402:I 6.33639e-05
52 *1371:A3 *1439:I 1.15684e-05
53 *1372:A3 *1402:I 1.77267e-05
54 *1375:A2 *1402:I 0.000198689
55 *1410:I *1530:I 4.21456e-05
56 *1410:I *318:56 0
57 *1445:D *1530:I 7.93961e-05
58 *1445:CLK *1530:I 5.52791e-05
59 *1445:CLK *318:87 4.54748e-05
60 *1445:CLK *318:94 2.38773e-05
61 *1446:D *1439:I 7.25256e-05
62 *1446:CLK *1439:I 0.000509988
63 *1448:RN *1402:I 0.000265501
64 *1450:RN *318:94 0.000265501
65 *1461:RN *1530:I 0.000265501
66 *1463:RN *1530:I 0.000100568
67 *1464:SETN *1530:I 0.000848515
68 *1484:RN *1439:I 0.000148768
69 *1485:RN *1439:I 0.000571709
70 *1489:D *318:31 0.000396148
71 *1489:CLK *318:31 0.000113512
72 *1500:CLK *1528:I 0.0010392
73 *1513:I *318:56 0
74 *1517:I *1529:I 0.000203739
75 *199:76 *1530:I 0.00062651
76 *285:23 *1402:I 1.87342e-05
77 *292:72 *318:56 0.000370077
78 *298:8 *1529:I 1.55001e-05
79 *298:8 *318:56 5.47866e-05
80 *298:10 *1529:I 2.42726e-05
81 *298:55 *318:31 1.92209e-05
82 *303:18 *1529:I 0
83 *303:27 *318:31 6.84289e-06
84 *303:40 *318:56 0.00062279
85 *307:26 *1530:I 2.25385e-05
86 *317:27 *1530:I 0.000560736
87 *317:40 *1530:I 0.00057304
88 *317:53 *1530:I 0.000525443
89 *317:66 *1530:I 0.00235675
90 *317:90 *1530:I 9.96253e-05
*RES
1 *1531:Z *318:4 4.5 
2 *318:4 *1528:I 8.348 
3 *318:4 *318:31 15.628 
4 *318:31 *1529:I 14.304 
5 *318:31 *318:56 28.108 
6 *318:56 *1530:I 41.012 
7 *318:56 *318:87 0.728 
8 *318:87 *1404:I 4.5 
9 *318:87 *318:94 3.016 
10 *318:94 *1439:I 14.692 
11 *318:94 *1402:I 23.068 
12 *318:94 *1438:I 4.5 
*END

*D_NET *319 0.0360538
*CONN
*I *1527:I I *D gf180mcu_fd_sc_mcu7t5v0__dlyb_1
*I *1526:I I *D gf180mcu_fd_sc_mcu7t5v0__dlyb_1
*I *1524:I I *D gf180mcu_fd_sc_mcu7t5v0__dlyb_1
*I *1531:I I *D gf180mcu_fd_sc_mcu7t5v0__dlyb_1
*I *1525:I I *D gf180mcu_fd_sc_mcu7t5v0__dlyb_1
*I *1532:Z O *D gf180mcu_fd_sc_mcu7t5v0__dlyb_1
*CAP
1 *1527:I 0.001504
2 *1526:I 0
3 *1524:I 0
4 *1531:I 0.00103383
5 *1525:I 0
6 *1532:Z 0.00197536
7 *319:62 0.00332258
8 *319:30 0.00270573
9 *319:6 0.00182868
10 *1531:I *358:43 0.000834041
11 *319:30 *1338:A1 2.16279e-05
12 *319:30 *327:16 0
13 *319:30 *358:12 0.000745673
14 *319:30 *358:43 0.000125251
15 *319:30 *366:35 0
16 *319:62 *1291:I1 0.000326106
17 *319:62 *1292:I1 0.000265815
18 *319:62 *357:10 2.19312e-06
19 *319:62 *367:8 0
20 *319:62 *367:23 0
21 *1237:A2 *319:30 0.00057304
22 *1250:A1 *1531:I 5.10571e-06
23 *1264:A3 *1527:I 8.21146e-06
24 *1266:A2 *319:30 1.36398e-06
25 *1267:B *319:30 0
26 *1270:A2 *319:30 0.00225757
27 *1275:A1 *319:62 0.00049928
28 *1290:S *1527:I 7.90369e-05
29 *1290:S *319:62 3.65102e-05
30 *1291:S *319:62 0
31 *1338:A2 *319:30 0.000715196
32 *1339:A1 *1531:I 0.00273295
33 *1339:A1 *319:30 0.000375452
34 *1339:A2 *1531:I 0.000818923
35 *1341:A1 *319:30 1.75593e-05
36 *1394:I *319:30 0.000395678
37 *1420:I *319:62 0.000937013
38 *1426:I *1527:I 0.000218634
39 *1465:D *319:62 0.000607359
40 *1465:CLK *319:62 1.17491e-05
41 *1466:D *319:62 0.000189298
42 *1467:D *1527:I 0.000111041
43 *1467:D *319:62 0.000158617
44 *1467:CLK *1527:I 0
45 *1477:CLK *319:62 6.40609e-05
46 *1479:RN *319:30 0.000192209
47 *1493:RN *319:6 0.000569953
48 *1493:RN *319:30 0
49 *1493:RN *319:62 0.000122244
50 *1497:D *319:30 0.000228967
51 *1503:SETN *1531:I 0.000137474
52 *1508:I *1527:I 6.22087e-05
53 *1509:I *1527:I 0.000725404
54 *1522:I *1527:I 0.00445982
55 *139:10 *319:62 0.000228771
56 *206:6 *319:30 0.000155943
57 *207:10 *319:30 0.000529502
58 *211:10 *319:30 0
59 *217:12 *319:30 0.000260982
60 *218:12 *1531:I 1.32276e-05
61 *218:33 *1531:I 2.83747e-05
62 *220:10 *1531:I 0.000133399
63 *244:12 *1527:I 0.000753787
64 *268:14 *319:30 2.34604e-05
65 *269:32 *319:30 0.000168848
66 *269:34 *319:30 0
67 *293:24 *319:62 0.00024196
68 *293:26 *319:62 1.38484e-05
69 *293:30 *319:30 0.000803657
70 *293:30 *319:62 3.74436e-06
71 *310:10 *319:6 0
72 *310:32 *319:6 0
73 *310:32 *319:30 0.000402872
74 *310:36 *319:30 2.13246e-06
75 *310:53 *319:62 3.71367e-05
76 *310:66 *319:62 0.000249316
*RES
1 *1532:Z *319:6 6.06 
2 *319:6 *319:30 31.464 
3 *319:30 *1525:I 4.5 
4 *319:30 *1531:I 19.164 
5 *319:6 *1524:I 4.5 
6 *1532:Z *319:62 34.82 
7 *319:62 *1526:I 4.5 
8 *319:62 *1527:I 24.26 
*END

*D_NET *320 0.00116739
*CONN
*I *1504:D I *D gf180mcu_fd_sc_mcu7t5v0__dffsnq_1
*I *1537:Z O *D gf180mcu_fd_sc_mcu7t5v0__dlyb_1
*CAP
1 *1504:D 0.000279779
2 *1537:Z 0.000279779
3 *1504:D *1184:I 2.71502e-05
4 *1272:A2 *1504:D 7.992e-05
5 *211:16 *1504:D 0.000500761
*RES
1 *1537:Z *1504:D 20.704 
*END

*D_NET *321 0.00242803
*CONN
*I *1292:I1 I *D gf180mcu_fd_sc_mcu7t5v0__mux2_2
*I *1541:I I *D gf180mcu_fd_sc_mcu7t5v0__dlyb_1
*I *1465:Q O *D gf180mcu_fd_sc_mcu7t5v0__dffrnq_1
*CAP
1 *1292:I1 0.000406694
2 *1541:I 0.000480184
3 *1465:Q 0
4 *321:4 0.000886878
5 *1292:I1 *1292:I0 1.91879e-05
6 cap_ctrl[0] *1541:I 0.000231111
7 *1275:A2 *1541:I 0
8 *1292:S *1292:I1 3.4596e-05
9 *1419:I *1292:I1 7.93118e-05
10 *1419:I *1541:I 1.35124e-05
11 *1477:D *1292:I1 0
12 *1477:CLK *1292:I1 1.07369e-05
13 *319:62 *1292:I1 0.000265815
*RES
1 *1465:Q *321:4 4.5 
2 *321:4 *1541:I 8.452 
3 *321:4 *1292:I1 17.244 
*END

*D_NET *322 0.00292561
*CONN
*I *1291:I1 I *D gf180mcu_fd_sc_mcu7t5v0__mux2_2
*I *1542:I I *D gf180mcu_fd_sc_mcu7t5v0__dlyb_1
*I *1466:Q O *D gf180mcu_fd_sc_mcu7t5v0__dffrnq_1
*CAP
1 *1291:I1 0.000536212
2 *1542:I 0.000295211
3 *1466:Q 0
4 *322:4 0.000831423
5 *1291:I1 *1290:I1 0
6 *1291:I1 *1306:A1 5.31759e-05
7 *1291:I1 *349:33 0
8 cap_ctrl[1] *1542:I 0
9 *1290:S *1291:I1 0.000769969
10 *1291:S *1291:I1 4.41041e-05
11 *1420:I *1291:I1 6.35991e-05
12 *1466:RN *1291:I1 0
13 *1466:RN *1542:I 0
14 *1467:D *1291:I1 5.81071e-06
15 *319:62 *1291:I1 0.000326106
*RES
1 *1466:Q *322:4 4.5 
2 *322:4 *1542:I 6.684 
3 *322:4 *1291:I1 19.324 
*END

*D_NET *323 0.00787699
*CONN
*I *1543:I I *D gf180mcu_fd_sc_mcu7t5v0__dlyb_1
*I *1290:I1 I *D gf180mcu_fd_sc_mcu7t5v0__mux2_2
*I *1467:Q O *D gf180mcu_fd_sc_mcu7t5v0__dffrnq_1
*CAP
1 *1543:I 0.000867143
2 *1290:I1 0.000840513
3 *1467:Q 0
4 *323:6 0.00170766
5 *1290:I1 *1306:A1 0
6 *1290:I1 *350:8 0.000184089
7 *1290:I1 *350:10 0.000163265
8 *1290:I1 *350:14 0.000160438
9 *1543:I *1174:I 3.646e-05
10 *1543:I *1175:I 0.00070994
11 *1543:I *338:10 0.000158198
12 *1290:S *1290:I1 0
13 *1291:I1 *1290:I1 0
14 *1307:A1 *1543:I 0.000798115
15 *1421:I *1290:I1 0.000959067
16 *1458:RN *1543:I 1.23748e-05
17 *1459:D *1290:I1 0.000116476
18 *1459:D *1543:I 0.000552334
19 *1459:RN *1543:I 0.000100568
20 *1470:RN *1290:I1 0
21 *149:8 *1543:I 0.000134086
22 *244:12 *1290:I1 0.000125283
23 *313:40 *1290:I1 7.18709e-05
24 *313:48 *1290:I1 5.11472e-05
25 *313:103 *1290:I1 0.000102404
26 *313:103 *1543:I 2.55592e-05
*RES
1 *1467:Q *323:6 9 
2 *323:6 *1290:I1 26.216 
3 *323:6 *1543:I 19.4 
*END

*D_NET *324 0.00270693
*CONN
*I *1544:I I *D gf180mcu_fd_sc_mcu7t5v0__dlyb_1
*I *1377:Z O *D gf180mcu_fd_sc_mcu7t5v0__mux2_2
*CAP
1 *1544:I 0.0012131
2 *1377:Z 0.0012131
3 *1544:I *1261:A1 9.96173e-06
4 *1544:I *344:12 5.86924e-05
5 *1544:I *344:25 0.000184188
6 *1544:I *345:10 0
7 *1262:A1 *1544:I 0
8 *1262:A2 *1544:I 2.73715e-06
9 *1434:I *1544:I 5.63044e-06
10 *1480:D *1544:I 0
11 *1481:RN *1544:I 1.95214e-05
12 *1539:I *1544:I 0
*RES
1 *1377:Z *1544:I 25.592 
*END

*D_NET *325 0.0260193
*CONN
*I *1371:A1 I *D gf180mcu_fd_sc_mcu7t5v0__nor3_1
*I *1233:A2 I *D gf180mcu_fd_sc_mcu7t5v0__nor3_1
*I *1235:A2 I *D gf180mcu_fd_sc_mcu7t5v0__nor3_1
*I *1231:A2 I *D gf180mcu_fd_sc_mcu7t5v0__nor4_1
*I *1331:A2 I *D gf180mcu_fd_sc_mcu7t5v0__nor3_1
*I *1329:A2 I *D gf180mcu_fd_sc_mcu7t5v0__nor3_1
*I *1333:A2 I *D gf180mcu_fd_sc_mcu7t5v0__nor3_1
*I *1337:A2 I *D gf180mcu_fd_sc_mcu7t5v0__nor4_1
*I *1335:A2 I *D gf180mcu_fd_sc_mcu7t5v0__nor3_1
*I *1368:A1 I *D gf180mcu_fd_sc_mcu7t5v0__nor4_1
*I *1533:Z O *D gf180mcu_fd_sc_mcu7t5v0__dlyb_1
*CAP
1 *1371:A1 0.000158455
2 *1233:A2 8.98803e-05
3 *1235:A2 0.000236585
4 *1231:A2 0.000344108
5 *1331:A2 0
6 *1329:A2 0
7 *1333:A2 0.000744313
8 *1337:A2 0.000110803
9 *1335:A2 0.00030233
10 *1368:A1 0.000381101
11 *1533:Z 0
12 *325:97 0.000326465
13 *325:61 0.00136347
14 *325:55 0.000815012
15 *325:31 0.000688993
16 *325:29 0.000715782
17 *325:27 0.0013396
18 *325:25 0.00124081
19 *325:23 0.00136271
20 *325:4 0.00109597
21 *1231:A2 *372:10 0
22 *1235:A2 *370:16 0
23 *1333:A2 *1332:A1 0.000278823
24 *1368:A1 *329:12 0.000193782
25 *325:23 *326:95 1.78817e-06
26 *325:55 *1330:A1 0
27 *325:61 *1198:A2 0
28 *325:61 *1330:A1 0
29 *325:61 *373:12 0
30 *1193:I *1333:A2 2.66619e-05
31 *1193:I *1337:A2 4.79893e-05
32 *1231:A1 *1231:A2 0.000422972
33 *1231:A1 *325:27 0.000100342
34 *1233:A1 *1233:A2 0.000108139
35 *1233:A1 *1235:A2 4.76231e-05
36 *1235:A1 *1235:A2 0.000282191
37 *1235:A1 *325:27 5.68596e-05
38 *1235:A3 *1235:A2 1.19663e-05
39 *1324:A2 *1231:A2 0
40 *1324:A3 *1231:A2 1.0603e-05
41 *1327:A4 *325:61 2.696e-05
42 *1331:A3 *325:55 0.00033778
43 *1331:A3 *325:61 3.4596e-05
44 *1332:A2 *1333:A2 2.38656e-05
45 *1333:A1 *1333:A2 1.78512e-05
46 *1333:A1 *325:61 1.07369e-05
47 *1333:A3 *1333:A2 0.000842008
48 *1368:A2 *1368:A1 1.07369e-05
49 *1368:A3 *1368:A1 0.000378903
50 *1402:I *1368:A1 9.3909e-05
51 *1402:I *325:23 0
52 *1439:I *1371:A1 0.00140463
53 *1440:I *325:27 0.000569981
54 *1445:D *1368:A1 0.000419276
55 *1445:CLK *1368:A1 6.95257e-05
56 *1446:D *1371:A1 0.000114701
57 *1448:D *325:23 0.000203364
58 *1448:CLK *325:23 9.56679e-05
59 *1484:D *1233:A2 0.000242039
60 *1484:D *1235:A2 0.000304719
61 *1484:RN *1371:A1 0.000970012
62 *1488:D *1335:A2 3.93698e-05
63 *1488:RN *325:55 0.000221689
64 *1488:RN *325:61 0.00058647
65 *1490:D *325:61 0.000203739
66 *1490:CLK *325:61 0.000182747
67 *1491:D *1333:A2 0
68 *1491:CLK *1333:A2 6.18411e-06
69 *1519:I *325:27 0.000519391
70 *1539:I *1335:A2 0
71 *1539:I *325:31 0
72 *179:18 *325:27 0.000145803
73 *179:38 *325:27 0.000278822
74 *199:53 *1368:A1 1.41642e-05
75 *199:53 *325:23 0
76 *259:10 *325:31 0
77 *298:64 *1335:A2 0
78 *300:8 *325:25 0.000355286
79 *300:8 *325:27 0.000480569
80 *302:16 *1335:A2 1.71326e-05
81 *302:23 *1335:A2 0.000210903
82 *302:23 *1337:A2 0.000159517
83 *302:43 *325:61 0.000341517
84 *316:51 *325:55 1.12327e-05
85 *316:62 *325:29 0.000283521
86 *316:62 *325:31 0.00019118
87 *316:62 *325:55 0.0002623
88 *316:73 *325:27 0.00108643
89 *316:73 *325:29 0.00132754
90 *318:31 *1333:A2 1.64229e-05
91 *318:94 *1368:A1 0
*RES
1 *1533:Z *325:4 4.5 
2 *325:4 *1368:A1 18.284 
3 *325:4 *325:23 10.324 
4 *325:23 *325:25 4.472 
5 *325:25 *325:27 10.296 
6 *325:27 *325:29 4.056 
7 *325:29 *325:31 2.184 
8 *325:31 *1335:A2 11.496 
9 *325:31 *1337:A2 10.144 
10 *325:29 *325:55 7.1 
11 *325:55 *325:61 6.344 
12 *325:61 *1333:A2 20.26 
13 *325:61 *1329:A2 4.5 
14 *325:55 *1331:A2 4.5 
15 *325:27 *1231:A2 12.016 
16 *325:25 *325:97 4.5 
17 *325:97 *1235:A2 6.892 
18 *325:97 *1233:A2 5.644 
19 *325:23 *1371:A1 13.056 
*END

*D_NET *326 0.0232587
*CONN
*I *1376:A1 I *D gf180mcu_fd_sc_mcu7t5v0__nor3_1
*I *1374:A1 I *D gf180mcu_fd_sc_mcu7t5v0__nor3_1
*I *1533:I I *D gf180mcu_fd_sc_mcu7t5v0__dlyb_1
*I *1365:A1 I *D gf180mcu_fd_sc_mcu7t5v0__nor4_1
*I *1362:A1 I *D gf180mcu_fd_sc_mcu7t5v0__nor3_1
*I *1358:A1 I *D gf180mcu_fd_sc_mcu7t5v0__nor3_1
*I *1355:A2 I *D gf180mcu_fd_sc_mcu7t5v0__nor3_1
*I *1534:Z O *D gf180mcu_fd_sc_mcu7t5v0__dlyb_1
*CAP
1 *1376:A1 0
2 *1374:A1 0.000257374
3 *1533:I 0
4 *1365:A1 0
5 *1362:A1 0
6 *1358:A1 0
7 *1355:A2 0.000144834
8 *1534:Z 0
9 *326:95 0.000844951
10 *326:80 0.00104349
11 *326:76 0.00174514
12 *326:22 0.000871197
13 *326:14 0.00124762
14 *326:12 0.000803538
15 *326:4 0.00157151
16 *1355:A2 *1355:A1 0.000602924
17 *326:14 *341:10 0.000119121
18 *326:14 *341:25 2.25463e-05
19 *326:80 *1366:A1 7.16355e-05
20 *326:80 *383:14 0
21 *326:80 *383:20 0
22 *1219:A2 *326:76 0.000245799
23 *1220:A2 *326:12 3.92053e-05
24 *1220:A2 *326:76 8.02961e-05
25 *1225:A1 *326:76 0.000197253
26 *1225:A2 *326:76 0.00142862
27 *1355:A3 *1355:A2 0.00076114
28 *1365:A3 *326:12 3.23905e-05
29 *1370:A2 *1374:A1 6.8199e-07
30 *1376:A3 *326:95 2.57828e-05
31 *1398:I *326:12 0.000277589
32 *1402:I *326:95 0
33 *1442:D *1355:A2 0.000948481
34 *1444:D *326:14 7.992e-05
35 *1444:CLK *326:14 0
36 *1447:CLK *1374:A1 0
37 *1447:CLK *326:95 0
38 *1448:CLK *326:95 0
39 *1505:I *326:12 3.7763e-05
40 *1522:I *1355:A2 0
41 *1522:I *326:22 0
42 *1534:I *326:76 0.000122244
43 *144:25 *326:76 6.49085e-06
44 *199:47 *1374:A1 0.00101075
45 *199:47 *326:95 3.28669e-05
46 *199:53 *326:95 0.000139424
47 *199:78 *326:12 2.39523e-06
48 *199:78 *326:14 0.00082216
49 *199:86 *326:14 1.07369e-05
50 *199:86 *326:22 0
51 *283:12 *326:12 1.94951e-05
52 *283:35 *326:12 0.000113027
53 *283:35 *326:76 0.00308209
54 *283:35 *326:80 0.00120218
55 *285:10 *326:80 0.000885441
56 *285:10 *326:95 7.22679e-05
57 *285:27 *326:95 0.000253744
58 *296:19 *1355:A2 0
59 *296:51 *326:14 0
60 *306:119 *1355:A2 0.00110841
61 *306:119 *326:22 0.000745248
62 *314:6 *1355:A2 0
63 *317:96 *326:80 0.000113963
64 *317:96 *326:95 1.32185e-05
65 *325:23 *326:95 1.78817e-06
*RES
1 *1534:Z *326:4 4.5 
2 *326:4 *326:12 11.912 
3 *326:12 *326:14 5.72 
4 *326:14 *326:22 15.24 
5 *326:22 *1355:A2 18.492 
6 *326:22 *1358:A1 4.5 
7 *326:14 *1362:A1 4.5 
8 *326:12 *1365:A1 4.5 
9 *326:4 *326:76 46.06 
10 *326:76 *326:80 10.428 
11 *326:80 *1533:I 4.5 
12 *326:80 *326:95 14.2 
13 *326:95 *1374:A1 7.516 
14 *326:95 *1376:A1 4.5 
*END

*D_NET *327 0.00959304
*CONN
*I *1237:A1 I *D gf180mcu_fd_sc_mcu7t5v0__nor3_1
*I *1238:A1 I *D gf180mcu_fd_sc_mcu7t5v0__or3_1
*I *1338:A1 I *D gf180mcu_fd_sc_mcu7t5v0__nand2_1
*I *1271:C I *D gf180mcu_fd_sc_mcu7t5v0__aoi211_1
*I *1267:A1 I *D gf180mcu_fd_sc_mcu7t5v0__aoi21_1
*I *1266:C I *D gf180mcu_fd_sc_mcu7t5v0__aoi211_1
*I *1479:Q O *D gf180mcu_fd_sc_mcu7t5v0__dffrnq_1
*CAP
1 *1237:A1 0.00017256
2 *1238:A1 0.000107329
3 *1338:A1 8.47642e-05
4 *1271:C 0.000993504
5 *1267:A1 0
6 *1266:C 0
7 *1479:Q 0.000453862
8 *327:67 0.00110128
9 *327:29 0.000524175
10 *327:16 0.000848658
11 *327:10 0.00103522
12 *1237:A1 *1238:A3 4.33994e-05
13 *1237:A1 *358:23 4.7605e-05
14 *1271:C *1271:A1 0.000122244
15 *327:67 *1238:A3 4.90573e-05
16 *1266:A1 *327:10 6.29522e-05
17 *1266:A1 *327:16 0.000138355
18 *1266:A2 *1271:C 2.2517e-05
19 *1266:A2 *327:29 5.47431e-06
20 *1267:A2 *1271:C 0.000378517
21 *1267:A2 *327:29 4.07478e-05
22 *1267:B *327:16 6.85302e-05
23 *1267:B *327:29 0.000848258
24 *1270:A1 *327:16 0
25 *1270:A1 *327:29 0.000263356
26 *1270:A2 *327:16 2.87314e-05
27 *1272:A2 *1238:A1 0.000160193
28 *1272:A2 *1271:C 0
29 *1272:A2 *327:67 0.000125188
30 *1341:B1 *327:10 0
31 *1342:A2 *327:10 0
32 *1350:A1 *327:67 7.60693e-05
33 *1350:A2 *1237:A1 0.000397036
34 *1350:A2 *327:67 0.000125283
35 *1352:A1 *327:67 0.000203364
36 *1479:D *327:16 8.24169e-06
37 *1493:D *1271:C 5.11148e-05
38 *1493:D *327:29 3.3698e-05
39 *1493:D *327:67 0.000369476
40 *1493:CLK *327:16 0
41 *211:16 *1238:A1 4.84332e-05
42 *231:14 *1237:A1 0.000510584
43 *268:14 *1338:A1 2.16279e-05
44 *310:36 *327:10 0
45 *319:30 *1338:A1 2.16279e-05
46 *319:30 *327:16 0
*RES
1 *1479:Q *327:10 11.496 
2 *327:10 *327:16 8.244 
3 *327:16 *1266:C 4.5 
4 *327:16 *327:29 4.16 
5 *327:29 *1267:A1 4.5 
6 *327:29 *1271:C 6.58 
7 *327:10 *1338:A1 9.52 
8 *1271:C *327:67 16.072 
9 *327:67 *1238:A1 9.936 
10 *327:67 *1237:A1 11.392 
*END

*D_NET *328 0.0149794
*CONN
*I *1203:A2 I *D gf180mcu_fd_sc_mcu7t5v0__aoi221_1
*I *1200:B1 I *D gf180mcu_fd_sc_mcu7t5v0__oai221_1
*I *1194:A3 I *D gf180mcu_fd_sc_mcu7t5v0__nor3_1
*I *1323:I0 I *D gf180mcu_fd_sc_mcu7t5v0__mux2_2
*I *1449:Q O *D gf180mcu_fd_sc_mcu7t5v0__dffsnq_1
*CAP
1 *1203:A2 0.000335288
2 *1200:B1 0
3 *1194:A3 0
4 *1323:I0 0.000356394
5 *1449:Q 0
6 *328:34 0.000874034
7 *328:27 0.00232963
8 *328:4 0.00214728
9 *1203:A2 *1199:B1 0.000131729
10 *1203:A2 *1200:A1 0
11 *1323:I0 *1318:A1 0.000154617
12 *1323:I0 *330:39 0.000500772
13 *328:27 *1194:A2 1.71326e-05
14 *328:27 *330:39 0.000194511
15 *328:27 *330:45 0.000213332
16 *328:27 *349:83 0.00020453
17 *328:34 *1194:A2 0.000694866
18 *1197:A2 *328:27 0
19 *1199:B2 *1203:A2 8.16884e-06
20 *1200:A2 *1203:A2 1.55426e-05
21 *1200:A2 *328:34 1.6659e-05
22 *1200:B2 *1203:A2 0.000185355
23 *1200:C *1203:A2 8.10026e-05
24 *1204:A1 *1203:A2 6.8199e-07
25 *1206:A4 *328:34 2.97325e-05
26 *1278:A2 *328:27 1.23682e-05
27 *1279:A1 *328:27 0
28 *1281:A1 *328:27 1.60428e-05
29 *1318:A2 *1323:I0 0.000333635
30 *1322:A1 *328:34 0
31 *1323:S *1323:I0 0.00028351
32 *1474:D *328:27 9.41125e-05
33 *1475:D *328:27 0.000106645
34 *1475:CLK *328:27 0.00165914
35 *1507:I *1323:I0 0.000114446
36 *1507:I *328:27 0.00064308
37 *1510:I *328:27 0.000970698
38 *135:10 *1203:A2 0.000113016
39 *142:25 *328:27 4.05503e-05
40 *179:38 *1203:A2 0
41 *253:42 *328:27 8.77159e-05
42 *253:65 *328:34 0.00017517
43 *296:61 *328:27 0.00057304
44 *299:60 *328:27 0.000919966
45 *299:60 *328:34 7.87395e-06
46 *305:35 *1323:I0 0.000273626
47 *305:83 *328:27 0
48 *308:52 *328:27 3.84909e-05
49 *308:96 *328:27 2.50411e-05
*RES
1 *1449:Q *328:4 4.5 
2 *328:4 *1323:I0 18.076 
3 *328:4 *328:27 22.152 
4 *328:27 *1194:A3 4.5 
5 *328:27 *328:34 5.512 
6 *328:34 *1200:B1 4.5 
7 *328:34 *1203:A2 16.412 
*END

*D_NET *329 0.00661897
*CONN
*I *1180:I I *D gf180mcu_fd_sc_mcu7t5v0__clkinv_1
*I *1194:A2 I *D gf180mcu_fd_sc_mcu7t5v0__nor3_1
*I *1450:Q O *D gf180mcu_fd_sc_mcu7t5v0__dffrnq_1
*CAP
1 *1180:I 0
2 *1194:A2 0.000811393
3 *1450:Q 0.000813888
4 *329:12 0.00162528
5 *1194:A2 *1202:A2 0
6 *1197:A2 *1194:A2 6.18411e-06
7 *1199:A2 *1194:A2 6.56285e-05
8 *1201:A2 *1194:A2 1.70688e-05
9 *1204:A1 *1194:A2 0.000266678
10 *1206:A4 *1194:A2 4.07478e-05
11 *1322:B *1194:A2 1.18566e-06
12 *1368:A1 *329:12 0.000193782
13 *1445:CLK *329:12 4.18157e-05
14 *1450:CLK *1194:A2 2.14739e-05
15 *1513:I *329:12 0
16 *1530:I *329:12 2.69756e-05
17 *154:8 *1194:A2 0.000105621
18 *292:72 *1194:A2 0.000440599
19 *318:56 *1194:A2 0.000365312
20 *318:56 *329:12 0.00101495
21 *318:94 *329:12 4.83913e-05
22 *328:27 *1194:A2 1.71326e-05
23 *328:34 *1194:A2 0.000694866
*RES
1 *1450:Q *329:12 22.028 
2 *329:12 *1194:A2 22.236 
3 *329:12 *1180:I 4.5 
*END

*D_NET *330 0.0232027
*CONN
*I *1194:A1 I *D gf180mcu_fd_sc_mcu7t5v0__nor3_1
*I *1202:A2 I *D gf180mcu_fd_sc_mcu7t5v0__xor2_1
*I *1320:I0 I *D gf180mcu_fd_sc_mcu7t5v0__mux2_2
*I *1451:Q O *D gf180mcu_fd_sc_mcu7t5v0__dffsnq_1
*CAP
1 *1194:A1 0
2 *1202:A2 0.00110487
3 *1320:I0 0.000202183
4 *1451:Q 0.000370794
5 *330:45 0.00138326
6 *330:39 0.00217028
7 *330:12 0.00246487
8 *1202:A2 *1197:B 0.000139186
9 *1202:A2 *1201:B1 0.000960784
10 *1202:A2 *1202:A1 4.67771e-06
11 *1202:A2 *335:12 0
12 *1202:A2 *372:36 0
13 *1202:A2 *375:6 0.000410048
14 *1320:I0 *1320:I1 0.00025987
15 *330:12 *1285:I1 5.90454e-06
16 *330:12 *1320:I1 0.000140126
17 *330:12 *350:38 0.000794717
18 *330:39 *1177:I 2.24654e-05
19 *330:39 *1195:A2 2.69674e-05
20 *330:39 *1264:A2 3.39114e-05
21 *330:39 *1318:A1 0
22 *330:39 *349:83 0.00103172
23 *330:39 *353:10 0.000325466
24 *1194:A2 *1202:A2 0
25 *1196:A1 *330:45 0.000491544
26 *1196:A2 *330:39 7.63249e-05
27 *1196:A2 *330:45 3.12524e-05
28 *1197:A1 *1202:A2 0.000113016
29 *1197:A2 *1202:A2 4.63426e-05
30 *1201:A2 *1202:A2 4.78192e-05
31 *1203:B2 *1202:A2 0.000560736
32 *1203:C *1202:A2 0
33 *1205:B2 *1202:A2 0.00016627
34 *1206:A1 *1202:A2 0.00052354
35 *1285:S *330:12 9.00155e-05
36 *1319:B *330:39 0.00278542
37 *1323:I0 *330:39 0.000500772
38 *1380:I *1202:A2 2.21714e-05
39 *1455:D *330:39 0.000182219
40 *1471:CLK *330:12 2.11055e-05
41 *1471:CLK *330:39 0.000193782
42 *1472:D *330:39 2.14739e-05
43 *1472:CLK *330:39 0.0011207
44 *1490:RN *1202:A2 0
45 *1507:I *1320:I0 2.60748e-05
46 *1507:I *330:39 0.000765738
47 *1510:I *330:39 0.000202775
48 *1520:I *330:12 0.000883626
49 *151:12 *330:39 0.000554595
50 *151:22 *330:39 0.00035721
51 *152:25 *1202:A2 5.28859e-05
52 *152:25 *330:39 0
53 *179:16 *1202:A2 0.00069948
54 *231:14 *1320:I0 0
55 *231:14 *330:12 0
56 *253:42 *330:39 0.000110023
57 *305:83 *1202:A2 6.58506e-06
58 *305:83 *330:45 0.000289212
59 *328:27 *330:39 0.000194511
60 *328:27 *330:45 0.000213332
*RES
1 *1451:Q *330:12 13.888 
2 *330:12 *1320:I0 11.184 
3 *330:12 *330:39 46.42 
4 *330:39 *330:45 12.64 
5 *330:45 *1202:A2 25.98 
6 *330:45 *1194:A1 4.5 
*END

*D_NET *331 0.00149482
*CONN
*I *1195:A4 I *D gf180mcu_fd_sc_mcu7t5v0__nor4_1
*I *1179:I I *D gf180mcu_fd_sc_mcu7t5v0__clkinv_1
*I *1452:Q O *D gf180mcu_fd_sc_mcu7t5v0__dffrnq_1
*CAP
1 *1195:A4 0.000199485
2 *1179:I 0
3 *1452:Q 0.000123202
4 *331:8 0.000322688
5 *1195:A4 *1195:A3 8.56628e-05
6 *1316:A1 *1195:A4 0
7 *1316:A1 *331:8 0
8 *1319:A2 *331:8 3.3698e-05
9 *1452:D *331:8 4.81384e-05
10 *152:25 *1195:A4 0
11 *153:27 *1195:A4 0.000437828
12 *305:62 *1195:A4 1.71326e-05
13 *305:62 *331:8 0.000226986
*RES
1 *1452:Q *331:8 6.164 
2 *331:8 *1179:I 4.5 
3 *331:8 *1195:A4 6.788 
*END

*D_NET *332 0.0045973
*CONN
*I *1198:A1 I *D gf180mcu_fd_sc_mcu7t5v0__xor2_1
*I *1195:A3 I *D gf180mcu_fd_sc_mcu7t5v0__nor4_1
*I *1317:I0 I *D gf180mcu_fd_sc_mcu7t5v0__mux2_2
*I *1453:Q O *D gf180mcu_fd_sc_mcu7t5v0__dffrnq_1
*CAP
1 *1198:A1 0.000681386
2 *1195:A3 8.32336e-05
3 *1317:I0 0.000801472
4 *1453:Q 0
5 *332:4 0.000203319
6 *1198:A1 *1328:A1 0.000583324
7 *1198:A1 *376:6 0.000337769
8 *1195:A4 *1195:A3 8.56628e-05
9 *1453:RN *1198:A1 6.6131e-05
10 *1491:RN *1198:A1 0
11 *152:25 *1317:I0 6.03497e-05
12 *153:27 *1195:A3 0
13 *153:27 *1198:A1 0.000512364
14 *153:27 *1317:I0 0.000323777
15 *292:66 *1198:A1 0.000847774
16 *305:62 *1198:A1 1.07369e-05
17 *315:65 *1198:A1 0
*RES
1 *1453:Q *332:4 4.5 
2 *332:4 *1317:I0 5.852 
3 *332:4 *1195:A3 5.436 
4 *1317:I0 *1198:A1 26.632 
*END

*D_NET *333 0.00298639
*CONN
*I *1178:I I *D gf180mcu_fd_sc_mcu7t5v0__clkinv_1
*I *1195:A2 I *D gf180mcu_fd_sc_mcu7t5v0__nor4_1
*I *1454:Q O *D gf180mcu_fd_sc_mcu7t5v0__dffrnq_1
*CAP
1 *1178:I 0.000122003
2 *1195:A2 0.000323046
3 *1454:Q 0.000242882
4 *333:8 0.000687931
5 *333:8 *1315:A1 7.65601e-05
6 *333:8 *352:60 0
7 *1316:A1 *1195:A2 0.000249521
8 *1316:A1 *333:8 1.12327e-05
9 *1316:B *333:8 0.000498711
10 *1319:B *1178:I 0.000159505
11 *1319:B *1195:A2 3.57634e-06
12 *1319:B *333:8 7.53082e-05
13 *152:25 *1195:A2 0.000159517
14 *305:58 *333:8 0.000349628
15 *330:39 *1195:A2 2.69674e-05
*RES
1 *1454:Q *333:8 8.66 
2 *333:8 *1195:A2 7.932 
3 *333:8 *1178:I 6.164 
*END

*D_NET *334 0.00296151
*CONN
*I *1177:I I *D gf180mcu_fd_sc_mcu7t5v0__clkinv_1
*I *1195:A1 I *D gf180mcu_fd_sc_mcu7t5v0__nor4_1
*I *1455:Q O *D gf180mcu_fd_sc_mcu7t5v0__dffrnq_1
*CAP
1 *1177:I 7.60169e-05
2 *1195:A1 0.00029202
3 *1455:Q 0.000559392
4 *334:8 0.000927429
5 *334:8 *1300:A1 0.000123073
6 *1196:A2 *1195:A1 9.09749e-05
7 *1300:A2 *334:8 0
8 *1313:A2 *334:8 6.28659e-05
9 *1409:I *334:8 0.000131391
10 *1455:CLK *1195:A1 0.000229355
11 *1455:CLK *334:8 0.000159376
12 *1510:I *1177:I 0.000121447
13 *151:12 *1177:I 9.09749e-05
14 *152:10 *1195:A1 0
15 *152:25 *1195:A1 5.90026e-05
16 *305:66 *1195:A1 1.57245e-05
17 *330:39 *1177:I 2.24654e-05
*RES
1 *1455:Q *334:8 14.096 
2 *334:8 *1195:A1 11.496 
3 *334:8 *1177:I 9.936 
*END

*D_NET *335 0.00599558
*CONN
*I *1311:A1 I *D gf180mcu_fd_sc_mcu7t5v0__nor2_1
*I *1201:A1 I *D gf180mcu_fd_sc_mcu7t5v0__aoi221_1
*I *1197:B I *D gf180mcu_fd_sc_mcu7t5v0__aoi21_1
*I *1456:Q O *D gf180mcu_fd_sc_mcu7t5v0__dffrnq_1
*CAP
1 *1311:A1 0
2 *1201:A1 0
3 *1197:B 0.000285404
4 *1456:Q 0.000718505
5 *335:12 0.000701235
6 *335:10 0.00113434
7 *1197:A1 *1197:B 0.000113016
8 *1201:A2 *1197:B 4.68812e-05
9 *1201:C *1197:B 0.000271774
10 *1202:A2 *1197:B 0.000139186
11 *1202:A2 *335:12 0
12 *152:25 *1197:B 0.000497696
13 *155:8 *1197:B 1.25277e-05
14 *299:6 *335:10 0.000103788
15 *299:14 *335:10 0.000256274
16 *299:43 *335:10 0.00167109
17 *299:51 *335:10 2.91651e-05
18 *299:51 *335:12 1.47044e-05
*RES
1 *1456:Q *335:10 15.656 
2 *335:10 *335:12 2.808 
3 *335:12 *1197:B 11.912 
4 *335:12 *1201:A1 9 
5 *335:10 *1311:A1 9 
*END

*D_NET *336 0.00200225
*CONN
*I *1223:A4 I *D gf180mcu_fd_sc_mcu7t5v0__nor4_1
*I *1176:I I *D gf180mcu_fd_sc_mcu7t5v0__clkinv_1
*I *1457:Q O *D gf180mcu_fd_sc_mcu7t5v0__dffrnq_1
*CAP
1 *1223:A4 0.000345301
2 *1176:I 0.000177111
3 *1457:Q 0.000272859
4 *336:8 0.000795271
5 *1303:A1 *1176:I 3.6966e-05
6 *1303:A1 *1223:A4 0.000197088
7 *1457:RN *1176:I 7.16472e-05
8 *1457:RN *336:8 1.84103e-05
9 *149:23 *336:8 8.75966e-05
*RES
1 *1457:Q *336:8 11.184 
2 *336:8 *1176:I 10.664 
3 *336:8 *1223:A4 12.432 
*END

*D_NET *337 0.00551808
*CONN
*I *1223:A3 I *D gf180mcu_fd_sc_mcu7t5v0__nor4_1
*I *1175:I I *D gf180mcu_fd_sc_mcu7t5v0__clkinv_1
*I *1458:Q O *D gf180mcu_fd_sc_mcu7t5v0__dffrnq_1
*CAP
1 *1223:A3 0.000294194
2 *1175:I 0.000104243
3 *1458:Q 0.000214742
4 *337:10 0.00061318
5 *1175:I *1174:I 0.000223391
6 *1175:I *338:25 0.00057304
7 *1223:A3 *1207:B2 2.36218e-05
8 *1223:A3 *338:25 0.0014926
9 *337:10 *338:10 0
10 *1212:B2 *1223:A3 0
11 *1413:I *1175:I 2.14739e-05
12 *1413:I *337:10 2.08795e-05
13 *1458:RN *1175:I 0.000638865
14 *1460:RN *1223:A3 0.000581189
15 *1543:I *1175:I 0.00070994
16 *148:12 *1175:I 6.72304e-06
*RES
1 *1458:Q *337:10 14.852 
2 *337:10 *1175:I 17.036 
3 *337:10 *1223:A3 8.868 
*END

*D_NET *338 0.00850096
*CONN
*I *1207:B2 I *D gf180mcu_fd_sc_mcu7t5v0__oai22_1
*I *1223:A2 I *D gf180mcu_fd_sc_mcu7t5v0__nor4_1
*I *1174:I I *D gf180mcu_fd_sc_mcu7t5v0__clkinv_1
*I *1459:Q O *D gf180mcu_fd_sc_mcu7t5v0__dffrnq_1
*CAP
1 *1207:B2 0.000651466
2 *1223:A2 0
3 *1174:I 8.71039e-05
4 *1459:Q 0.000340611
5 *338:25 0.000934811
6 *338:10 0.000711061
7 *1207:B2 *1173:I 8.26636e-06
8 *1207:B2 *1207:A1 0
9 *1207:B2 *1212:B1 7.93118e-05
10 *1207:B2 *339:12 0.000279843
11 *1207:B2 *339:25 0
12 *338:25 *339:8 0.000151966
13 *338:25 *339:12 0.000122244
14 *1175:I *1174:I 0.000223391
15 *1175:I *338:25 0.00057304
16 *1207:B1 *1207:B2 0
17 *1212:A1 *1207:B2 0.000713728
18 *1212:B2 *1207:B2 0.000288508
19 *1212:B2 *338:25 0
20 *1213:A1 *1207:B2 0
21 *1213:B *1207:B2 0.000169099
22 *1223:A3 *1207:B2 2.36218e-05
23 *1223:A3 *338:25 0.0014926
24 *1303:A1 *1207:B2 0.000419276
25 *1412:I *1174:I 0
26 *1413:I *338:10 1.60338e-05
27 *1413:I *338:25 0.000863104
28 *1458:RN *1174:I 0.000116476
29 *1543:I *1174:I 3.646e-05
30 *1543:I *338:10 0.000158198
31 *148:12 *1174:I 4.07478e-05
32 *337:10 *338:10 0
*RES
1 *1459:Q *338:10 11.704 
2 *338:10 *1174:I 10.04 
3 *338:10 *338:25 10.22 
4 *338:25 *1223:A2 4.5 
5 *338:25 *1207:B2 11.78 
*END

*D_NET *339 0.00396298
*CONN
*I *1223:A1 I *D gf180mcu_fd_sc_mcu7t5v0__nor4_1
*I *1207:A1 I *D gf180mcu_fd_sc_mcu7t5v0__oai22_1
*I *1208:A1 I *D gf180mcu_fd_sc_mcu7t5v0__nand2_1
*I *1173:I I *D gf180mcu_fd_sc_mcu7t5v0__clkinv_1
*I *1460:Q O *D gf180mcu_fd_sc_mcu7t5v0__dffrnq_1
*CAP
1 *1223:A1 0
2 *1207:A1 0.000121531
3 *1208:A1 0
4 *1173:I 0.00022833
5 *1460:Q 0.000173775
6 *339:25 0.000425809
7 *339:12 0.0006901
8 *339:8 0.000331267
9 *1207:B2 *1173:I 8.26636e-06
10 *1207:B2 *1207:A1 0
11 *1207:B2 *339:12 0.000279843
12 *1207:B2 *339:25 0
13 *1208:A2 *1207:A1 0.000398395
14 *1208:A2 *339:25 4.07478e-05
15 *1209:A2 *1207:A1 0.000103221
16 *1212:A1 *1173:I 0.000122244
17 *1212:A1 *339:25 0
18 *1225:B1 *339:12 0.000276396
19 *1225:B1 *339:25 0.000273534
20 *1303:A1 *1173:I 0.000186474
21 *1303:A1 *339:12 2.88366e-05
22 *338:25 *339:8 0.000151966
23 *338:25 *339:12 0.000122244
*RES
1 *1460:Q *339:8 6.164 
2 *339:8 *339:12 2.496 
3 *339:12 *1173:I 6.164 
4 *339:12 *339:25 3.12 
5 *339:25 *1208:A1 4.5 
6 *339:25 *1207:A1 6.164 
7 *339:8 *1223:A1 4.5 
*END

*D_NET *340 0.00233984
*CONN
*I *1172:I I *D gf180mcu_fd_sc_mcu7t5v0__clkinv_1
*I *1224:A4 I *D gf180mcu_fd_sc_mcu7t5v0__nor4_1
*I *1461:Q O *D gf180mcu_fd_sc_mcu7t5v0__dffrnq_1
*CAP
1 *1172:I 6.53189e-05
2 *1224:A4 0.000358512
3 *1461:Q 0
4 *340:4 0.000423831
5 *1172:I *1171:I 8.21146e-06
6 *1224:A4 *1171:I 0.00105635
7 *1224:A4 *1224:A1 1.9734e-05
8 *1224:A4 *341:25 5.13977e-05
9 *1463:RN *1224:A4 3.60231e-05
10 *1530:I *1224:A4 0
11 *145:8 *1172:I 3.42651e-05
12 *146:10 *1172:I 4.07478e-05
13 *146:10 *1224:A4 6.04145e-05
14 *146:23 *1172:I 1.23682e-05
15 *146:23 *1224:A4 7.16472e-05
16 *199:76 *1224:A4 0.000101022
*RES
1 *1461:Q *340:4 4.5 
2 *340:4 *1224:A4 8.868 
3 *340:4 *1172:I 5.332 
*END

*D_NET *341 0.00553845
*CONN
*I *1171:I I *D gf180mcu_fd_sc_mcu7t5v0__clkinv_1
*I *1224:A3 I *D gf180mcu_fd_sc_mcu7t5v0__nor4_1
*I *1298:A1 I *D gf180mcu_fd_sc_mcu7t5v0__nand2_1
*I *1462:Q O *D gf180mcu_fd_sc_mcu7t5v0__dffsnq_1
*CAP
1 *1171:I 0.000222401
2 *1224:A3 0
3 *1298:A1 0.000231608
4 *1462:Q 0.000229002
5 *341:25 0.000852186
6 *341:10 0.0010904
7 *1171:I *1224:A1 0.0001119
8 *1171:I *1224:A2 0.000419276
9 *1172:I *1171:I 8.21146e-06
10 *1224:A4 *1171:I 0.00105635
11 *1224:A4 *341:25 5.13977e-05
12 *1299:B *1298:A1 9.11499e-05
13 *1398:I *1298:A1 0.000109096
14 *1444:D *341:10 0.000194511
15 *1444:D *341:25 0.000328552
16 *1444:CLK *341:10 3.09205e-05
17 *1462:SETN *341:10 7.86587e-06
18 *1462:SETN *341:25 9.17681e-06
19 *1530:I *1171:I 0
20 *1530:I *341:25 2.93608e-05
21 *199:76 *1171:I 0.000124269
22 *199:76 *341:25 0.000199156
23 *199:78 *341:25 0
24 *296:55 *1298:A1 0
25 *314:51 *341:25 0
26 *326:14 *341:10 0.000119121
27 *326:14 *341:25 2.25463e-05
*RES
1 *1462:Q *341:10 6.892 
2 *341:10 *1298:A1 15.684 
3 *341:10 *341:25 5.408 
4 *341:25 *1224:A3 4.5 
5 *341:25 *1171:I 8.556 
*END

*D_NET *342 0.00149234
*CONN
*I *1170:I I *D gf180mcu_fd_sc_mcu7t5v0__clkinv_1
*I *1224:A2 I *D gf180mcu_fd_sc_mcu7t5v0__nor4_1
*I *1463:Q O *D gf180mcu_fd_sc_mcu7t5v0__dffrnq_1
*CAP
1 *1170:I 6.74973e-05
2 *1224:A2 0.000164263
3 *1463:Q 0
4 *342:4 0.00023176
5 *1170:I *1224:A1 1.60428e-05
6 *1171:I *1224:A2 0.000419276
7 *1225:B2 *1170:I 3.09205e-05
8 *1297:A1 *1170:I 4.07478e-05
9 *1297:A1 *1224:A2 4.04794e-05
10 *144:25 *1170:I 3.42651e-05
11 *199:76 *1224:A2 0.000447092
*RES
1 *1463:Q *342:4 4.5 
2 *342:4 *1224:A2 15.58 
3 *342:4 *1170:I 5.332 
*END

*D_NET *343 0.00568016
*CONN
*I *1169:I I *D gf180mcu_fd_sc_mcu7t5v0__clkinv_1
*I *1224:A1 I *D gf180mcu_fd_sc_mcu7t5v0__nor4_1
*I *1294:A1 I *D gf180mcu_fd_sc_mcu7t5v0__nand2_1
*I *1464:Q O *D gf180mcu_fd_sc_mcu7t5v0__dffsnq_1
*CAP
1 *1169:I 8.5367e-05
2 *1224:A1 0.000617633
3 *1294:A1 0.000563883
4 *1464:Q 0
5 *343:19 0.000739365
6 *343:4 0.000600249
7 *1169:I *1217:B1 7.2883e-05
8 *1224:A1 *1217:B1 5.63072e-05
9 *1294:A1 *1215:A2 0.000199988
10 *1294:A1 *1217:B1 6.13261e-05
11 *1294:A1 *1218:B1 0.000430001
12 *1294:A1 *383:20 3.57634e-06
13 *1170:I *1224:A1 1.60428e-05
14 *1171:I *1224:A1 0.0001119
15 *1215:A1 *1224:A1 5.3492e-05
16 *1215:A1 *1294:A1 3.50983e-05
17 *1218:B2 *1294:A1 4.04741e-05
18 *1224:A4 *1224:A1 1.9734e-05
19 *1297:A1 *1224:A1 3.96072e-05
20 *144:25 *1224:A1 0.000162538
21 *145:8 *1224:A1 0.000970001
22 *146:10 *1224:A1 2.46831e-05
23 *188:18 *1294:A1 0.000215267
24 *199:76 *1224:A1 0.000560747
*RES
1 *1464:Q *343:4 4.5 
2 *343:4 *1294:A1 18.7 
3 *343:4 *343:19 0.312 
4 *343:19 *1224:A1 11.884 
5 *343:19 *1169:I 5.54 
*END

*D_NET *344 0.00869376
*CONN
*I *1163:I I *D gf180mcu_fd_sc_mcu7t5v0__clkinv_1
*I *1251:A3 I *D gf180mcu_fd_sc_mcu7t5v0__nand3_1
*I *1261:A1 I *D gf180mcu_fd_sc_mcu7t5v0__nor2_1
*I *1480:Q O *D gf180mcu_fd_sc_mcu7t5v0__dffrnq_1
*CAP
1 *1163:I 0
2 *1251:A3 0.000637032
3 *1261:A1 6.21324e-05
4 *1480:Q 0.000738245
5 *344:25 0.00102699
6 *344:12 0.00119033
7 *1251:A3 *1251:A1 3.09205e-05
8 *1251:A3 *1251:A2 0.000103788
9 *1256:A2 *1251:A3 0
10 *1260:B *1251:A3 0.00015244
11 *1260:B *344:25 0.000112735
12 *1434:I *344:25 5.89368e-05
13 *1436:I *1251:A3 0.00115052
14 *1480:D *1261:A1 0.000271764
15 *1480:D *344:12 0.00146736
16 *1483:RN *1251:A3 6.18411e-06
17 *1487:D *344:12 4.07478e-05
18 *1498:CLK *344:12 2.02353e-05
19 *1517:I *1251:A3 0.000131647
20 *1529:I *1251:A3 0.000692218
21 *1544:I *1261:A1 9.96173e-06
22 *1544:I *344:12 5.86924e-05
23 *1544:I *344:25 0.000184188
24 *225:26 *344:25 0
25 *298:55 *1251:A3 0
26 *304:23 *1251:A3 0
27 *316:27 *1251:A3 6.41959e-05
28 *316:27 *344:25 0.000482506
*RES
1 *1480:Q *344:12 14.304 
2 *344:12 *1261:A1 9.728 
3 *344:12 *344:25 8.972 
4 *344:25 *1251:A3 13.444 
5 *344:25 *1163:I 4.5 
*END

*D_NET *345 0.00800065
*CONN
*I *1260:A1 I *D gf180mcu_fd_sc_mcu7t5v0__aoi21_1
*I *1257:A1 I *D gf180mcu_fd_sc_mcu7t5v0__aoi21_1
*I *1251:A2 I *D gf180mcu_fd_sc_mcu7t5v0__nand3_1
*I *1259:B2 I *D gf180mcu_fd_sc_mcu7t5v0__oai22_1
*I *1481:Q O *D gf180mcu_fd_sc_mcu7t5v0__dffrnq_1
*CAP
1 *1260:A1 4.62136e-05
2 *1257:A1 0
3 *1251:A2 0.000262278
4 *1259:B2 3.6366e-05
5 *1481:Q 0.000710423
6 *345:29 0.000571075
7 *345:14 0.000629941
8 *345:10 0.00104141
9 *1251:A2 *1251:A1 7.67119e-05
10 *1251:A2 *346:14 1.07369e-05
11 *1251:A3 *1251:A2 0.000103788
12 *1257:A2 *345:29 0.000193782
13 *1258:A1 *345:29 4.07478e-05
14 *1258:A2 *345:29 0.000152316
15 *1259:A2 *1251:A2 0.000663752
16 *1481:D *1260:A1 8.34358e-05
17 *1481:D *345:14 0.000203739
18 *1481:RN *345:10 0.000501041
19 *1482:D *345:14 0.000151966
20 *1482:D *345:29 0.000254761
21 *1517:I *1251:A2 0.000103788
22 *1529:I *1251:A2 2.82894e-06
23 *1539:I *345:10 0.000258305
24 *1544:I *345:10 0
25 *218:33 *1260:A1 1.23682e-05
26 *218:33 *345:10 0
27 *218:33 *345:14 0.00018289
28 *225:8 *345:14 0.00042386
29 *225:8 *345:29 6.85302e-05
30 *225:26 *1260:A1 0.00033778
31 *225:26 *345:14 0.00024584
32 *298:10 *1251:A2 0.000107648
33 *298:14 *1251:A2 0.00052232
34 *298:14 *345:29 0
*RES
1 *1481:Q *345:10 18.804 
2 *345:10 *345:14 4.784 
3 *345:14 *1259:B2 4.812 
4 *345:14 *345:29 12.328 
5 *345:29 *1251:A2 17.14 
6 *345:29 *1257:A1 4.5 
7 *345:10 *1260:A1 5.436 
*END

*D_NET *346 0.00365958
*CONN
*I *1251:A1 I *D gf180mcu_fd_sc_mcu7t5v0__nand3_1
*I *1257:B I *D gf180mcu_fd_sc_mcu7t5v0__aoi21_1
*I *1482:Q O *D gf180mcu_fd_sc_mcu7t5v0__dffrnq_1
*CAP
1 *1251:A1 0.000204425
2 *1257:B 0
3 *1482:Q 0.000935127
4 *346:14 0.00113955
5 *1251:A2 *1251:A1 7.67119e-05
6 *1251:A2 *346:14 1.07369e-05
7 *1251:A3 *1251:A1 3.09205e-05
8 *1259:A2 *1251:A1 2.39523e-06
9 *1259:A2 *346:14 6.69695e-05
10 *1488:D *346:14 0.000175061
11 *1517:I *1251:A1 0.000651459
12 *1529:I *1251:A1 3.42651e-05
13 *1529:I *346:14 2.94292e-05
14 *221:8 *1251:A1 0
15 *298:64 *346:14 0.000112835
16 *303:18 *346:14 0.000134172
17 *316:10 *346:14 5.55221e-05
*RES
1 *1482:Q *346:14 19.636 
2 *346:14 *1257:B 4.5 
3 *346:14 *1251:A1 7.204 
*END

*D_NET *347 0.00217972
*CONN
*I *1162:I I *D gf180mcu_fd_sc_mcu7t5v0__clkinv_1
*I *1253:A1 I *D gf180mcu_fd_sc_mcu7t5v0__nor2_1
*I *1483:Q O *D gf180mcu_fd_sc_mcu7t5v0__dffrnq_1
*CAP
1 *1162:I 0
2 *1253:A1 0.00025062
3 *1483:Q 0.000457809
4 *347:10 0.000708429
5 *1253:A2 *1253:A1 6.69577e-05
6 *1255:A1 *1253:A1 0.000131739
7 *1437:I *1253:A1 0
8 *1437:I *347:10 0
9 *1483:RN *1253:A1 3.18325e-05
10 *1489:CLK *347:10 4.84332e-05
11 *1540:I *1253:A1 0.000337769
12 *221:8 *1253:A1 1.01781e-05
13 *304:12 *1253:A1 3.22108e-05
14 *318:31 *347:10 0.00010374
*RES
1 *1483:Q *347:10 11.704 
2 *347:10 *1253:A1 11.496 
3 *347:10 *1162:I 9 
*END

*D_NET *348 0.0203433
*CONN
*I *1264:A2 I *D gf180mcu_fd_sc_mcu7t5v0__nor4_1
*I *1288:I0 I *D gf180mcu_fd_sc_mcu7t5v0__mux2_2
*I *1323:I1 I *D gf180mcu_fd_sc_mcu7t5v0__mux2_2
*I *1287:I1 I *D gf180mcu_fd_sc_mcu7t5v0__mux2_2
*I *1308:A1 I *D gf180mcu_fd_sc_mcu7t5v0__nor2_1
*I *1276:A1 I *D gf180mcu_fd_sc_mcu7t5v0__nor2_1
*I *1292:I0 I *D gf180mcu_fd_sc_mcu7t5v0__mux2_2
*I *1468:Q O *D gf180mcu_fd_sc_mcu7t5v0__dffrnq_1
*CAP
1 *1264:A2 0.00123535
2 *1288:I0 0.00010109
3 *1323:I1 0.000175865
4 *1287:I1 0
5 *1308:A1 0.000436612
6 *1276:A1 0
7 *1292:I0 0.000444
8 *1468:Q 0
9 *348:24 0.000947557
10 *348:18 0.00183246
11 *348:14 0.00117855
12 *348:12 0.000696808
13 *348:10 0.00052493
14 *348:4 0.00142451
15 *1264:A2 *1321:A1 2.48015e-05
16 *1264:A2 *349:83 0.000894807
17 *1292:I0 *366:12 0.000872367
18 *1323:I1 *1287:I0 9.6017e-06
19 *348:18 *362:10 2.62781e-05
20 *348:18 *364:10 0
21 *348:24 *364:10 0
22 *1264:A3 *1264:A2 0
23 *1276:A2 *1292:I0 4.07478e-05
24 *1276:A2 *348:24 0.000108108
25 *1277:B *1292:I0 0
26 *1287:S *348:12 0
27 *1287:S *348:14 0
28 *1292:I1 *1292:I0 1.91879e-05
29 *1292:S *1292:I0 0.000223961
30 *1419:I *1292:I0 0.000202476
31 *1449:D *348:10 8.85399e-06
32 *1449:D *348:12 0.000203256
33 *1449:CLK *1288:I0 0.000865238
34 *1451:CLK *1308:A1 0.00182344
35 *1451:CLK *348:18 0.000979229
36 *1468:RN *348:10 0
37 *1472:CLK *1264:A2 0
38 *1476:CLK *1292:I0 5.47431e-06
39 *1476:CLK *348:24 4.57914e-05
40 *1506:I *348:18 0.000416851
41 *1516:I *1264:A2 0
42 *1523:I *1264:A2 1.25277e-05
43 *1523:I *1288:I0 0.00127403
44 *1523:I *1323:I1 0
45 *1523:I *348:10 0.000328552
46 *292:119 *1308:A1 0.00026455
47 *295:31 *1308:A1 0.000402936
48 *295:33 *1308:A1 0.00057291
49 *308:82 *1264:A2 0.000113027
50 *310:53 *1292:I0 7.04505e-05
51 *310:88 *1292:I0 0.000120241
52 *310:88 *348:24 0.000116769
53 *310:96 *1308:A1 0.000397047
54 *310:96 *348:24 0.000868177
55 *311:58 *1264:A2 0
56 *330:39 *1264:A2 3.39114e-05
*RES
1 *1468:Q *348:4 4.5 
2 *348:4 *348:10 1.56 
3 *348:10 *348:12 1.768 
4 *348:12 *348:14 1.976 
5 *348:14 *348:18 12.716 
6 *348:18 *348:24 9.7 
7 *348:24 *1292:I0 9.7 
8 *348:24 *1276:A1 4.5 
9 *348:18 *1308:A1 16.384 
10 *348:14 *1287:I1 4.5 
11 *348:12 *1323:I1 15.06 
12 *348:10 *1288:I0 16.724 
13 *348:4 *1264:A2 22.86 
*END

*D_NET *349 0.0260971
*CONN
*I *1321:A1 I *D gf180mcu_fd_sc_mcu7t5v0__nand2_1
*I *1264:A1 I *D gf180mcu_fd_sc_mcu7t5v0__nor4_1
*I *1287:I0 I *D gf180mcu_fd_sc_mcu7t5v0__mux2_2
*I *1286:I1 I *D gf180mcu_fd_sc_mcu7t5v0__mux2_2
*I *1291:I0 I *D gf180mcu_fd_sc_mcu7t5v0__mux2_2
*I *1306:A1 I *D gf180mcu_fd_sc_mcu7t5v0__nor2_1
*I *1274:A1 I *D gf180mcu_fd_sc_mcu7t5v0__nor2_1
*I *1469:Q O *D gf180mcu_fd_sc_mcu7t5v0__dffrnq_1
*CAP
1 *1321:A1 0.00285589
2 *1264:A1 0
3 *1287:I0 0.000173504
4 *1286:I1 4.85631e-05
5 *1291:I0 0
6 *1306:A1 0.000725977
7 *1274:A1 0.000220834
8 *1469:Q 0.000192065
9 *349:83 0.00357635
10 *349:64 0.00141538
11 *349:33 0.000967444
12 *349:25 0.000707101
13 *349:12 0.00183826
14 *349:8 0.00191383
15 *1286:I1 *350:25 1.04577e-05
16 *1306:A1 *1304:A1 6.26086e-05
17 *1306:A1 *350:10 7.68443e-05
18 *1306:A1 *350:14 0.000162875
19 *1321:A1 *1264:A4 0.000419276
20 *1321:A1 *1278:A1 1.8056e-05
21 *1321:A1 *1280:A1 8.54693e-06
22 *1321:A1 *1300:A1 0.000341551
23 *1321:A1 *354:23 0.000755291
24 *1321:A1 *354:38 0.000114327
25 *1321:A1 *354:48 0
26 *349:25 *368:8 0.000196748
27 *349:25 *368:19 0.000510747
28 *349:33 *350:14 0.0001105
29 *349:83 *1318:A1 0.000177251
30 *1264:A2 *1321:A1 2.48015e-05
31 *1264:A2 *349:83 0.000894807
32 *1264:A3 *1321:A1 6.38503e-05
33 *1279:B *1321:A1 0
34 *1287:S *349:64 1.60338e-05
35 *1290:I1 *1306:A1 0
36 *1290:S *1306:A1 0.000305226
37 *1291:I1 *1306:A1 5.31759e-05
38 *1291:I1 *349:33 0
39 *1291:S *349:25 0.000290159
40 *1291:S *349:33 0.000101453
41 *1292:S *1274:A1 4.98252e-05
42 *1292:S *349:25 4.76807e-05
43 *1301:B *1321:A1 0.000196644
44 *1305:B *1306:A1 1.07369e-05
45 *1307:B *1306:A1 0.000654445
46 *1310:A1 *349:12 2.98154e-06
47 *1312:A1 *1321:A1 2.66236e-05
48 *1312:B *1321:A1 6.17593e-05
49 *1318:A2 *349:83 3.48225e-05
50 *1321:A2 *1321:A1 1.71326e-05
51 *1323:I1 *1287:I0 9.6017e-06
52 *1323:S *349:83 7.24199e-05
53 *1420:I *1306:A1 0
54 *1423:I *349:12 5.15322e-05
55 *1423:I *349:64 5.47431e-06
56 *1429:I *1321:A1 0
57 *1451:D *349:12 0.000208897
58 *1451:D *349:64 3.26676e-05
59 *1456:RN *1321:A1 0
60 *1463:CLK *1321:A1 0
61 *1467:CLK *349:33 0.000327333
62 *1472:D *349:83 0.000691326
63 *1475:RN *1321:A1 0
64 *1501:RN *1274:A1 9.49418e-06
65 *1501:RN *349:12 8.34797e-05
66 *1506:I *349:12 0
67 *1506:I *349:64 0
68 *1512:I *1321:A1 0.00011113
69 *1516:I *349:83 0
70 *1518:I *1321:A1 3.57634e-06
71 *140:14 *349:12 0.000109236
72 *141:29 *1321:A1 0.000913784
73 *231:14 *1287:I0 3.8585e-05
74 *231:14 *349:83 8.37602e-05
75 *237:34 *1274:A1 3.07938e-05
76 *243:8 *1274:A1 0
77 *243:8 *349:12 3.03268e-05
78 *244:12 *349:25 0.000170457
79 *244:12 *349:33 5.53387e-05
80 *253:42 *349:83 0.000487138
81 *292:119 *349:12 8.08673e-05
82 *299:16 *1321:A1 0
83 *299:51 *1321:A1 4.13954e-05
84 *305:22 *349:64 0.000137062
85 *305:35 *349:83 5.06107e-05
86 *308:82 *1321:A1 0.000209278
87 *313:12 *1306:A1 6.40114e-06
88 *313:40 *1306:A1 0.000216413
89 *313:48 *1306:A1 6.64873e-05
90 *313:103 *1306:A1 7.3514e-05
91 *328:27 *349:83 0.00020453
92 *330:39 *349:83 0.00103172
*RES
1 *1469:Q *349:8 5.54 
2 *349:8 *349:12 14.172 
3 *349:12 *1274:A1 10.664 
4 *349:12 *349:25 5.096 
5 *349:25 *349:33 7.1 
6 *349:33 *1306:A1 21.82 
7 *349:33 *1291:I0 4.5 
8 *349:25 *1286:I1 9.312 
9 *349:8 *349:64 8.556 
10 *349:64 *1287:I0 10.352 
11 *349:64 *349:83 19.712 
12 *349:83 *1264:A1 9 
13 *349:83 *1321:A1 34.168 
*END

*D_NET *350 0.0121544
*CONN
*I *1304:A1 I *D gf180mcu_fd_sc_mcu7t5v0__nor2_1
*I *1290:I0 I *D gf180mcu_fd_sc_mcu7t5v0__mux2_2
*I *1263:A4 I *D gf180mcu_fd_sc_mcu7t5v0__nor4_1
*I *1320:I1 I *D gf180mcu_fd_sc_mcu7t5v0__mux2_2
*I *1285:I1 I *D gf180mcu_fd_sc_mcu7t5v0__mux2_2
*I *1286:I0 I *D gf180mcu_fd_sc_mcu7t5v0__mux2_2
*I *1470:Q O *D gf180mcu_fd_sc_mcu7t5v0__dffrnq_1
*CAP
1 *1304:A1 0.000135568
2 *1290:I0 0
3 *1263:A4 0.00044217
4 *1320:I1 0.00046679
5 *1285:I1 0.000159747
6 *1286:I0 0
7 *1470:Q 0.000174262
8 *350:38 0.00102401
9 *350:25 0.000925821
10 *350:14 0.000925034
11 *350:10 0.000374464
12 *350:8 0.000410286
13 *1263:A4 *1263:A3 2.1932e-05
14 *1263:A4 *351:10 0.000102348
15 *1263:A4 *351:16 8.98771e-05
16 *350:25 *1166:I 0
17 *350:25 *1285:I0 2.24654e-05
18 *1285:S *350:25 0.000277832
19 *1285:S *350:38 0.00126643
20 *1286:I1 *350:25 1.04577e-05
21 *1286:S *350:25 0.00195487
22 *1290:I1 *350:8 0.000184089
23 *1290:I1 *350:10 0.000163265
24 *1290:I1 *350:14 0.000160438
25 *1306:A1 *1304:A1 6.26086e-05
26 *1306:A1 *350:10 7.68443e-05
27 *1306:A1 *350:14 0.000162875
28 *1320:I0 *1320:I1 0.00025987
29 *1405:I *1263:A4 9.96173e-06
30 *1405:I *1320:I1 7.13072e-05
31 *1467:CLK *350:25 2.3947e-05
32 *1470:D *350:25 0
33 *1471:CLK *1263:A4 0
34 *1507:I *1320:I1 0
35 *1509:I *1263:A4 0.000121959
36 *1520:I *1285:I1 0.00011484
37 *1520:I *350:25 7.31737e-05
38 *1520:I *350:38 7.73327e-05
39 *244:12 *350:8 0
40 *244:12 *350:14 0.000160598
41 *295:27 *350:25 0.000537885
42 *313:48 *350:8 5.77841e-05
43 *330:12 *1285:I1 5.90454e-06
44 *330:12 *1320:I1 0.000140126
45 *330:12 *350:38 0.000794717
46 *349:33 *350:14 0.0001105
*RES
1 *1470:Q *350:8 10.352 
2 *350:8 *350:10 1.352 
3 *350:10 *350:14 7.724 
4 *350:14 *1286:I0 4.5 
5 *350:14 *350:25 7.592 
6 *350:25 *1285:I1 5.54 
7 *350:25 *350:38 7.932 
8 *350:38 *1320:I1 14.096 
9 *350:38 *1263:A4 13.264 
10 *350:10 *1290:I0 9 
11 *350:8 *1304:A1 10.144 
*END

*D_NET *351 0.00958765
*CONN
*I *1302:A1 I *D gf180mcu_fd_sc_mcu7t5v0__nor2_1
*I *1285:I0 I *D gf180mcu_fd_sc_mcu7t5v0__mux2_2
*I *1263:A3 I *D gf180mcu_fd_sc_mcu7t5v0__nor4_1
*I *1284:I1 I *D gf180mcu_fd_sc_mcu7t5v0__mux2_2
*I *1318:A1 I *D gf180mcu_fd_sc_mcu7t5v0__nand2_1
*I *1471:Q O *D gf180mcu_fd_sc_mcu7t5v0__dffrnq_1
*CAP
1 *1302:A1 0.000225516
2 *1285:I0 0.000335914
3 *1263:A3 0.000218407
4 *1284:I1 3.86064e-05
5 *1318:A1 0.000324491
6 *1471:Q 0
7 *351:22 0.000585289
8 *351:16 0.000714267
9 *351:10 0.000961813
10 *351:6 0.000577746
11 *1263:A3 *1263:A2 0.000162046
12 *1263:A3 *352:8 8.35178e-06
13 *1263:A3 *352:14 4.49882e-05
14 *1318:A1 *352:39 2.82894e-06
15 *351:16 *1263:A2 1.57479e-05
16 *351:22 *352:14 4.17589e-06
17 *1263:A4 *1263:A3 2.1932e-05
18 *1263:A4 *351:10 0.000102348
19 *1263:A4 *351:16 8.98771e-05
20 *1265:A1 *351:16 0.000256274
21 *1285:S *1284:I1 4.47991e-05
22 *1285:S *1285:I0 0.000496743
23 *1285:S *351:16 0.00133316
24 *1285:S *351:22 7.70282e-05
25 *1286:S *1285:I0 0.000122244
26 *1318:A2 *1318:A1 0.000148368
27 *1323:I0 *1318:A1 0.000154617
28 *1395:I *1302:A1 4.38131e-05
29 *1405:I *351:10 0.000288972
30 *1441:D *1302:A1 8.6099e-05
31 *1441:D *351:10 3.55894e-05
32 *1471:CLK *1263:A3 6.26086e-05
33 *1471:CLK *351:22 6.32854e-05
34 *1472:D *1318:A1 1.06742e-05
35 *1472:RN *1263:A3 0.000208724
36 *1472:CLK *1318:A1 0.000105621
37 *1507:I *1318:A1 5.47669e-06
38 *1509:I *1285:I0 0
39 *1509:I *351:16 0
40 *231:14 *1284:I1 0.000239393
41 *231:14 *1318:A1 0
42 *231:14 *351:22 0.000504524
43 *306:119 *1302:A1 0.000215256
44 *313:68 *1302:A1 0.00012524
45 *313:70 *1302:A1 8.99624e-05
46 *313:70 *351:10 0.000235121
47 *330:39 *1318:A1 0
48 *349:83 *1318:A1 0.000177251
49 *350:25 *1285:I0 2.24654e-05
*RES
1 *1471:Q *351:6 9 
2 *351:6 *351:10 9.18 
3 *351:10 *351:16 8.452 
4 *351:16 *351:22 6.996 
5 *351:22 *1318:A1 16.412 
6 *351:22 *1284:I1 5.228 
7 *351:16 *1263:A3 11.288 
8 *351:10 *1285:I0 8.14 
9 *351:6 *1302:A1 11.912 
*END

*D_NET *352 0.0182018
*CONN
*I *1263:A2 I *D gf180mcu_fd_sc_mcu7t5v0__nor4_1
*I *1300:A1 I *D gf180mcu_fd_sc_mcu7t5v0__nor2_1
*I *1317:I1 I *D gf180mcu_fd_sc_mcu7t5v0__mux2_2
*I *1282:A1 I *D gf180mcu_fd_sc_mcu7t5v0__nand2_1
*I *1284:I0 I *D gf180mcu_fd_sc_mcu7t5v0__mux2_2
*I *1472:Q O *D gf180mcu_fd_sc_mcu7t5v0__dffrnq_1
*CAP
1 *1263:A2 0.000146217
2 *1300:A1 0.00110353
3 *1317:I1 0
4 *1282:A1 3.64393e-05
5 *1284:I0 0
6 *1472:Q 0.000284767
7 *352:60 0.00212109
8 *352:39 0.00254672
9 *352:14 0.00167589
10 *352:8 0.000614141
11 *352:60 *1315:A1 0
12 *1263:A1 *352:39 0
13 *1263:A3 *1263:A2 0.000162046
14 *1263:A3 *352:8 8.35178e-06
15 *1263:A3 *352:14 4.49882e-05
16 *1265:A1 *1263:A2 0.000125933
17 *1265:A1 *352:14 0.00033778
18 *1265:A1 *352:39 0.000525193
19 *1265:A2 *352:39 2.73715e-06
20 *1278:A2 *352:39 7.75241e-06
21 *1283:A2 *1282:A1 0.000125283
22 *1285:S *352:14 0.000346997
23 *1285:S *352:39 8.14957e-05
24 *1313:A2 *1300:A1 0.000224056
25 *1314:B *1300:A1 0.000490009
26 *1316:B *352:60 3.72267e-05
27 *1318:A1 *352:39 2.82894e-06
28 *1321:A1 *1300:A1 0.000341551
29 *1408:I *352:60 2.2517e-05
30 *1426:I *352:8 3.7145e-05
31 *1452:RN *352:60 0.0001133
32 *1453:D *352:60 9.41125e-05
33 *1453:RN *1300:A1 0.00043289
34 *1453:RN *352:60 0.000591484
35 *1454:D *352:60 0.00011421
36 *1454:RN *352:60 0.000509988
37 *1471:CLK *352:8 0
38 *1472:RN *1263:A2 6.41303e-05
39 *1472:RN *352:8 0
40 *1509:I *1263:A2 1.81425e-05
41 *1510:I *1300:A1 0.000157757
42 *1516:I *352:39 0.000103533
43 *141:29 *1300:A1 0.000341551
44 *142:36 *352:39 0
45 *151:22 *1300:A1 3.27889e-05
46 *231:14 *352:39 0.000428493
47 *253:42 *352:39 0.000471172
48 *305:58 *352:60 6.35093e-06
49 *305:62 *352:60 0.000252344
50 *305:66 *1300:A1 0.000488693
51 *308:28 *1282:A1 0.000125283
52 *308:28 *352:39 0.000325271
53 *308:48 *352:39 0.00162266
54 *308:82 *352:14 0
55 *308:82 *352:39 0.000250343
56 *315:45 *352:60 3.65447e-05
57 *315:61 *1300:A1 2.50372e-05
58 *333:8 *352:60 0
59 *334:8 *1300:A1 0.000123073
60 *351:16 *1263:A2 1.57479e-05
61 *351:22 *352:14 4.17589e-06
*RES
1 *1472:Q *352:8 11.184 
2 *352:8 *352:14 6.372 
3 *352:14 *1284:I0 4.5 
4 *352:14 *352:39 37.164 
5 *352:39 *1282:A1 9.52 
6 *352:39 *352:60 23.172 
7 *352:60 *1317:I1 4.5 
8 *352:60 *1300:A1 24.42 
9 *352:8 *1263:A2 10.768 
*END

*D_NET *353 0.00217343
*CONN
*I *1168:I I *D gf180mcu_fd_sc_mcu7t5v0__clkinv_1
*I *1315:A1 I *D gf180mcu_fd_sc_mcu7t5v0__nand2_1
*I *1473:Q O *D gf180mcu_fd_sc_mcu7t5v0__dffrnq_1
*CAP
1 *1168:I 0
2 *1315:A1 0.00029039
3 *1473:Q 0.000125274
4 *353:10 0.000415664
5 *1283:A1 *1315:A1 0.000198911
6 *1283:A1 *353:10 8.02357e-05
7 *1319:B *1315:A1 6.79908e-05
8 *1427:I *1315:A1 1.71326e-05
9 *1507:I *353:10 0.000108448
10 *142:25 *353:10 0.000259996
11 *308:26 *1315:A1 1.37902e-05
12 *308:48 *1315:A1 7.20921e-05
13 *308:48 *353:10 0.000121485
14 *330:39 *353:10 0.000325466
15 *333:8 *1315:A1 7.65601e-05
16 *352:60 *1315:A1 0
*RES
1 *1473:Q *353:10 10.872 
2 *353:10 *1315:A1 11.288 
3 *353:10 *1168:I 9 
*END

*D_NET *354 0.00861962
*CONN
*I *1278:A1 I *D gf180mcu_fd_sc_mcu7t5v0__nand2_1
*I *1296:A1 I *D gf180mcu_fd_sc_mcu7t5v0__nor2_1
*I *1313:A1 I *D gf180mcu_fd_sc_mcu7t5v0__nand2_1
*I *1280:A1 I *D gf180mcu_fd_sc_mcu7t5v0__nor2_1
*I *1264:A4 I *D gf180mcu_fd_sc_mcu7t5v0__nor4_1
*I *1474:Q O *D gf180mcu_fd_sc_mcu7t5v0__dffrnq_1
*CAP
1 *1278:A1 1.91672e-05
2 *1296:A1 0.00050043
3 *1313:A1 0.000211211
4 *1280:A1 0.000232891
5 *1264:A4 9.90154e-05
6 *1474:Q 0.000311924
7 *354:48 0.00126739
8 *354:38 0.000805643
9 *354:23 0.00075302
10 *354:10 0.00070034
11 *1264:A3 *1264:A4 2.08037e-05
12 *1264:A3 *354:23 1.74441e-05
13 *1278:A2 *1280:A1 0
14 *1279:B *354:48 0.000238642
15 *1281:B *1280:A1 0.000118657
16 *1299:A1 *1280:A1 4.4457e-05
17 *1299:A1 *354:23 0.000125252
18 *1321:A1 *1264:A4 0.000419276
19 *1321:A1 *1278:A1 1.8056e-05
20 *1321:A1 *1280:A1 8.54693e-06
21 *1321:A1 *354:23 0.000755291
22 *1321:A1 *354:38 0.000114327
23 *1321:A1 *354:48 0
24 *1409:I *1296:A1 0
25 *1428:I *354:10 6.55606e-05
26 *1474:RN *354:23 7.50525e-05
27 *141:29 *1313:A1 0
28 *141:29 *354:48 0.000214967
29 *142:36 *1280:A1 7.20921e-05
30 *253:42 *1280:A1 1.08986e-05
31 *253:42 *1313:A1 0.00028351
32 *253:42 *354:38 0
33 *253:42 *354:48 0.000680876
34 *253:65 *1313:A1 0.000428493
35 *253:65 *354:48 1.71324e-06
36 *296:61 *354:10 0
37 *308:82 *1280:A1 4.67771e-06
*RES
1 *1474:Q *354:10 16.1 
2 *354:10 *1264:A4 5.644 
3 *354:10 *354:23 7.62 
4 *354:23 *1280:A1 10.664 
5 *354:23 *354:38 6.268 
6 *354:38 *354:48 10.74 
7 *354:48 *1313:A1 11.288 
8 *354:48 *1296:A1 13.056 
9 *354:38 *1278:A1 4.812 
*END

*D_NET *355 0.000527752
*CONN
*I *1167:I I *D gf180mcu_fd_sc_mcu7t5v0__clkinv_1
*I *1475:Q O *D gf180mcu_fd_sc_mcu7t5v0__dffrnq_1
*CAP
1 *1167:I 0.000234375
2 *1475:Q 0.000234375
3 *1429:I *1167:I 0
4 *1475:RN *1167:I 5.90026e-05
*RES
1 *1475:Q *1167:I 10.872 
*END

*D_NET *356 0.0019683
*CONN
*I *1166:I I *D gf180mcu_fd_sc_mcu7t5v0__clkinv_1
*I *1293:A2 I *D gf180mcu_fd_sc_mcu7t5v0__nand3_1
*I *1476:Q O *D gf180mcu_fd_sc_mcu7t5v0__dffrnq_1
*CAP
1 *1166:I 0.000232439
2 *1293:A2 0.000252863
3 *1476:Q 0
4 *356:6 0.000485302
5 *1466:CLK *1293:A2 0.00074316
6 *1470:D *1293:A2 0
7 *1470:CLK *1166:I 0.000115658
8 *1470:CLK *1293:A2 1.0603e-05
9 *1520:I *1166:I 3.37878e-06
10 *140:8 *1166:I 5.24641e-05
11 *140:8 *1293:A2 7.24282e-05
12 *350:25 *1166:I 0
*RES
1 *1476:Q *356:6 9 
2 *356:6 *1293:A2 11.912 
3 *356:6 *1166:I 10.872 
*END

*D_NET *357 0.00229191
*CONN
*I *1165:I I *D gf180mcu_fd_sc_mcu7t5v0__clkinv_1
*I *1289:A1 I *D gf180mcu_fd_sc_mcu7t5v0__nand3_1
*I *1477:Q O *D gf180mcu_fd_sc_mcu7t5v0__dffrnq_1
*CAP
1 *1165:I 0
2 *1289:A1 0.000142303
3 *1477:Q 0.00021249
4 *357:10 0.000354794
5 *1291:S *1289:A1 0.000438819
6 *1291:S *357:10 0.000271764
7 *1293:A1 *357:10 9.32019e-05
8 *1310:A1 *1289:A1 0.000331461
9 *1466:D *357:10 0.00026611
10 *1466:CLK *1289:A1 5.63044e-06
11 *1476:RN *1289:A1 8.75131e-05
12 *139:10 *1289:A1 6.34843e-05
13 *139:10 *357:10 9.80196e-06
14 *310:66 *1289:A1 1.23478e-05
15 *319:62 *357:10 2.19312e-06
*RES
1 *1477:Q *357:10 11.08 
2 *357:10 *1289:A1 11.08 
3 *357:10 *1165:I 9 
*END

*D_NET *358 0.0111578
*CONN
*I *1246:B I *D gf180mcu_fd_sc_mcu7t5v0__oai31_1
*I *1244:A2 I *D gf180mcu_fd_sc_mcu7t5v0__nand2_1
*I *1185:I I *D gf180mcu_fd_sc_mcu7t5v0__clkinv_1
*I *1502:D I *D gf180mcu_fd_sc_mcu7t5v0__dffsnq_1
*I *1236:A2 I *D gf180mcu_fd_sc_mcu7t5v0__nor2_1
*I *1238:A3 I *D gf180mcu_fd_sc_mcu7t5v0__or3_1
*I *1237:A3 I *D gf180mcu_fd_sc_mcu7t5v0__nor3_1
*I *1504:Q O *D gf180mcu_fd_sc_mcu7t5v0__dffsnq_1
*CAP
1 *1246:B 0.000127864
2 *1244:A2 0.000491878
3 *1185:I 0
4 *1502:D 0.000214672
5 *1236:A2 0
6 *1238:A3 0.000142134
7 *1237:A3 7.48455e-05
8 *1504:Q 0
9 *358:47 0.000655724
10 *358:43 0.00138648
11 *358:23 0.000228495
12 *358:12 0.000386681
13 *358:10 0.00108403
14 *358:6 0.000532872
15 *1246:B *365:14 2.14739e-05
16 *1246:B *365:20 1.07369e-05
17 *358:10 *359:27 0
18 *1237:A1 *1238:A3 4.33994e-05
19 *1237:A1 *358:23 4.7605e-05
20 *1237:A2 *1237:A3 0.000410048
21 *1237:A2 *358:12 0.000185295
22 *1237:A2 *358:23 0.000100557
23 *1243:A2 *1502:D 0.000122486
24 *1243:A3 *1246:B 3.22108e-05
25 *1248:A3 *358:10 8.58618e-05
26 *1248:A3 *358:12 0.000110346
27 *1248:A3 *358:43 0.000151966
28 *1249:A2 *358:47 8.77606e-06
29 *1249:B *1502:D 8.1598e-06
30 *1502:CLK *1502:D 4.07478e-05
31 *1531:I *358:43 0.000834041
32 *158:17 *1238:A3 0.000179953
33 *158:17 *358:23 7.93961e-05
34 *206:6 *1237:A3 9.09864e-05
35 *211:16 *1237:A3 2.39077e-05
36 *211:16 *358:12 0.000154513
37 *215:8 *1244:A2 4.43492e-05
38 *215:8 *358:47 3.37878e-06
39 *217:16 *1246:B 0.000213534
40 *217:16 *358:10 0.00106713
41 *218:12 *358:43 0.00063899
42 *218:33 *358:47 0.000158777
43 *294:52 *1246:B 7.45101e-06
44 *311:10 *358:10 3.60642e-05
45 *319:30 *358:12 0.000745673
46 *319:30 *358:43 0.000125251
47 *327:67 *1238:A3 4.90573e-05
*RES
1 *1504:Q *358:6 9 
2 *358:6 *358:10 8.14 
3 *358:10 *358:12 3.432 
4 *358:12 *1237:A3 5.644 
5 *358:12 *358:23 5.644 
6 *358:23 *1238:A3 10.56 
7 *358:23 *1236:A2 9 
8 *358:10 *358:43 11.26 
9 *358:43 *358:47 7.516 
10 *358:47 *1502:D 6.372 
11 *358:47 *1185:I 4.5 
12 *358:43 *1244:A2 11.6 
13 *358:6 *1246:B 10.04 
*END

*D_NET *359 0.00965068
*CONN
*I *1244:A1 I *D gf180mcu_fd_sc_mcu7t5v0__nand2_1
*I *1248:A1 I *D gf180mcu_fd_sc_mcu7t5v0__nor3_1
*I *1184:I I *D gf180mcu_fd_sc_mcu7t5v0__clkinv_1
*I *1243:A1 I *D gf180mcu_fd_sc_mcu7t5v0__and4_1
*I *1247:A1 I *D gf180mcu_fd_sc_mcu7t5v0__nor2_1
*I *1502:Q O *D gf180mcu_fd_sc_mcu7t5v0__dffsnq_1
*CAP
1 *1244:A1 8.47556e-05
2 *1248:A1 0
3 *1184:I 0.000170929
4 *1243:A1 0.000192195
5 *1247:A1 0.000651334
6 *1502:Q 0.000136708
7 *359:42 0.000232257
8 *359:27 0.000608332
9 *359:8 0.00132641
10 *359:6 0.00054173
11 *1244:A1 *360:29 2.98389e-05
12 *1247:A1 *365:20 0
13 *359:8 *360:29 4.32888e-05
14 *1243:A2 *1243:A1 0.000122244
15 *1243:A3 *1247:A1 0.000112175
16 *1243:A3 *359:8 3.36851e-05
17 *1247:A2 *1247:A1 0.000553789
18 *1249:B *1243:A1 0.000232388
19 *1272:A2 *1184:I 6.8808e-05
20 *1272:A2 *359:42 3.79374e-05
21 *1495:D *359:8 0
22 *1502:CLK *1243:A1 0.000161509
23 *1504:D *1184:I 2.71502e-05
24 *1504:CLK *1243:A1 2.38656e-05
25 *211:16 *1184:I 2.46831e-05
26 *211:20 *1184:I 0.000203739
27 *211:20 *359:42 0.000256274
28 *235:6 *359:8 2.79913e-05
29 *269:16 *1244:A1 6.63561e-05
30 *269:16 *359:8 0.000532701
31 *269:32 *1247:A1 0.000388555
32 *269:32 *359:8 0.000676838
33 *294:58 *1243:A1 0.000501766
34 *294:58 *359:27 0.00147603
35 *311:10 *359:27 0.000104425
36 *358:10 *359:27 0
*RES
1 *1502:Q *359:6 5.436 
2 *359:6 *359:8 3.848 
3 *359:8 *1247:A1 10.22 
4 *359:8 *359:27 8.556 
5 *359:27 *1243:A1 12.328 
6 *359:27 *359:42 5.228 
7 *359:42 *1184:I 15.372 
8 *359:42 *1248:A1 4.5 
9 *359:6 *1244:A1 5.228 
*END

*D_NET *360 0.0107041
*CONN
*I *1245:A1 I *D gf180mcu_fd_sc_mcu7t5v0__nor3_1
*I *1288:I1 I *D gf180mcu_fd_sc_mcu7t5v0__mux2_2
*I *1268:A1 I *D gf180mcu_fd_sc_mcu7t5v0__xor2_1
*I *1343:A1 I *D gf180mcu_fd_sc_mcu7t5v0__oai32_1
*I *1500:D I *D gf180mcu_fd_sc_mcu7t5v0__dffsnq_1
*I *1503:Q O *D gf180mcu_fd_sc_mcu7t5v0__dffsnq_1
*CAP
1 *1245:A1 8.29241e-05
2 *1288:I1 0.00118509
3 *1268:A1 0.000420879
4 *1343:A1 0
5 *1500:D 0.000105095
6 *1503:Q 0.000827889
7 *360:31 0.000420879
8 *360:29 0.00160157
9 *360:23 0.0010424
10 *360:8 0.00147598
11 *1288:I1 *1187:I 0.000336154
12 *1244:A1 *360:29 2.98389e-05
13 *1245:A3 *360:29 6.18411e-06
14 *1268:A2 *360:8 0
15 *1268:A2 *360:23 0
16 *1269:A2 *1245:A1 0.000190633
17 *1269:A2 *360:23 0.00042505
18 *1269:A2 *360:29 3.18441e-05
19 *1339:A2 *360:23 0
20 *1340:A2 *360:29 1.83778e-05
21 *1343:A2 *1268:A1 0.00126446
22 *1343:B1 *1268:A1 4.18157e-05
23 *1468:D *1288:I1 7.17602e-05
24 *1495:RN *1288:I1 0
25 *1500:CLK *360:8 2.38865e-05
26 *1500:CLK *360:23 2.73715e-06
27 *1528:I *360:8 0.000150317
28 *10:12 *360:8 2.35354e-05
29 *157:24 *1268:A1 7.17602e-05
30 *157:24 *360:23 2.24654e-05
31 *214:10 *360:29 0
32 *235:6 *1268:A1 2.39523e-06
33 *235:6 *360:29 0.000732966
34 *269:16 *360:23 1.25588e-05
35 *269:16 *360:29 4.69619e-06
36 *294:44 *1288:I1 0
37 *297:67 *1268:A1 0
38 *297:67 *1288:I1 0
39 *318:31 *360:8 3.46633e-05
40 *359:8 *360:29 4.32888e-05
*RES
1 *1503:Q *360:8 10.324 
2 *360:8 *1500:D 5.228 
3 *360:8 *360:23 4.576 
4 *360:23 *360:29 8.452 
5 *360:29 *360:31 4.5 
6 *360:31 *1343:A1 4.5 
7 *360:31 *1268:A1 9.18 
8 *360:29 *1288:I1 17.112 
9 *360:23 *1245:A1 5.332 
*END

*D_NET *361 0.000968087
*CONN
*I *1183:I I *D gf180mcu_fd_sc_mcu7t5v0__clkinv_1
*I *1500:Q O *D gf180mcu_fd_sc_mcu7t5v0__dffsnq_1
*CAP
1 *1183:I 0.000336053
2 *1500:Q 0.000336053
3 *1452:D *1183:I 0
4 *1453:D *1183:I 3.55894e-05
5 *1500:SETN *1183:I 9.09749e-05
6 *297:61 *1183:I 0.000125251
7 *315:43 *1183:I 4.41641e-05
*RES
1 *1500:Q *1183:I 21.12 
*END

*D_NET *362 0.00482408
*CONN
*I *1273:A1 I *D gf180mcu_fd_sc_mcu7t5v0__nand2_1
*I *1353:B2 I *D gf180mcu_fd_sc_mcu7t5v0__aoi22_1
*I *1240:A1 I *D gf180mcu_fd_sc_mcu7t5v0__nor2_1
*I *1241:A2 I *D gf180mcu_fd_sc_mcu7t5v0__or3_1
*I *1492:Q O *D gf180mcu_fd_sc_mcu7t5v0__dffrnq_1
*CAP
1 *1273:A1 0
2 *1353:B2 0
3 *1240:A1 0.000128912
4 *1241:A2 0.000223283
5 *1492:Q 0.000594161
6 *362:14 0.000608847
7 *362:12 0.000475576
8 *362:10 0.000813085
9 *1240:A1 *1240:A2 0.000228035
10 *1240:A1 *363:31 4.82113e-05
11 *1240:A1 *366:35 0.000256274
12 *1241:A2 *1347:B 0.000109233
13 *1241:A2 *363:35 4.93741e-05
14 *1241:A2 *364:18 4.74266e-06
15 *1241:A2 *366:35 3.3698e-05
16 *362:10 *364:10 0.000272153
17 *362:12 *364:10 1.18566e-06
18 *362:12 *364:12 4.01343e-05
19 *362:14 *364:12 2.401e-05
20 *362:14 *364:18 6.99757e-06
21 *1353:A2 *1240:A1 0.000113016
22 *1354:A2 *1240:A1 9.65688e-05
23 *1492:CLK *1240:A1 0.000651459
24 *207:25 *362:10 0
25 *207:25 *362:12 0
26 *207:25 *362:14 0
27 *270:22 *1240:A1 0
28 *271:19 *1241:A2 6.52687e-06
29 *271:19 *362:14 1.23184e-05
30 *348:18 *362:10 2.62781e-05
*RES
1 *1492:Q *362:10 13.992 
2 *362:10 *362:12 1.768 
3 *362:12 *362:14 1.56 
4 *362:14 *1241:A2 10.248 
5 *362:14 *1240:A1 11.808 
6 *362:12 *1353:B2 9 
7 *362:10 *1273:A1 9 
*END

*D_NET *363 0.00970809
*CONN
*I *1241:A1 I *D gf180mcu_fd_sc_mcu7t5v0__or3_1
*I *1351:B I *D gf180mcu_fd_sc_mcu7t5v0__oai21_1
*I *1271:A1 I *D gf180mcu_fd_sc_mcu7t5v0__aoi211_1
*I *1186:I I *D gf180mcu_fd_sc_mcu7t5v0__clkinv_1
*I *1493:Q O *D gf180mcu_fd_sc_mcu7t5v0__dffrnq_1
*CAP
1 *1241:A1 0
2 *1351:B 0.000265299
3 *1271:A1 7.51823e-05
4 *1186:I 0.00100644
5 *1493:Q 0.000110984
6 *363:35 0.00114247
7 *363:31 0.00100423
8 *363:8 0.00131966
9 *1186:I *366:12 8.4555e-05
10 *1186:I *366:35 0.00097095
11 *363:31 *1347:B 0.000109233
12 *363:31 *364:18 0.000245133
13 *363:31 *366:35 0.000693181
14 *363:35 *364:18 7.75811e-06
15 *1240:A1 *363:31 4.82113e-05
16 *1241:A2 *363:35 4.93741e-05
17 *1266:A2 *1271:A1 2.38773e-05
18 *1271:C *1271:A1 0.000122244
19 *1272:A2 *1351:B 1.35124e-05
20 *1338:A2 *363:35 0.000152501
21 *1341:A1 *1186:I 0.000287875
22 *1341:B1 *1186:I 6.2687e-05
23 *1341:B2 *1186:I 0
24 *1342:A1 *1186:I 4.1437e-05
25 *1342:A2 *1186:I 4.96829e-06
26 *1342:B2 *1186:I 0.000521005
27 *1351:A1 *1271:A1 0
28 *1351:A1 *363:35 0
29 *1465:CLK *1186:I 0
30 *1492:CLK *363:31 0.000488468
31 *1493:RN *1186:I 0.000144482
32 *1493:RN *363:8 2.63437e-05
33 *1493:RN *363:31 4.94729e-05
34 *211:10 *363:35 1.80186e-05
35 *211:16 *1351:B 4.07478e-05
36 *211:16 *363:35 8.77606e-06
37 *212:23 *1271:A1 0.000292328
38 *212:23 *363:35 0.000229992
39 *231:29 *1351:B 2.70107e-05
40 *270:22 *1186:I 1.96837e-05
41 *271:19 *363:35 0
*RES
1 *1493:Q *363:8 5.332 
2 *363:8 *1186:I 22.652 
3 *363:8 *363:31 3.432 
4 *363:31 *363:35 9.388 
5 *363:35 *1271:A1 10.04 
6 *363:35 *1351:B 10.456 
7 *363:31 *1241:A1 4.5 
*END

*D_NET *364 0.00700787
*CONN
*I *1345:A1 I *D gf180mcu_fd_sc_mcu7t5v0__and2_1
*I *1240:A2 I *D gf180mcu_fd_sc_mcu7t5v0__nor2_1
*I *1347:B I *D gf180mcu_fd_sc_mcu7t5v0__oai21_1
*I *1241:A3 I *D gf180mcu_fd_sc_mcu7t5v0__or3_1
*I *1494:Q O *D gf180mcu_fd_sc_mcu7t5v0__dffrnq_1
*CAP
1 *1345:A1 9.07747e-05
2 *1240:A2 5.9784e-05
3 *1347:B 0.000179309
4 *1241:A3 0.000104683
5 *1494:Q 0.00085914
6 *364:18 0.000566026
7 *364:12 0.000736569
8 *364:10 0.00134467
9 *1240:A2 *366:35 2.24654e-05
10 *1241:A3 *366:35 9.51054e-06
11 *1347:B *366:35 6.7679e-05
12 *364:18 *366:35 5.93494e-05
13 *1240:A1 *1240:A2 0.000228035
14 *1241:A2 *1347:B 0.000109233
15 *1241:A2 *364:18 4.74266e-06
16 *1345:A2 *1345:A1 0.000296566
17 *1354:A2 *1240:A2 0.000663752
18 *1469:D *364:10 7.17602e-05
19 *1492:CLK *1347:B 0.000530654
20 *1494:RN *364:10 0
21 *237:8 *1345:A1 0.000296566
22 *310:96 *364:10 0
23 *348:18 *364:10 0
24 *348:24 *364:10 0
25 *362:10 *364:10 0.000272153
26 *362:12 *364:10 1.18566e-06
27 *362:12 *364:12 4.01343e-05
28 *362:14 *364:12 2.401e-05
29 *362:14 *364:18 6.99757e-06
30 *363:31 *1347:B 0.000109233
31 *363:31 *364:18 0.000245133
32 *363:35 *364:18 7.75811e-06
*RES
1 *1494:Q *364:10 15.864 
2 *364:10 *364:12 2.808 
3 *364:12 *364:18 6.372 
4 *364:18 *1241:A3 5.228 
5 *364:18 *1347:B 6.892 
6 *364:12 *1240:A2 10.768 
7 *364:10 *1345:A1 10.976 
*END

*D_NET *365 0.00846069
*CONN
*I *1187:I I *D gf180mcu_fd_sc_mcu7t5v0__clkinv_1
*I *1246:A1 I *D gf180mcu_fd_sc_mcu7t5v0__oai31_1
*I *1239:A1 I *D gf180mcu_fd_sc_mcu7t5v0__nor3_1
*I *1349:A1 I *D gf180mcu_fd_sc_mcu7t5v0__nand2_1
*I *1495:Q O *D gf180mcu_fd_sc_mcu7t5v0__dffrnq_1
*CAP
1 *1187:I 0.000260436
2 *1246:A1 0
3 *1239:A1 0
4 *1349:A1 0.000569483
5 *1495:Q 0.000453245
6 *365:20 0.000806103
7 *365:14 0.000864164
8 *365:8 0.00134123
9 *1349:A1 *366:45 0.00134834
10 *365:20 *1246:A2 6.46582e-05
11 *365:20 *366:45 5.29591e-05
12 *1243:A3 *365:14 7.73997e-05
13 *1243:A3 *365:20 0.000312805
14 *1246:B *365:14 2.14739e-05
15 *1246:B *365:20 1.07369e-05
16 *1247:A1 *365:20 0
17 *1288:I1 *1187:I 0.000336154
18 *1348:A1 *1349:A1 5.02077e-05
19 *1352:A1 *1349:A1 3.22441e-06
20 *1353:A2 *1349:A1 0.000614165
21 *1494:D *1349:A1 7.0656e-05
22 *1495:D *1187:I 2.62781e-05
23 *1495:D *365:14 0.000194511
24 *1495:CLK *365:14 2.38773e-05
25 *231:14 *1349:A1 1.18566e-06
26 *235:18 *1349:A1 0
27 *269:32 *1349:A1 7.45101e-06
28 *269:34 *1349:A1 0
29 *270:22 *1187:I 0
30 *270:22 *365:14 0.000384366
31 *270:22 *365:20 6.32781e-05
32 *294:12 *1349:A1 0.000316249
33 *294:31 *365:20 1.71324e-06
34 *294:52 *365:14 0.000106745
35 *311:58 *365:8 7.75984e-05
*RES
1 *1495:Q *365:8 12.432 
2 *365:8 *365:14 10.324 
3 *365:14 *365:20 2.392 
4 *365:20 *1349:A1 19.532 
5 *365:20 *1239:A1 4.5 
6 *365:14 *1246:A1 4.5 
7 *365:8 *1187:I 11.392 
*END

*D_NET *366 0.0130581
*CONN
*I *1346:A1 I *D gf180mcu_fd_sc_mcu7t5v0__nand2_1
*I *1246:A2 I *D gf180mcu_fd_sc_mcu7t5v0__oai31_1
*I *1239:A2 I *D gf180mcu_fd_sc_mcu7t5v0__nor3_1
*I *1188:I I *D gf180mcu_fd_sc_mcu7t5v0__clkinv_1
*I *1496:Q O *D gf180mcu_fd_sc_mcu7t5v0__dffrnq_1
*CAP
1 *1346:A1 0
2 *1246:A2 0.000218164
3 *1239:A2 0
4 *1188:I 0
5 *1496:Q 0.00122339
6 *366:45 0.000675157
7 *366:35 0.00181469
8 *366:12 0.00258108
9 *1246:A2 *1246:A3 0.000106723
10 *1186:I *366:12 8.4555e-05
11 *1186:I *366:35 0.00097095
12 *1240:A1 *366:35 0.000256274
13 *1240:A2 *366:35 2.24654e-05
14 *1241:A2 *366:35 3.3698e-05
15 *1241:A3 *366:35 9.51054e-06
16 *1277:B *366:12 0
17 *1292:I0 *366:12 0.000872367
18 *1338:A2 *366:35 0
19 *1342:A1 *366:35 0.000194054
20 *1342:B2 *366:12 1.05283e-05
21 *1347:B *366:35 6.7679e-05
22 *1348:A2 *1246:A2 0
23 *1349:A1 *366:45 0.00134834
24 *1353:A2 *366:45 1.06742e-05
25 *1354:A1 *366:12 3.50199e-05
26 *1354:A2 *366:35 2.36218e-05
27 *1492:CLK *366:35 2.28534e-05
28 *1493:RN *366:35 0
29 *1494:D *366:45 0.000720662
30 *1501:D *366:12 1.23742e-05
31 *207:10 *366:35 0
32 *210:6 *366:35 0.000183045
33 *211:10 *366:35 3.51877e-05
34 *231:14 *366:45 7.63703e-05
35 *237:19 *366:12 4.08585e-05
36 *237:34 *366:12 3.08279e-06
37 *269:34 *366:35 0.000325477
38 *270:22 *366:12 2.20381e-05
39 *294:12 *366:35 9.84961e-06
40 *294:12 *366:45 0.0001714
41 *294:31 *1246:A2 5.78216e-06
42 *294:31 *366:45 0
43 *319:30 *366:35 0
44 *363:31 *366:35 0.000693181
45 *364:18 *366:35 5.93494e-05
46 *365:20 *1246:A2 6.46582e-05
47 *365:20 *366:45 5.29591e-05
*RES
1 *1496:Q *366:12 22.236 
2 *366:12 *1188:I 4.5 
3 *366:12 *366:35 21.168 
4 *366:35 *366:45 14.512 
5 *366:45 *1239:A2 4.5 
6 *366:45 *1246:A2 6.58 
7 *366:35 *1346:A1 4.5 
*END

*D_NET *367 0.0125479
*CONN
*I *1246:A3 I *D gf180mcu_fd_sc_mcu7t5v0__oai31_1
*I *1239:A3 I *D gf180mcu_fd_sc_mcu7t5v0__nor3_1
*I *1353:A1 I *D gf180mcu_fd_sc_mcu7t5v0__aoi22_1
*I *1189:I I *D gf180mcu_fd_sc_mcu7t5v0__clkinv_1
*I *1497:Q O *D gf180mcu_fd_sc_mcu7t5v0__dffrnq_1
*CAP
1 *1246:A3 0.000169217
2 *1239:A3 0
3 *1353:A1 0
4 *1189:I 7.29915e-05
5 *1497:Q 0.000158336
6 *367:38 0.000841875
7 *367:23 0.00182174
8 *367:8 0.00138041
9 *1246:A2 *1246:A3 0.000106723
10 *1348:A1 *367:38 1.38844e-05
11 *1354:A2 *367:23 0.000129822
12 *1465:D *1189:I 0.000125251
13 *1465:D *367:23 3.74436e-06
14 *1465:CLK *1189:I 0.000125251
15 *294:31 *1246:A3 0.000337769
16 *301:10 *367:8 0
17 *301:10 *367:23 0
18 *301:12 *367:23 0.00434769
19 *301:12 *367:38 0.00285211
20 *311:31 *1246:A3 4.98252e-05
21 *311:31 *367:38 1.12352e-05
22 *319:62 *367:8 0
23 *319:62 *367:23 0
*RES
1 *1497:Q *367:8 9.936 
2 *367:8 *1189:I 9.936 
3 *367:8 *367:23 16.564 
4 *367:23 *1353:A1 13.5 
5 *367:23 *367:38 12.196 
6 *367:38 *1239:A3 9 
7 *367:38 *1246:A3 10.976 
*END

*D_NET *368 0.00309905
*CONN
*I *1310:A3 I *D gf180mcu_fd_sc_mcu7t5v0__and3_1
*I *1293:A3 I *D gf180mcu_fd_sc_mcu7t5v0__nand3_1
*I *1289:A3 I *D gf180mcu_fd_sc_mcu7t5v0__nand3_1
*I *1501:Q O *D gf180mcu_fd_sc_mcu7t5v0__dffrnq_1
*CAP
1 *1310:A3 0.000110428
2 *1293:A3 0
3 *1289:A3 0
4 *1501:Q 3.811e-05
5 *368:19 0.000287258
6 *368:8 0.000214939
7 *1310:A1 *1310:A3 5.62982e-05
8 *1466:CLK *1310:A3 0.00103152
9 *1476:RN *1310:A3 0.000653003
10 *349:25 *368:8 0.000196748
11 *349:25 *368:19 0.000510747
*RES
1 *1501:Q *368:8 9.52 
2 *368:8 *1289:A3 9 
3 *368:8 *368:19 6.06 
4 *368:19 *1293:A3 4.5 
5 *368:19 *1310:A3 7.308 
*END

*D_NET *369 0.00774304
*CONN
*I *1227:A1 I *D gf180mcu_fd_sc_mcu7t5v0__nand2_1
*I *1228:A2 I *D gf180mcu_fd_sc_mcu7t5v0__nand4_1
*I *1161:I I *D gf180mcu_fd_sc_mcu7t5v0__clkinv_1
*I *1484:Q O *D gf180mcu_fd_sc_mcu7t5v0__dffrnq_1
*CAP
1 *1227:A1 0.000218477
2 *1228:A2 0.000247348
3 *1161:I 0.000811087
4 *1484:Q 0.00055008
5 *369:12 0.00134915
6 *369:8 0.00105927
7 *1161:I *1202:A1 0
8 *1161:I *371:10 1.74802e-05
9 *1227:A1 *1232:A1 0.000419265
10 *1228:A2 *370:16 0.000124533
11 *1228:A2 *371:10 1.02007e-05
12 *1203:C *1161:I 4.57914e-05
13 *1226:A2 *1228:A2 0.000159517
14 *1227:A2 *1227:A1 0.000275028
15 *1232:A2 *1227:A1 0.000209684
16 *1233:A3 *1227:A1 0.000112472
17 *1234:A2 *1161:I 0.000100752
18 *1234:A2 *1228:A2 9.09864e-05
19 *1485:D *1227:A1 0.000945427
20 *1513:I *1161:I 6.862e-05
21 *1519:I *1161:I 2.93608e-05
22 *199:6 *1228:A2 0
23 *199:17 *369:8 4.38131e-05
24 *199:17 *369:12 0.000180928
25 *199:32 *369:8 0.000517404
26 *199:45 *369:8 0.00013646
27 *300:31 *1161:I 0
28 *300:31 *369:12 1.99013e-05
*RES
1 *1484:Q *369:8 15.344 
2 *369:8 *369:12 6.892 
3 *369:12 *1161:I 19.636 
4 *369:12 *1228:A2 6.996 
5 *369:8 *1227:A1 13.264 
*END

*D_NET *370 0.00802799
*CONN
*I *1232:A1 I *D gf180mcu_fd_sc_mcu7t5v0__xor2_1
*I *1228:A1 I *D gf180mcu_fd_sc_mcu7t5v0__nand4_1
*I *1199:A1 I *D gf180mcu_fd_sc_mcu7t5v0__aoi22_1
*I *1200:A1 I *D gf180mcu_fd_sc_mcu7t5v0__oai221_1
*I *1485:Q O *D gf180mcu_fd_sc_mcu7t5v0__dffrnq_1
*CAP
1 *1232:A1 4.0528e-05
2 *1228:A1 2.29318e-05
3 *1199:A1 0
4 *1200:A1 0.000123108
5 *1485:Q 0.000541721
6 *370:16 0.000865197
7 *370:12 0.00102251
8 *370:8 0.000839736
9 *1199:A2 *1200:A1 0.000428493
10 *1199:B2 *1200:A1 5.40727e-05
11 *1200:A2 *1200:A1 1.12327e-05
12 *1200:C *1200:A1 1.23682e-05
13 *1200:C *370:16 0
14 *1203:A2 *1200:A1 0
15 *1226:A2 *1228:A1 1.23682e-05
16 *1227:A1 *1232:A1 0.000419265
17 *1227:A2 *1232:A1 0.000337769
18 *1228:A2 *370:16 0.000124533
19 *1233:A1 *370:16 5.94083e-05
20 *1234:A2 *370:16 0.00210379
21 *1235:A2 *370:16 0
22 *1235:A3 *370:16 3.3698e-05
23 *1389:I *370:8 0.000345096
24 *1389:I *370:12 8.80767e-05
25 *1450:CLK *1200:A1 1.63544e-05
26 *1450:CLK *370:16 4.67771e-06
27 *1485:CLK *1228:A1 2.38773e-05
28 *1485:CLK *370:16 7.96024e-05
29 *1513:I *370:16 2.47989e-05
30 *199:17 *370:8 0
31 *199:17 *370:12 0
32 *199:32 *370:8 0
33 *199:45 *370:8 0
34 *300:25 *370:16 0.000231744
35 *300:27 *370:16 0.000124068
36 *300:31 *370:12 3.6966e-05
*RES
1 *1485:Q *370:8 14.512 
2 *370:8 *370:12 6.476 
3 *370:12 *370:16 8.944 
4 *370:16 *1200:A1 6.06 
5 *370:16 *1199:A1 4.5 
6 *370:12 *1228:A1 4.812 
7 *370:8 *1232:A1 10.144 
*END

*D_NET *371 0.00234788
*CONN
*I *1202:A1 I *D gf180mcu_fd_sc_mcu7t5v0__xor2_1
*I *1160:I I *D gf180mcu_fd_sc_mcu7t5v0__clkinv_1
*I *1486:Q O *D gf180mcu_fd_sc_mcu7t5v0__dffrnq_1
*CAP
1 *1202:A1 0.000360995
2 *1160:I 0.000184804
3 *1486:Q 0.000368875
4 *371:10 0.000914674
5 *1161:I *1202:A1 0
6 *1161:I *371:10 1.74802e-05
7 *1202:A2 *1202:A1 4.67771e-06
8 *1228:A2 *371:10 1.02007e-05
9 *1440:I *1202:A1 0.000380013
10 *1486:RN *371:10 0
11 *300:31 *1160:I 5.13873e-05
12 *300:31 *371:10 5.47697e-05
*RES
1 *1486:Q *371:10 11.912 
2 *371:10 *1160:I 10.768 
3 *371:10 *1202:A1 12.224 
*END

*D_NET *372 0.00725344
*CONN
*I *1203:B1 I *D gf180mcu_fd_sc_mcu7t5v0__aoi221_1
*I *1205:C1 I *D gf180mcu_fd_sc_mcu7t5v0__oai222_1
*I *1182:I I *D gf180mcu_fd_sc_mcu7t5v0__clkinv_1
*I *1336:A1 I *D gf180mcu_fd_sc_mcu7t5v0__nor2_1
*I *1487:Q O *D gf180mcu_fd_sc_mcu7t5v0__dffrnq_1
*CAP
1 *1203:B1 0.000295622
2 *1205:C1 0.000205192
3 *1182:I 0
4 *1336:A1 0.000218982
5 *1487:Q 0.000289874
6 *372:36 0.00142901
7 *372:23 0.0010075
8 *372:10 0.000588161
9 *1203:B1 *1199:B1 0.000331771
10 *1203:B1 *375:10 3.27257e-05
11 *1205:C1 *1205:B1 4.67771e-06
12 *1205:C1 *375:6 0
13 *1193:I *1336:A1 0
14 *1202:A2 *372:36 0
15 *1229:A1 *372:10 9.09864e-05
16 *1231:A1 *372:36 0
17 *1231:A2 *372:10 0
18 *1231:A3 *372:23 0
19 *1231:A3 *372:36 0
20 *1324:A2 *372:10 0.000360248
21 *1336:A2 *1336:A1 0
22 *1336:A2 *372:23 0
23 *1337:A4 *1336:A1 0
24 *1380:I *372:36 0.000202464
25 *1388:I *1336:A1 0.000488468
26 *1388:I *372:10 2.79876e-05
27 *1440:I *372:36 0
28 *1490:RN *1205:C1 0.000113016
29 *1490:RN *372:36 0.000500772
30 *27:10 *1336:A1 2.98389e-05
31 *134:8 *372:36 0
32 *134:10 *372:36 0
33 *179:18 *1203:B1 0
34 *179:38 *1203:B1 0
35 *202:8 *372:10 2.71548e-05
36 *259:10 *1336:A1 0.000438808
37 *259:10 *372:10 0.000193782
38 *302:10 *372:36 0
39 *316:62 *1336:A1 1.49202e-05
40 *316:73 *1336:A1 8.61067e-05
41 *316:73 *372:23 5.6943e-05
42 *316:73 *372:36 0.000218434
*RES
1 *1487:Q *372:10 12.12 
2 *372:10 *1336:A1 11.912 
3 *372:10 *372:23 0.936 
4 *372:23 *1182:I 9 
5 *372:23 *372:36 12.612 
6 *372:36 *1205:C1 5.852 
7 *372:36 *1203:B1 15.892 
*END

*D_NET *373 0.0085547
*CONN
*I *1326:A2 I *D gf180mcu_fd_sc_mcu7t5v0__nand3_1
*I *1334:A1 I *D gf180mcu_fd_sc_mcu7t5v0__xnor2_1
*I *1325:A1 I *D gf180mcu_fd_sc_mcu7t5v0__nand2_1
*I *1327:A3 I *D gf180mcu_fd_sc_mcu7t5v0__nand4_1
*I *1198:A2 I *D gf180mcu_fd_sc_mcu7t5v0__xor2_1
*I *1488:Q O *D gf180mcu_fd_sc_mcu7t5v0__dffrnq_1
*CAP
1 *1326:A2 9.87973e-05
2 *1334:A1 0.0002476
3 *1325:A1 9.46566e-05
4 *1327:A3 0
5 *1198:A2 0.000440183
6 *1488:Q 1.76501e-05
7 *373:36 0.000660109
8 *373:12 0.000583556
9 *373:8 0.000586193
10 *373:6 0.000241414
11 *1198:A2 *1328:A1 0.000701122
12 *1198:A2 *374:27 0.000500772
13 *1326:A2 *1326:A1 3.42651e-05
14 *1326:A2 *1330:A1 3.4596e-05
15 *373:8 *1326:A1 3.69036e-05
16 *373:12 *1326:A1 1.81425e-05
17 *373:12 *374:40 5.51506e-05
18 *1193:I *1325:A1 2.08037e-05
19 *1193:I *1334:A1 5.73867e-05
20 *1325:A2 *1325:A1 0.000428493
21 *1325:A2 *1334:A1 7.22679e-05
22 *1326:A3 *1326:A2 3.56849e-05
23 *1326:A3 *373:6 5.92716e-05
24 *1326:A3 *373:8 0.000103703
25 *1327:A4 *373:8 6.91919e-05
26 *1327:A4 *373:12 0.000500761
27 *1329:A3 *1198:A2 0.000197059
28 *1330:A2 *1326:A2 0.000113016
29 *1333:A1 *1198:A2 0
30 *303:27 *1334:A1 0.00104095
31 *303:40 *373:36 0.0014923
32 *315:69 *1198:A2 0
33 *318:56 *373:36 1.27019e-05
34 *325:61 *1198:A2 0
35 *325:61 *373:12 0
*RES
1 *1488:Q *373:6 4.812 
2 *373:6 *373:8 1.144 
3 *373:8 *373:12 1.872 
4 *373:12 *1198:A2 18.492 
5 *373:12 *1327:A3 4.5 
6 *373:8 *373:36 13.056 
7 *373:36 *1325:A1 5.644 
8 *373:36 *1334:A1 7.516 
9 *373:6 *1326:A2 5.748 
*END

*D_NET *374 0.00957564
*CONN
*I *1326:A1 I *D gf180mcu_fd_sc_mcu7t5v0__nand3_1
*I *1201:B1 I *D gf180mcu_fd_sc_mcu7t5v0__aoi221_1
*I *1205:B1 I *D gf180mcu_fd_sc_mcu7t5v0__oai222_1
*I *1327:A2 I *D gf180mcu_fd_sc_mcu7t5v0__nand4_1
*I *1332:A1 I *D gf180mcu_fd_sc_mcu7t5v0__xor2_1
*I *1489:Q O *D gf180mcu_fd_sc_mcu7t5v0__dffrnq_1
*CAP
1 *1326:A1 0.000147935
2 *1201:B1 0.000234929
3 *1205:B1 0.000170653
4 *1327:A2 0
5 *1332:A1 0.000282717
6 *1489:Q 0.000172185
7 *374:44 0.000828986
8 *374:40 0.000702351
9 *374:27 0.000346512
10 *374:8 0.000670402
11 *1326:A1 *1327:A1 0.000725472
12 *374:40 *1327:A1 0.000341936
13 *1193:I *1332:A1 1.19663e-05
14 *1198:A2 *374:27 0.000500772
15 *1202:A2 *1201:B1 0.000960784
16 *1205:B2 *1201:B1 0.000370419
17 *1205:B2 *1205:B1 0.000139728
18 *1205:C1 *1205:B1 4.67771e-06
19 *1326:A2 *1326:A1 3.42651e-05
20 *1328:A2 *374:27 0.000146725
21 *1329:A3 *1332:A1 0.000367033
22 *1329:A3 *374:27 0.000274703
23 *1330:A2 *1326:A1 0.000191446
24 *1333:A1 *1332:A1 0.000287149
25 *1333:A1 *374:8 0
26 *1333:A2 *1332:A1 0.000278823
27 *1489:RN *1332:A1 9.00616e-05
28 *1489:RN *374:27 3.29691e-05
29 *1491:D *374:8 0
30 *152:25 *1201:B1 1.07369e-05
31 *153:27 *1205:B1 0.000631684
32 *292:72 *1201:B1 0.000166676
33 *292:72 *374:44 0.000129869
34 *315:69 *374:27 0
35 *315:71 *1332:A1 0
36 *315:71 *374:27 0
37 *318:56 *374:44 0.000210877
38 *373:8 *1326:A1 3.69036e-05
39 *373:12 *1326:A1 1.81425e-05
40 *373:12 *374:40 5.51506e-05
*RES
1 *1489:Q *374:8 9.936 
2 *374:8 *1332:A1 12.952 
3 *374:8 *374:27 7.308 
4 *374:27 *1327:A2 4.5 
5 *374:27 *374:40 1.872 
6 *374:40 *374:44 8.764 
7 *374:44 *1205:B1 10.976 
8 *374:44 *1201:B1 12.744 
9 *374:40 *1326:A1 6.684 
*END

*D_NET *375 0.00724984
*CONN
*I *1199:B1 I *D gf180mcu_fd_sc_mcu7t5v0__aoi22_1
*I *1205:A2 I *D gf180mcu_fd_sc_mcu7t5v0__oai222_1
*I *1327:A1 I *D gf180mcu_fd_sc_mcu7t5v0__nand4_1
*I *1330:A1 I *D gf180mcu_fd_sc_mcu7t5v0__xor2_1
*I *1490:Q O *D gf180mcu_fd_sc_mcu7t5v0__dffrnq_1
*CAP
1 *1199:B1 0.000419666
2 *1205:A2 0
3 *1327:A1 0.000313523
4 *1330:A1 0.000480723
5 *1490:Q 0
6 *375:10 0.00122471
7 *375:6 0.000534173
8 *375:4 0.000523372
9 *1199:B2 *1199:B1 0.000124391
10 *1202:A2 *375:6 0.000410048
11 *1203:A2 *1199:B1 0.000131729
12 *1203:B1 *1199:B1 0.000331771
13 *1203:B1 *375:10 3.27257e-05
14 *1203:B2 *1199:B1 5.75011e-06
15 *1203:B2 *375:10 0.000427061
16 *1205:A1 *1199:B1 5.24296e-05
17 *1205:B2 *375:6 3.4596e-05
18 *1205:C1 *375:6 0
19 *1205:C2 *375:10 0.000367033
20 *1206:A2 *1199:B1 8.77606e-06
21 *1234:A1 *1199:B1 0
22 *1326:A1 *1327:A1 0.000725472
23 *1326:A2 *1330:A1 3.4596e-05
24 *1326:A3 *1330:A1 7.87395e-06
25 *1330:A2 *1330:A1 0.000390761
26 *1331:A3 *1330:A1 0
27 *1490:RN *375:6 2.73715e-06
28 *1490:CLK *1330:A1 2.90152e-05
29 *1513:I *1199:B1 5.20069e-05
30 *302:10 *375:10 0
31 *318:56 *1330:A1 5.35037e-05
32 *318:56 *375:10 0.000189451
33 *325:55 *1330:A1 0
34 *325:61 *1330:A1 0
35 *374:40 *1327:A1 0.000341936
*RES
1 *1490:Q *375:4 4.5 
2 *375:4 *375:6 1.144 
3 *375:6 *375:10 9.388 
4 *375:10 *1330:A1 12.952 
5 *375:10 *1327:A1 12.328 
6 *375:6 *1205:A2 4.5 
7 *375:4 *1199:B1 17.348 
*END

*D_NET *376 0.00269986
*CONN
*I *1328:A1 I *D gf180mcu_fd_sc_mcu7t5v0__xor2_1
*I *1181:I I *D gf180mcu_fd_sc_mcu7t5v0__clkinv_1
*I *1491:Q O *D gf180mcu_fd_sc_mcu7t5v0__dffrnq_1
*CAP
1 *1328:A1 0.000263381
2 *1181:I 0.000178421
3 *1491:Q 9.05496e-05
4 *376:6 0.000532351
5 *1198:A1 *1328:A1 0.000583324
6 *1198:A1 *376:6 0.000337769
7 *1198:A2 *1328:A1 0.000701122
8 *1491:RN *376:6 1.29379e-05
9 *315:65 *376:6 0
10 *315:69 *1328:A1 0
*RES
1 *1491:Q *376:6 5.436 
2 *376:6 *1181:I 14.644 
3 *376:6 *1328:A1 17.036 
*END

*D_NET *377 0.00417437
*CONN
*I *1499:D I *D gf180mcu_fd_sc_mcu7t5v0__dffrnq_1
*I *1228:A3 I *D gf180mcu_fd_sc_mcu7t5v0__nand4_1
*I *1226:A1 I *D gf180mcu_fd_sc_mcu7t5v0__and2_1
*I *1498:Q O *D gf180mcu_fd_sc_mcu7t5v0__dffrnq_1
*CAP
1 *1499:D 0
2 *1228:A3 6.0666e-05
3 *1226:A1 0.000207596
4 *1498:Q 0.000339703
5 *377:16 0.000762964
6 *377:10 0.000834404
7 *1226:A2 *1226:A1 0.000184188
8 *1389:I *1228:A3 2.47495e-05
9 *1499:CLK *377:16 0.000125933
10 *164:10 *1228:A3 8.05935e-05
11 *164:10 *377:16 0.000367033
12 *201:8 *1228:A3 8.23372e-05
13 *201:8 *377:10 9.17646e-05
14 *201:8 *377:16 0.000912093
15 *201:14 *377:10 0.000100342
16 *300:31 *1228:A3 0
17 *300:31 *377:16 0
*RES
1 *1498:Q *377:10 16.932 
2 *377:10 *377:16 11.364 
3 *377:16 *1226:A1 10.56 
4 *377:16 *1228:A3 9.728 
5 *377:10 *1499:D 4.5 
*END

*D_NET *378 0.000942674
*CONN
*I *1190:I I *D gf180mcu_fd_sc_mcu7t5v0__clkinv_1
*I *1499:Q O *D gf180mcu_fd_sc_mcu7t5v0__dffrnq_1
*CAP
1 *1190:I 0.000309136
2 *1499:Q 0.000309136
3 *1389:I *1190:I 0.000283446
4 *1499:RN *1190:I 4.09568e-05
*RES
1 *1499:Q *1190:I 20.704 
*END

*D_NET *379 0.00611393
*CONN
*I *1359:A3 I *D gf180mcu_fd_sc_mcu7t5v0__nand3_1
*I *1211:B1 I *D gf180mcu_fd_sc_mcu7t5v0__oai22_1
*I *1357:A2 I *D gf180mcu_fd_sc_mcu7t5v0__xnor2_1
*I *1355:A1 I *D gf180mcu_fd_sc_mcu7t5v0__nor3_1
*I *1356:A2 I *D gf180mcu_fd_sc_mcu7t5v0__nand2_1
*I *1441:Q O *D gf180mcu_fd_sc_mcu7t5v0__dffrnq_1
*CAP
1 *1359:A3 8.68742e-05
2 *1211:B1 0.000649007
3 *1357:A2 0
4 *1355:A1 0.000174314
5 *1356:A2 0
6 *1441:Q 0.000316951
7 *379:25 0.000453664
8 *379:23 0.00114358
9 *379:21 0.00039891
10 *379:12 0.00041376
11 *1211:B1 *380:25 0.000388098
12 *1359:A3 *380:47 8.35178e-06
13 *379:12 *1356:A1 0.000122244
14 *379:12 *380:25 0
15 *379:12 *380:47 0
16 *379:21 *1356:A1 0.000194511
17 *379:21 *1359:A2 0.000229848
18 *379:21 *380:25 0
19 *379:23 *1357:A1 4.36433e-05
20 *379:23 *380:8 9.00698e-05
21 *379:23 *380:47 3.71367e-05
22 *379:25 *1357:A1 9.14543e-05
23 *1211:A1 *1211:B1 1.71326e-05
24 *1213:A2 *1211:B1 0
25 *1213:C *379:12 5.07201e-05
26 *1220:A2 *379:12 0.000108119
27 *1355:A2 *1355:A1 0.000602924
28 *1355:A3 *1355:A1 6.11661e-05
29 *1360:A2 *379:12 6.97265e-05
30 *1441:RN *1211:B1 0.000116566
31 *1441:RN *379:12 0.000125283
32 *1442:D *1355:A1 6.25252e-05
33 *1442:RN *1211:B1 5.73478e-05
34 *306:119 *1211:B1 0
*RES
1 *1441:Q *379:12 16.412 
2 *379:12 *1356:A2 4.5 
3 *379:12 *379:21 5.852 
4 *379:21 *379:23 2.184 
5 *379:23 *379:25 2.184 
6 *379:25 *1355:A1 11.184 
7 *379:25 *1357:A2 9 
8 *379:23 *1211:B1 14.72 
9 *379:21 *1359:A3 9.624 
*END

*D_NET *380 0.00554745
*CONN
*I *1359:A2 I *D gf180mcu_fd_sc_mcu7t5v0__nand3_1
*I *1356:A1 I *D gf180mcu_fd_sc_mcu7t5v0__nand2_1
*I *1211:A2 I *D gf180mcu_fd_sc_mcu7t5v0__oai22_1
*I *1210:A2 I *D gf180mcu_fd_sc_mcu7t5v0__nand2_1
*I *1357:A1 I *D gf180mcu_fd_sc_mcu7t5v0__xnor2_1
*I *1442:Q O *D gf180mcu_fd_sc_mcu7t5v0__dffrnq_1
*CAP
1 *1359:A2 0.000161672
2 *1356:A1 8.84152e-06
3 *1211:A2 0
4 *1210:A2 0.00027266
5 *1357:A1 0.000274196
6 *1442:Q 0
7 *380:47 0.000250984
8 *380:25 0.000821864
9 *380:8 0.00091601
10 *380:6 0.000173081
11 *1210:A2 *1212:B1 2.46717e-05
12 *1359:A2 *381:18 4.44136e-05
13 *1210:A1 *1210:A2 0.000188241
14 *1211:A1 *1210:A2 2.79455e-05
15 *1211:B1 *380:25 0.000388098
16 *1213:A1 *1210:A2 2.14739e-05
17 *1213:A2 *380:25 5.21102e-05
18 *1220:A2 *1356:A1 0.000276007
19 *1220:A2 *1359:A2 0.000105623
20 *1220:A2 *380:25 0
21 *1358:A3 *1357:A1 4.30651e-05
22 *1359:A3 *380:47 8.35178e-06
23 *1441:RN *1357:A1 0
24 *1441:RN *380:8 0
25 *1441:RN *380:47 0
26 *1442:RN *1357:A1 0.000546793
27 *280:6 *1359:A2 0.000122244
28 *306:119 *1357:A1 1.02007e-05
29 *379:12 *1356:A1 0.000122244
30 *379:12 *380:25 0
31 *379:12 *380:47 0
32 *379:21 *1356:A1 0.000194511
33 *379:21 *1359:A2 0.000229848
34 *379:21 *380:25 0
35 *379:23 *1357:A1 4.36433e-05
36 *379:23 *380:8 9.00698e-05
37 *379:23 *380:47 3.71367e-05
38 *379:25 *1357:A1 9.14543e-05
*RES
1 *1442:Q *380:6 9 
2 *380:6 *380:8 1.144 
3 *380:8 *1357:A1 12.12 
4 *380:8 *380:25 9.284 
5 *380:25 *1210:A2 15.684 
6 *380:25 *1211:A2 4.5 
7 *380:6 *380:47 5.228 
8 *380:47 *1356:A1 5.228 
9 *380:47 *1359:A2 6.476 
*END

*D_NET *381 0.00534135
*CONN
*I *1359:A1 I *D gf180mcu_fd_sc_mcu7t5v0__nand3_1
*I *1192:I I *D gf180mcu_fd_sc_mcu7t5v0__clkinv_1
*I *1212:B1 I *D gf180mcu_fd_sc_mcu7t5v0__oai22_1
*I *1443:Q O *D gf180mcu_fd_sc_mcu7t5v0__dffrnq_1
*CAP
1 *1359:A1 0
2 *1192:I 0
3 *1212:B1 0.000575339
4 *1443:Q 0.000510761
5 *381:18 0.000794427
6 *381:12 0.00072985
7 *1207:B1 *1212:B1 4.57914e-05
8 *1207:B2 *1212:B1 7.93118e-05
9 *1210:A2 *1212:B1 2.46717e-05
10 *1213:A1 *1212:B1 3.80299e-05
11 *1213:B *1212:B1 0
12 *1213:C *1212:B1 0.000129132
13 *1220:A1 *1212:B1 0
14 *1220:A1 *381:18 0
15 *1220:A2 *1212:B1 0.000211949
16 *1220:A2 *381:12 0.000149437
17 *1220:A2 *381:18 0.00012825
18 *1359:A2 *381:18 4.44136e-05
19 *1361:A2 *381:12 0
20 *1361:A2 *381:18 4.10573e-06
21 *1397:I *381:12 0.000728818
22 *166:6 *381:18 1.71326e-05
23 *280:6 *381:12 0.000926189
24 *280:6 *381:18 0.000203739
*RES
1 *1443:Q *381:12 19.116 
2 *381:12 *381:18 2.392 
3 *381:18 *1212:B1 9.7 
4 *381:18 *1192:I 4.5 
5 *381:12 *1359:A1 4.5 
*END

*D_NET *382 0.00837172
*CONN
*I *1191:I I *D gf180mcu_fd_sc_mcu7t5v0__clkinv_1
*I *1212:A2 I *D gf180mcu_fd_sc_mcu7t5v0__oai22_1
*I *1444:Q O *D gf180mcu_fd_sc_mcu7t5v0__dffrnq_1
*CAP
1 *1191:I 0
2 *1212:A2 0.000870366
3 *1444:Q 0.000161018
4 *382:8 0.00103138
5 *1209:A2 *1212:A2 0.000278752
6 *1213:B *1212:A2 0.000346997
7 *1213:C *1212:A2 3.48215e-05
8 *1220:A1 *1212:A2 1.32276e-05
9 *1220:A1 *382:8 5.47431e-06
10 *1225:B1 *1212:A2 0.00102056
11 *1225:B1 *382:8 0.000509988
12 *165:6 *1212:A2 0.00409914
*RES
1 *1444:Q *382:8 6.372 
2 *382:8 *1212:A2 27.436 
3 *382:8 *1191:I 4.5 
*END

*D_NET *383 0.00473158
*CONN
*I *1366:A1 I *D gf180mcu_fd_sc_mcu7t5v0__and2_1
*I *1367:A1 I *D gf180mcu_fd_sc_mcu7t5v0__nor2_1
*I *1215:B1 I *D gf180mcu_fd_sc_mcu7t5v0__aoi22_1
*I *1218:B1 I *D gf180mcu_fd_sc_mcu7t5v0__oai22_1
*I *1445:Q O *D gf180mcu_fd_sc_mcu7t5v0__dffrnq_1
*CAP
1 *1366:A1 6.68836e-05
2 *1367:A1 0
3 *1215:B1 0
4 *1218:B1 8.36356e-05
5 *1445:Q 0.000170905
6 *383:20 0.000702867
7 *383:14 0.00108589
8 *383:8 0.000704443
9 *1218:B1 *1215:A2 0.000142909
10 *383:20 *1217:B1 0
11 *1215:A1 *383:20 1.07369e-05
12 *1215:B2 *383:20 1.71326e-05
13 *1218:B2 *1218:B1 0.000238178
14 *1294:A1 *1218:B1 0.000430001
15 *1294:A1 *383:20 3.57634e-06
16 *1367:A2 *383:14 0.000105993
17 *1368:A3 *383:14 0
18 *1368:A4 *383:14 0.000122244
19 *1372:A3 *383:8 0
20 *1399:I *383:8 3.84797e-05
21 *1445:RN *383:8 8.77474e-05
22 *143:8 *1218:B1 7.11788e-06
23 *188:18 *1218:B1 0
24 *199:53 *383:14 4.0017e-05
25 *199:53 *383:20 1.78817e-06
26 *199:76 *383:20 0.000236681
27 *283:35 *383:20 0
28 *285:10 *383:14 0
29 *285:23 *383:14 0
30 *317:90 *383:8 3.37878e-06
31 *317:90 *383:14 2.15819e-05
32 *317:96 *1366:A1 0.000337769
33 *326:80 *1366:A1 7.16355e-05
34 *326:80 *383:14 0
35 *326:80 *383:20 0
*RES
1 *1445:Q *383:8 10.56 
2 *383:8 *383:14 8.452 
3 *383:14 *383:20 4.888 
4 *383:20 *1218:B1 15.476 
5 *383:20 *1215:B1 4.5 
6 *383:14 *1367:A1 4.5 
7 *383:8 *1366:A1 9.936 
*END

*D_NET *384 0.012785
*CONN
*I *1370:A1 I *D gf180mcu_fd_sc_mcu7t5v0__xnor2_1
*I *1369:A1 I *D gf180mcu_fd_sc_mcu7t5v0__nand2_1
*I *1372:A2 I *D gf180mcu_fd_sc_mcu7t5v0__nand3_1
*I *1217:B1 I *D gf180mcu_fd_sc_mcu7t5v0__oai22_1
*I *1215:A2 I *D gf180mcu_fd_sc_mcu7t5v0__aoi22_1
*I *1446:Q O *D gf180mcu_fd_sc_mcu7t5v0__dffrnq_1
*CAP
1 *1370:A1 0.000399867
2 *1369:A1 9.13222e-05
3 *1372:A2 2.37227e-05
4 *1217:B1 0.000341247
5 *1215:A2 0.000120506
6 *1446:Q 0
7 *384:49 0.000753107
8 *384:14 0.00140332
9 *384:8 0.00138935
10 *384:4 0.000685977
11 *1217:B1 *1218:A2 4.67771e-06
12 *1370:A1 *1373:A1 0.000418535
13 *1372:A2 *385:27 3.3698e-05
14 *384:8 *385:27 0.000300784
15 *384:8 *385:45 0
16 *384:14 *1218:A2 9.84299e-05
17 *384:14 *1222:A2 0.000163254
18 *384:14 *385:45 0.000868215
19 *384:14 *386:12 1.06742e-05
20 *384:49 *1373:A1 1.30614e-05
21 *384:49 *385:27 0.000108673
22 *1169:I *1217:B1 7.2883e-05
23 *1214:A1 *384:14 0
24 *1218:A1 *1217:B1 0.000419276
25 *1218:B1 *1215:A2 0.000142909
26 *1219:A2 *1217:B1 0.000273049
27 *1224:A1 *1217:B1 5.63072e-05
28 *1294:A1 *1215:A2 0.000199988
29 *1294:A1 *1217:B1 6.13261e-05
30 *1370:A2 *384:49 4.38131e-05
31 *1373:A2 *1369:A1 0.000106908
32 *1373:A2 *1370:A1 0.000870766
33 *1446:RN *1369:A1 0.00013415
34 *1446:RN *1370:A1 0.000176362
35 *143:8 *1215:A2 0
36 *143:8 *384:14 0
37 *143:12 *384:14 0
38 *144:25 *1217:B1 1.41781e-05
39 *199:45 *1370:A1 0
40 *283:35 *384:14 0
41 *285:27 *1369:A1 4.18042e-05
42 *317:96 *1369:A1 3.04322e-05
43 *317:96 *384:8 0.00198206
44 *317:96 *384:14 0.000118517
45 *317:96 *384:49 0.000616896
46 *317:98 *1370:A1 0.000194973
47 *383:20 *1217:B1 0
*RES
1 *1446:Q *384:4 4.5 
2 *384:4 *384:8 6.24 
3 *384:8 *384:14 13.236 
4 *384:14 *1215:A2 10.56 
5 *384:14 *1217:B1 12.744 
6 *384:8 *1372:A2 4.812 
7 *384:4 *384:49 11.704 
8 *384:49 *1369:A1 5.748 
9 *384:49 *1370:A1 18.492 
*END

*D_NET *385 0.0111135
*CONN
*I *1372:A1 I *D gf180mcu_fd_sc_mcu7t5v0__nand3_1
*I *1214:B1 I *D gf180mcu_fd_sc_mcu7t5v0__aoi22_1
*I *1217:A2 I *D gf180mcu_fd_sc_mcu7t5v0__oai22_1
*I *1373:A1 I *D gf180mcu_fd_sc_mcu7t5v0__xor2_1
*I *1447:Q O *D gf180mcu_fd_sc_mcu7t5v0__dffrnq_1
*CAP
1 *1372:A1 0
2 *1214:B1 0
3 *1217:A2 0.000213458
4 *1373:A1 0.000338213
5 *1447:Q 0.000251778
6 *385:45 0.00103971
7 *385:27 0.0015344
8 *385:8 0.00129814
9 *385:27 *1375:A1 2.24654e-05
10 *385:27 *386:10 3.09205e-05
11 *385:45 *1214:A2 0.000917536
12 *385:45 *386:10 9.64507e-05
13 *1214:B2 *1217:A2 7.29199e-05
14 *1216:A2 *385:45 0
15 *1221:B *1217:A2 0.000256285
16 *1221:B *385:45 6.18411e-06
17 *1222:B *1217:A2 0.000328552
18 *1222:B *385:45 0.000441992
19 *1225:A2 *1217:A2 0.000198922
20 *1370:A1 *1373:A1 0.000418535
21 *1370:A2 *1373:A1 0
22 *1372:A2 *385:27 3.3698e-05
23 *1375:A2 *385:27 0.00132763
24 *1399:I *385:45 0.000161509
25 *1401:I *1373:A1 0
26 *1401:I *385:8 0
27 *1401:I *385:27 2.24654e-05
28 *1446:RN *1373:A1 0.000419265
29 *1447:RN *385:27 0.000228035
30 *188:18 *1217:A2 1.42508e-05
31 *190:10 *1217:A2 9.14687e-05
32 *317:96 *385:27 5.79939e-05
33 *317:98 *1373:A1 0
34 *384:8 *385:27 0.000300784
35 *384:8 *385:45 0
36 *384:14 *385:45 0.000868215
37 *384:49 *1373:A1 1.30614e-05
38 *384:49 *385:27 0.000108673
*RES
1 *1447:Q *385:8 10.768 
2 *385:8 *1373:A1 12.12 
3 *385:8 *385:27 13.34 
4 *385:27 *385:45 10.504 
5 *385:45 *1217:A2 16.1 
6 *385:45 *1214:B1 4.5 
7 *385:27 *1372:A1 4.5 
*END

*D_NET *386 0.00705244
*CONN
*I *1375:A1 I *D gf180mcu_fd_sc_mcu7t5v0__xor2_1
*I *1214:A2 I *D gf180mcu_fd_sc_mcu7t5v0__aoi22_1
*I *1222:A2 I *D gf180mcu_fd_sc_mcu7t5v0__oai21_1
*I *1218:A2 I *D gf180mcu_fd_sc_mcu7t5v0__oai22_1
*I *1448:Q O *D gf180mcu_fd_sc_mcu7t5v0__dffrnq_1
*CAP
1 *1375:A1 0.000437866
2 *1214:A2 0.000285295
3 *1222:A2 0.000111947
4 *1218:A2 0.000236425
5 *1448:Q 0
6 *386:12 0.000648124
7 *386:10 0.00173337
8 *386:4 0.00158619
9 *1217:B1 *1218:A2 4.67771e-06
10 *1225:A2 *1222:A2 0
11 *1375:A2 *1375:A1 0.000151966
12 *1375:A2 *386:10 1.46474e-05
13 *1399:I *386:10 0.000161509
14 *1402:I *1375:A1 3.60231e-05
15 *1402:I *386:10 3.67027e-05
16 *283:35 *1218:A2 0.000267969
17 *384:14 *1218:A2 9.84299e-05
18 *384:14 *1222:A2 0.000163254
19 *384:14 *386:12 1.06742e-05
20 *385:27 *1375:A1 2.24654e-05
21 *385:27 *386:10 3.09205e-05
22 *385:45 *1214:A2 0.000917536
23 *385:45 *386:10 9.64507e-05
*RES
1 *1448:Q *386:4 4.5 
2 *386:4 *386:10 13.236 
3 *386:10 *386:12 1.352 
4 *386:12 *1218:A2 11.288 
5 *386:12 *1222:A2 10.352 
6 *386:10 *1214:A2 12.224 
7 *386:4 *1375:A1 8.348 
*END
