*SPEF "ieee 1481-1999"
*DESIGN "digital_top"
*DATE "18:20:18 Friday August 28, 2026"
*VENDOR "The OpenROAD Project"
*PROGRAM "OpenROAD"
*VERSION "26Q1-1024-gdcf36133a"
*DESIGN_FLOW "NAME_SCOPE LOCAL" "PIN_CAP NONE"
*DIVIDER /
*DELIMITER :
*BUS_DELIMITER []
*T_UNIT 1 NS
*C_UNIT 1 PF
*R_UNIT 1 OHM
*L_UNIT 1 HENRY

*NAME_MAP
*3 cap_ctrl[0]
*4 cap_ctrl[1]
*5 cap_ctrl[2]
*6 clk
*7 comp_out
*8 en
*9 scl
*10 sda_in
*11 sda_oe
*12 sda_out
*13 trigger_out
*14 _000_
*15 _001_
*16 _002_
*17 _003_
*18 _004_
*19 _005_
*20 _006_
*21 _007_
*22 _008_
*23 _009_
*24 _010_
*25 _011_
*26 _012_
*27 _013_
*28 _014_
*29 _015_
*30 _016_
*31 _017_
*32 _018_
*33 _019_
*34 _020_
*35 _021_
*36 _022_
*37 _023_
*38 _024_
*39 _025_
*40 _026_
*41 _027_
*42 _028_
*43 _029_
*44 _030_
*45 _031_
*46 _032_
*47 _033_
*48 _034_
*49 _035_
*50 _036_
*51 _037_
*52 _038_
*53 _039_
*54 _040_
*55 _041_
*56 _042_
*57 _043_
*58 _044_
*59 _045_
*60 _046_
*61 _047_
*62 _048_
*63 _049_
*64 _050_
*65 _051_
*66 _052_
*67 _053_
*68 _054_
*69 _055_
*70 _056_
*71 _057_
*72 _058_
*73 _059_
*74 _060_
*75 _061_
*76 _062_
*77 _063_
*78 _064_
*79 _065_
*80 _066_
*81 _067_
*82 _068_
*83 _069_
*84 _070_
*85 _071_
*86 _072_
*87 _073_
*88 _074_
*89 _075_
*90 _076_
*91 _077_
*92 _078_
*93 _079_
*94 _080_
*95 _081_
*96 _082_
*97 _083_
*98 _084_
*99 _085_
*100 _086_
*101 _087_
*102 _088_
*103 _089_
*104 _090_
*105 _091_
*106 _092_
*107 _093_
*108 _094_
*109 _095_
*110 _096_
*111 _097_
*112 _098_
*113 _099_
*114 _100_
*115 _101_
*116 _102_
*117 _103_
*118 _104_
*119 _105_
*120 _106_
*121 _107_
*122 _108_
*123 _109_
*124 _110_
*125 _111_
*126 _112_
*127 _113_
*128 _114_
*129 _115_
*130 _116_
*131 _117_
*132 _118_
*133 _119_
*134 _120_
*135 _121_
*136 _122_
*137 _123_
*138 _124_
*139 _125_
*140 _126_
*141 _127_
*142 _128_
*143 _129_
*144 _130_
*145 _131_
*146 _132_
*147 _133_
*148 _134_
*149 _135_
*150 _136_
*151 _137_
*152 _138_
*153 _139_
*154 _140_
*155 _141_
*156 _142_
*157 _143_
*158 _144_
*159 _145_
*160 _146_
*161 _147_
*162 _148_
*163 _149_
*164 _150_
*165 _151_
*166 _152_
*167 _153_
*168 _154_
*169 _155_
*170 _156_
*171 _157_
*172 _158_
*173 _159_
*174 _160_
*175 _161_
*176 _162_
*177 _163_
*178 _164_
*179 _165_
*180 _166_
*181 _167_
*182 _168_
*183 _169_
*184 _170_
*185 _171_
*186 _172_
*187 _173_
*188 _174_
*189 _175_
*190 _176_
*191 _177_
*192 _178_
*193 _179_
*194 _180_
*195 _181_
*196 _182_
*197 _183_
*198 _184_
*199 _185_
*200 _186_
*201 _187_
*202 _188_
*203 _189_
*204 _190_
*205 _191_
*206 _192_
*207 _193_
*208 _194_
*209 _195_
*210 _196_
*211 _197_
*212 _198_
*213 _199_
*214 _200_
*215 _201_
*216 _202_
*217 _203_
*218 _204_
*219 _205_
*220 _206_
*221 _207_
*222 _208_
*223 _209_
*224 _210_
*225 _211_
*226 _212_
*227 _213_
*228 _214_
*229 _215_
*230 _216_
*231 _217_
*232 _218_
*233 _219_
*234 _220_
*235 _221_
*236 _222_
*237 _223_
*238 _224_
*239 _225_
*240 _226_
*241 _227_
*242 _228_
*243 _229_
*244 _230_
*245 _231_
*246 _232_
*247 _233_
*248 _234_
*249 _235_
*250 _236_
*251 _237_
*252 _238_
*253 _239_
*254 _240_
*255 _241_
*256 _242_
*257 _243_
*258 _244_
*259 _245_
*260 _246_
*261 _247_
*262 _248_
*263 _249_
*264 _250_
*265 _251_
*266 _252_
*267 _253_
*268 _254_
*269 _255_
*270 _256_
*271 _257_
*272 _258_
*273 _259_
*274 _260_
*275 _261_
*276 _262_
*277 _263_
*278 _264_
*279 _265_
*280 _266_
*281 _267_
*282 _268_
*283 _269_
*284 _270_
*285 _271_
*286 _272_
*287 _273_
*288 _274_
*289 _275_
*290 _276_
*291 _277_
*292 _278_
*293 _279_
*294 clknet_0_clk
*295 clknet_4_0_0_clk
*296 clknet_4_10_0_clk
*297 clknet_4_11_0_clk
*298 clknet_4_12_0_clk
*299 clknet_4_13_0_clk
*300 clknet_4_14_0_clk
*301 clknet_4_15_0_clk
*302 clknet_4_1_0_clk
*303 clknet_4_2_0_clk
*304 clknet_4_3_0_clk
*305 clknet_4_4_0_clk
*306 clknet_4_5_0_clk
*307 clknet_4_6_0_clk
*308 clknet_4_7_0_clk
*309 clknet_4_8_0_clk
*310 clknet_4_9_0_clk
*311 net1
*312 net10
*313 net11
*314 net12
*315 net13
*316 net14
*317 net15
*318 net16
*319 net17
*320 net18
*321 net19
*322 net2
*323 net20
*324 net21
*325 net22
*326 net23
*327 net24
*328 net25
*329 net26
*330 net27
*331 net28
*332 net29
*333 net3
*334 net30
*335 net31
*336 net32
*337 net33
*338 net34
*339 net35
*340 net36
*341 net37
*342 net38
*343 net39
*344 net4
*345 net40
*346 net41
*347 net42
*348 net43
*349 net44
*350 net45
*351 net46
*352 net47
*353 net48
*354 net49
*355 net5
*356 net50
*357 net51
*358 net52
*359 net53
*360 net54
*361 net55
*362 net56
*363 net57
*364 net58
*365 net59
*366 net6
*367 net60
*368 net61
*369 net62
*370 net63
*371 net7
*372 net8
*373 net9
*374 threshold_w\[0\]
*375 threshold_w\[1\]
*376 threshold_w\[2\]
*377 threshold_w\[3\]
*378 threshold_w\[4\]
*379 threshold_w\[5\]
*380 threshold_w\[6\]
*381 threshold_w\[7\]
*382 timeout_val_w\[0\]
*383 timeout_val_w\[1\]
*384 timeout_val_w\[2\]
*385 timeout_val_w\[3\]
*386 timeout_val_w\[4\]
*387 timeout_val_w\[5\]
*388 timeout_val_w\[6\]
*389 timeout_val_w\[7\]
*390 u_i2c_config\.bit_cnt\[0\]
*391 u_i2c_config\.bit_cnt\[1\]
*392 u_i2c_config\.bit_cnt\[2\]
*393 u_i2c_config\.bit_cnt\[3\]
*394 u_i2c_config\.parallel_data\[0\]
*395 u_i2c_config\.parallel_data\[1\]
*396 u_i2c_config\.parallel_data\[2\]
*397 u_i2c_config\.parallel_data\[3\]
*398 u_i2c_config\.parallel_data\[4\]
*399 u_i2c_config\.parallel_data\[5\]
*400 u_i2c_config\.parallel_data\[6\]
*401 u_i2c_config\.parallel_data\[7\]
*402 u_i2c_config\.reg_addr\[0\]
*403 u_i2c_config\.reg_addr\[1\]
*404 u_i2c_config\.scl_d1
*405 u_i2c_config\.scl_d2
*406 u_i2c_config\.sda_d1
*407 u_i2c_config\.sda_d2
*408 u_i2c_config\.state\[1\]
*409 u_i2c_config\.state\[2\]
*410 u_i2c_config\.state\[3\]
*411 u_i2c_config\.state\[4\]
*412 u_i2c_config\.state\[5\]
*413 u_i2c_config\.state\[6\]
*414 u_i2c_config\.write_en
*415 u_main_cnt\.count_reg\[0\]
*416 u_main_cnt\.count_reg\[1\]
*417 u_main_cnt\.count_reg\[2\]
*418 u_main_cnt\.count_reg\[3\]
*419 u_main_cnt\.count_reg\[4\]
*420 u_main_cnt\.count_reg\[5\]
*421 u_main_cnt\.count_reg\[6\]
*422 u_main_cnt\.count_reg\[7\]
*423 u_pulse_gen\.signal_d1
*424 u_pulse_gen\.signal_d2
*425 u_timeout_cnt\.timer_count\[0\]
*426 u_timeout_cnt\.timer_count\[1\]
*427 u_timeout_cnt\.timer_count\[2\]
*428 u_timeout_cnt\.timer_count\[3\]
*429 u_timeout_cnt\.timer_count\[4\]
*430 u_timeout_cnt\.timer_count\[5\]
*431 u_timeout_cnt\.timer_count\[6\]
*432 u_timeout_cnt\.timer_count\[7\]
*433 FILLER_0_10
*434 FILLER_0_104
*435 FILLER_0_106
*436 FILLER_0_127
*437 FILLER_0_138
*438 FILLER_0_14
*439 FILLER_0_16
*440 FILLER_0_2
*441 FILLER_0_33
*442 FILLER_0_36
*443 FILLER_0_70
*444 FILLER_0_76
*445 FILLER_10_10
*446 FILLER_10_111
*447 FILLER_10_126
*448 FILLER_10_14
*449 FILLER_10_177
*450 FILLER_10_179
*451 FILLER_10_184
*452 FILLER_10_2
*453 FILLER_11_128
*454 FILLER_11_142
*455 FILLER_11_175
*456 FILLER_11_183
*457 FILLER_11_187
*458 FILLER_11_54
*459 FILLER_11_88
*460 FILLER_12_104
*461 FILLER_12_115
*462 FILLER_12_136
*463 FILLER_12_157
*464 FILLER_12_30
*465 FILLER_12_37
*466 FILLER_12_57
*467 FILLER_12_59
*468 FILLER_13_137
*469 FILLER_13_139
*470 FILLER_13_2
*471 FILLER_13_68
*472 FILLER_14_177
*473 FILLER_14_179
*474 FILLER_14_184
*475 FILLER_14_2
*476 FILLER_14_37
*477 FILLER_14_83
*478 FILLER_15_135
*479 FILLER_15_151
*480 FILLER_15_153
*481 FILLER_15_2
*482 FILLER_15_44
*483 FILLER_15_66
*484 FILLER_15_92
*485 FILLER_16_104
*486 FILLER_16_111
*487 FILLER_16_117
*488 FILLER_16_173
*489 FILLER_16_18
*490 FILLER_16_185
*491 FILLER_16_187
*492 FILLER_16_2
*493 FILLER_16_37
*494 FILLER_16_39
*495 FILLER_16_50
*496 FILLER_16_64
*497 FILLER_17_134
*498 FILLER_17_138
*499 FILLER_17_142
*500 FILLER_17_146
*501 FILLER_17_187
*502 FILLER_17_2
*503 FILLER_17_51
*504 FILLER_17_53
*505 FILLER_18_104
*506 FILLER_18_124
*507 FILLER_18_126
*508 FILLER_18_161
*509 FILLER_18_177
*510 FILLER_18_179
*511 FILLER_18_184
*512 FILLER_18_2
*513 FILLER_18_6
*514 FILLER_18_61
*515 FILLER_19_129
*516 FILLER_19_142
*517 FILLER_19_2
*518 FILLER_19_52
*519 FILLER_19_54
*520 FILLER_19_72
*521 FILLER_1_119
*522 FILLER_1_137
*523 FILLER_1_139
*524 FILLER_1_146
*525 FILLER_1_151
*526 FILLER_1_155
*527 FILLER_1_160
*528 FILLER_1_176
*529 FILLER_1_18
*530 FILLER_1_184
*531 FILLER_1_34
*532 FILLER_1_38
*533 FILLER_1_78
*534 FILLER_1_83
*535 FILLER_20_10
*536 FILLER_20_132
*537 FILLER_20_14
*538 FILLER_20_155
*539 FILLER_20_177
*540 FILLER_20_179
*541 FILLER_20_184
*542 FILLER_20_2
*543 FILLER_20_37
*544 FILLER_20_39
*545 FILLER_20_79
*546 FILLER_21_153
*547 FILLER_21_38
*548 FILLER_21_72
*549 FILLER_22_107
*550 FILLER_22_18
*551 FILLER_22_185
*552 FILLER_22_187
*553 FILLER_23_121
*554 FILLER_23_138
*555 FILLER_23_51
*556 FILLER_23_53
*557 FILLER_23_76
*558 FILLER_23_80
*559 FILLER_23_82
*560 FILLER_24_142
*561 FILLER_24_171
*562 FILLER_24_186
*563 FILLER_24_2
*564 FILLER_24_53
*565 FILLER_24_57
*566 FILLER_24_59
*567 FILLER_24_6
*568 FILLER_24_8
*569 FILLER_24_96
*570 FILLER_25_10
*571 FILLER_25_14
*572 FILLER_25_16
*573 FILLER_25_2
*574 FILLER_25_69
*575 FILLER_25_72
*576 FILLER_25_77
*577 FILLER_25_81
*578 FILLER_25_86
*579 FILLER_25_94
*580 FILLER_25_96
*581 FILLER_26_10
*582 FILLER_26_103
*583 FILLER_26_131
*584 FILLER_26_17
*585 FILLER_26_174
*586 FILLER_26_177
*587 FILLER_26_179
*588 FILLER_26_184
*589 FILLER_26_2
*590 FILLER_26_21
*591 FILLER_26_37
*592 FILLER_26_86
*593 FILLER_26_94
*594 FILLER_26_98
*595 FILLER_27_117
*596 FILLER_27_119
*597 FILLER_27_128
*598 FILLER_27_142
*599 FILLER_27_146
*600 FILLER_27_160
*601 FILLER_27_168
*602 FILLER_27_42
*603 FILLER_27_72
*604 FILLER_27_80
*605 FILLER_27_82
*606 FILLER_28_111
*607 FILLER_28_115
*608 FILLER_28_139
*609 FILLER_28_152
*610 FILLER_28_164
*611 FILLER_28_172
*612 FILLER_28_174
*613 FILLER_28_177
*614 FILLER_28_179
*615 FILLER_28_184
*616 FILLER_28_2
*617 FILLER_28_37
*618 FILLER_28_63
*619 FILLER_29_102
*620 FILLER_29_107
*621 FILLER_29_111
*622 FILLER_29_36
*623 FILLER_29_42
*624 FILLER_29_44
*625 FILLER_29_50
*626 FILLER_29_58
*627 FILLER_29_66
*628 FILLER_29_78
*629 FILLER_29_94
*630 FILLER_2_107
*631 FILLER_2_155
*632 FILLER_2_171
*633 FILLER_2_177
*634 FILLER_2_185
*635 FILLER_2_187
*636 FILLER_2_2
*637 FILLER_2_34
*638 FILLER_2_37
*639 FILLER_2_56
*640 FILLER_30_104
*641 FILLER_30_139
*642 FILLER_30_155
*643 FILLER_30_16
*644 FILLER_30_164
*645 FILLER_30_172
*646 FILLER_30_174
*647 FILLER_30_177
*648 FILLER_30_179
*649 FILLER_30_18
*650 FILLER_30_184
*651 FILLER_30_2
*652 FILLER_30_45
*653 FILLER_30_85
*654 FILLER_31_122
*655 FILLER_31_2
*656 FILLER_31_4
*657 FILLER_31_72
*658 FILLER_31_76
*659 FILLER_31_78
*660 FILLER_31_87
*661 FILLER_32_103
*662 FILLER_32_107
*663 FILLER_32_115
*664 FILLER_32_123
*665 FILLER_32_159
*666 FILLER_32_177
*667 FILLER_32_18
*668 FILLER_32_185
*669 FILLER_32_187
*670 FILLER_32_34
*671 FILLER_32_37
*672 FILLER_32_60
*673 FILLER_32_86
*674 FILLER_32_90
*675 FILLER_33_129
*676 FILLER_33_138
*677 FILLER_33_154
*678 FILLER_33_186
*679 FILLER_33_83
*680 FILLER_33_87
*681 FILLER_34_102
*682 FILLER_34_104
*683 FILLER_34_107
*684 FILLER_34_123
*685 FILLER_34_127
*686 FILLER_34_129
*687 FILLER_34_14
*688 FILLER_34_156
*689 FILLER_34_172
*690 FILLER_34_174
*691 FILLER_34_177
*692 FILLER_34_185
*693 FILLER_34_187
*694 FILLER_34_2
*695 FILLER_34_34
*696 FILLER_34_37
*697 FILLER_34_80
*698 FILLER_35_10
*699 FILLER_35_121
*700 FILLER_35_125
*701 FILLER_35_130
*702 FILLER_35_138
*703 FILLER_35_14
*704 FILLER_35_142
*705 FILLER_35_174
*706 FILLER_35_182
*707 FILLER_35_186
*708 FILLER_35_2
*709 FILLER_35_23
*710 FILLER_35_27
*711 FILLER_35_60
*712 FILLER_35_62
*713 FILLER_35_67
*714 FILLER_35_69
*715 FILLER_35_76
*716 FILLER_35_84
*717 FILLER_35_86
*718 FILLER_36_141
*719 FILLER_36_173
*720 FILLER_36_177
*721 FILLER_36_185
*722 FILLER_36_187
*723 FILLER_36_2
*724 FILLER_36_37
*725 FILLER_36_4
*726 FILLER_36_77
*727 FILLER_36_84
*728 FILLER_36_88
*729 FILLER_36_97
*730 FILLER_37_107
*731 FILLER_37_139
*732 FILLER_37_142
*733 FILLER_37_174
*734 FILLER_37_182
*735 FILLER_37_186
*736 FILLER_37_38
*737 FILLER_37_40
*738 FILLER_37_55
*739 FILLER_37_63
*740 FILLER_37_67
*741 FILLER_37_69
*742 FILLER_37_72
*743 FILLER_37_74
*744 FILLER_37_85
*745 FILLER_37_87
*746 FILLER_37_98
*747 FILLER_38_100
*748 FILLER_38_104
*749 FILLER_38_107
*750 FILLER_38_109
*751 FILLER_38_114
*752 FILLER_38_146
*753 FILLER_38_15
*754 FILLER_38_162
*755 FILLER_38_170
*756 FILLER_38_174
*757 FILLER_38_177
*758 FILLER_38_185
*759 FILLER_38_187
*760 FILLER_38_2
*761 FILLER_38_31
*762 FILLER_38_37
*763 FILLER_38_4
*764 FILLER_38_48
*765 FILLER_38_56
*766 FILLER_39_120
*767 FILLER_39_136
*768 FILLER_39_142
*769 FILLER_39_174
*770 FILLER_39_18
*771 FILLER_39_182
*772 FILLER_39_186
*773 FILLER_39_2
*774 FILLER_39_26
*775 FILLER_39_34
*776 FILLER_39_78
*777 FILLER_3_138
*778 FILLER_3_2
*779 FILLER_3_34
*780 FILLER_3_69
*781 FILLER_3_80
*782 FILLER_3_82
*783 FILLER_40_103
*784 FILLER_40_107
*785 FILLER_40_171
*786 FILLER_40_177
*787 FILLER_40_185
*788 FILLER_40_187
*789 FILLER_40_2
*790 FILLER_40_34
*791 FILLER_40_37
*792 FILLER_40_45
*793 FILLER_40_53
*794 FILLER_40_57
*795 FILLER_40_79
*796 FILLER_40_95
*797 FILLER_41_10
*798 FILLER_41_136
*799 FILLER_41_14
*800 FILLER_41_142
*801 FILLER_41_174
*802 FILLER_41_182
*803 FILLER_41_186
*804 FILLER_41_2
*805 FILLER_41_50
*806 FILLER_41_66
*807 FILLER_41_72
*808 FILLER_42_101
*809 FILLER_42_107
*810 FILLER_42_171
*811 FILLER_42_177
*812 FILLER_42_185
*813 FILLER_42_187
*814 FILLER_42_2
*815 FILLER_42_34
*816 FILLER_42_37
*817 FILLER_43_136
*818 FILLER_43_142
*819 FILLER_43_174
*820 FILLER_43_182
*821 FILLER_43_186
*822 FILLER_43_2
*823 FILLER_43_66
*824 FILLER_43_72
*825 FILLER_44_101
*826 FILLER_44_107
*827 FILLER_44_171
*828 FILLER_44_177
*829 FILLER_44_18
*830 FILLER_44_185
*831 FILLER_44_187
*832 FILLER_44_34
*833 FILLER_44_37
*834 FILLER_45_136
*835 FILLER_45_142
*836 FILLER_45_174
*837 FILLER_45_182
*838 FILLER_45_186
*839 FILLER_45_2
*840 FILLER_45_66
*841 FILLER_45_72
*842 FILLER_46_101
*843 FILLER_46_107
*844 FILLER_46_171
*845 FILLER_46_177
*846 FILLER_46_185
*847 FILLER_46_187
*848 FILLER_46_2
*849 FILLER_46_34
*850 FILLER_46_37
*851 FILLER_47_136
*852 FILLER_47_142
*853 FILLER_47_174
*854 FILLER_47_182
*855 FILLER_47_186
*856 FILLER_47_2
*857 FILLER_47_66
*858 FILLER_47_72
*859 FILLER_48_101
*860 FILLER_48_107
*861 FILLER_48_171
*862 FILLER_48_177
*863 FILLER_48_185
*864 FILLER_48_187
*865 FILLER_48_2
*866 FILLER_48_34
*867 FILLER_48_37
*868 FILLER_49_136
*869 FILLER_49_142
*870 FILLER_49_174
*871 FILLER_49_182
*872 FILLER_49_186
*873 FILLER_49_2
*874 FILLER_49_66
*875 FILLER_49_72
*876 FILLER_4_102
*877 FILLER_4_104
*878 FILLER_4_122
*879 FILLER_4_165
*880 FILLER_4_173
*881 FILLER_4_177
*882 FILLER_4_179
*883 FILLER_4_184
*884 FILLER_4_2
*885 FILLER_4_34
*886 FILLER_4_37
*887 FILLER_4_39
*888 FILLER_50_101
*889 FILLER_50_107
*890 FILLER_50_171
*891 FILLER_50_177
*892 FILLER_50_185
*893 FILLER_50_187
*894 FILLER_50_2
*895 FILLER_50_34
*896 FILLER_50_37
*897 FILLER_51_136
*898 FILLER_51_142
*899 FILLER_51_174
*900 FILLER_51_182
*901 FILLER_51_186
*902 FILLER_51_2
*903 FILLER_51_66
*904 FILLER_51_72
*905 FILLER_52_101
*906 FILLER_52_107
*907 FILLER_52_171
*908 FILLER_52_177
*909 FILLER_52_185
*910 FILLER_52_187
*911 FILLER_52_2
*912 FILLER_52_34
*913 FILLER_52_37
*914 FILLER_53_136
*915 FILLER_53_142
*916 FILLER_53_174
*917 FILLER_53_182
*918 FILLER_53_186
*919 FILLER_53_2
*920 FILLER_53_66
*921 FILLER_53_72
*922 FILLER_54_104
*923 FILLER_54_138
*924 FILLER_54_172
*925 FILLER_54_18
*926 FILLER_54_36
*927 FILLER_54_70
*928 FILLER_5_105
*929 FILLER_5_107
*930 FILLER_5_132
*931 FILLER_5_134
*932 FILLER_5_18
*933 FILLER_5_2
*934 FILLER_5_26
*935 FILLER_5_72
*936 FILLER_6_133
*937 FILLER_6_135
*938 FILLER_6_172
*939 FILLER_6_174
*940 FILLER_6_18
*941 FILLER_6_185
*942 FILLER_6_187
*943 FILLER_6_2
*944 FILLER_6_37
*945 FILLER_6_39
*946 FILLER_7_18
*947 FILLER_7_2
*948 FILLER_7_22
*949 FILLER_7_60
*950 FILLER_7_72
*951 FILLER_7_74
*952 FILLER_8_104
*953 FILLER_8_125
*954 FILLER_8_150
*955 FILLER_8_171
*956 FILLER_8_177
*957 FILLER_8_18
*958 FILLER_8_185
*959 FILLER_8_187
*960 FILLER_8_2
*961 FILLER_8_26
*962 FILLER_8_37
*963 FILLER_8_39
*964 FILLER_9_10
*965 FILLER_9_105
*966 FILLER_9_117
*967 FILLER_9_128
*968 FILLER_9_14
*969 FILLER_9_142
*970 FILLER_9_151
*971 FILLER_9_153
*972 FILLER_9_2
*973 FILLER_9_65
*974 FILLER_9_72
*975 PHY_EDGE_ROW_0_Left_55
*976 PHY_EDGE_ROW_0_Right_0
*977 PHY_EDGE_ROW_10_Left_65
*978 PHY_EDGE_ROW_10_Right_10
*979 PHY_EDGE_ROW_11_Left_66
*980 PHY_EDGE_ROW_11_Right_11
*981 PHY_EDGE_ROW_12_Left_67
*982 PHY_EDGE_ROW_12_Right_12
*983 PHY_EDGE_ROW_13_Left_68
*984 PHY_EDGE_ROW_13_Right_13
*985 PHY_EDGE_ROW_14_Left_69
*986 PHY_EDGE_ROW_14_Right_14
*987 PHY_EDGE_ROW_15_Left_70
*988 PHY_EDGE_ROW_15_Right_15
*989 PHY_EDGE_ROW_16_Left_71
*990 PHY_EDGE_ROW_16_Right_16
*991 PHY_EDGE_ROW_17_Left_72
*992 PHY_EDGE_ROW_17_Right_17
*993 PHY_EDGE_ROW_18_Left_73
*994 PHY_EDGE_ROW_18_Right_18
*995 PHY_EDGE_ROW_19_Left_74
*996 PHY_EDGE_ROW_19_Right_19
*997 PHY_EDGE_ROW_1_Left_56
*998 PHY_EDGE_ROW_1_Right_1
*999 PHY_EDGE_ROW_20_Left_75
*1000 PHY_EDGE_ROW_20_Right_20
*1001 PHY_EDGE_ROW_21_Left_76
*1002 PHY_EDGE_ROW_21_Right_21
*1003 PHY_EDGE_ROW_22_Left_77
*1004 PHY_EDGE_ROW_22_Right_22
*1005 PHY_EDGE_ROW_23_Left_78
*1006 PHY_EDGE_ROW_23_Right_23
*1007 PHY_EDGE_ROW_24_Left_79
*1008 PHY_EDGE_ROW_24_Right_24
*1009 PHY_EDGE_ROW_25_Left_80
*1010 PHY_EDGE_ROW_25_Right_25
*1011 PHY_EDGE_ROW_26_Left_81
*1012 PHY_EDGE_ROW_26_Right_26
*1013 PHY_EDGE_ROW_27_Left_82
*1014 PHY_EDGE_ROW_27_Right_27
*1015 PHY_EDGE_ROW_28_Left_83
*1016 PHY_EDGE_ROW_28_Right_28
*1017 PHY_EDGE_ROW_29_Left_84
*1018 PHY_EDGE_ROW_29_Right_29
*1019 PHY_EDGE_ROW_2_Left_57
*1020 PHY_EDGE_ROW_2_Right_2
*1021 PHY_EDGE_ROW_30_Left_85
*1022 PHY_EDGE_ROW_30_Right_30
*1023 PHY_EDGE_ROW_31_Left_86
*1024 PHY_EDGE_ROW_31_Right_31
*1025 PHY_EDGE_ROW_32_Left_87
*1026 PHY_EDGE_ROW_32_Right_32
*1027 PHY_EDGE_ROW_33_Left_88
*1028 PHY_EDGE_ROW_33_Right_33
*1029 PHY_EDGE_ROW_34_Left_89
*1030 PHY_EDGE_ROW_34_Right_34
*1031 PHY_EDGE_ROW_35_Left_90
*1032 PHY_EDGE_ROW_35_Right_35
*1033 PHY_EDGE_ROW_36_Left_91
*1034 PHY_EDGE_ROW_36_Right_36
*1035 PHY_EDGE_ROW_37_Left_92
*1036 PHY_EDGE_ROW_37_Right_37
*1037 PHY_EDGE_ROW_38_Left_93
*1038 PHY_EDGE_ROW_38_Right_38
*1039 PHY_EDGE_ROW_39_Left_94
*1040 PHY_EDGE_ROW_39_Right_39
*1041 PHY_EDGE_ROW_3_Left_58
*1042 PHY_EDGE_ROW_3_Right_3
*1043 PHY_EDGE_ROW_40_Left_95
*1044 PHY_EDGE_ROW_40_Right_40
*1045 PHY_EDGE_ROW_41_Left_96
*1046 PHY_EDGE_ROW_41_Right_41
*1047 PHY_EDGE_ROW_42_Left_97
*1048 PHY_EDGE_ROW_42_Right_42
*1049 PHY_EDGE_ROW_43_Left_98
*1050 PHY_EDGE_ROW_43_Right_43
*1051 PHY_EDGE_ROW_44_Left_99
*1052 PHY_EDGE_ROW_44_Right_44
*1053 PHY_EDGE_ROW_45_Left_100
*1054 PHY_EDGE_ROW_45_Right_45
*1055 PHY_EDGE_ROW_46_Left_101
*1056 PHY_EDGE_ROW_46_Right_46
*1057 PHY_EDGE_ROW_47_Left_102
*1058 PHY_EDGE_ROW_47_Right_47
*1059 PHY_EDGE_ROW_48_Left_103
*1060 PHY_EDGE_ROW_48_Right_48
*1061 PHY_EDGE_ROW_49_Left_104
*1062 PHY_EDGE_ROW_49_Right_49
*1063 PHY_EDGE_ROW_4_Left_59
*1064 PHY_EDGE_ROW_4_Right_4
*1065 PHY_EDGE_ROW_50_Left_105
*1066 PHY_EDGE_ROW_50_Right_50
*1067 PHY_EDGE_ROW_51_Left_106
*1068 PHY_EDGE_ROW_51_Right_51
*1069 PHY_EDGE_ROW_52_Left_107
*1070 PHY_EDGE_ROW_52_Right_52
*1071 PHY_EDGE_ROW_53_Left_108
*1072 PHY_EDGE_ROW_53_Right_53
*1073 PHY_EDGE_ROW_54_Left_109
*1074 PHY_EDGE_ROW_54_Right_54
*1075 PHY_EDGE_ROW_5_Left_60
*1076 PHY_EDGE_ROW_5_Right_5
*1077 PHY_EDGE_ROW_6_Left_61
*1078 PHY_EDGE_ROW_6_Right_6
*1079 PHY_EDGE_ROW_7_Left_62
*1080 PHY_EDGE_ROW_7_Right_7
*1081 PHY_EDGE_ROW_8_Left_63
*1082 PHY_EDGE_ROW_8_Right_8
*1083 PHY_EDGE_ROW_9_Left_64
*1084 PHY_EDGE_ROW_9_Right_9
*1085 TAP_TAPCELL_ROW_0_110
*1086 TAP_TAPCELL_ROW_0_111
*1087 TAP_TAPCELL_ROW_0_112
*1088 TAP_TAPCELL_ROW_0_113
*1089 TAP_TAPCELL_ROW_0_114
*1090 TAP_TAPCELL_ROW_10_137
*1091 TAP_TAPCELL_ROW_10_138
*1092 TAP_TAPCELL_ROW_10_139
*1093 TAP_TAPCELL_ROW_11_140
*1094 TAP_TAPCELL_ROW_11_141
*1095 TAP_TAPCELL_ROW_12_142
*1096 TAP_TAPCELL_ROW_12_143
*1097 TAP_TAPCELL_ROW_12_144
*1098 TAP_TAPCELL_ROW_13_145
*1099 TAP_TAPCELL_ROW_13_146
*1100 TAP_TAPCELL_ROW_14_147
*1101 TAP_TAPCELL_ROW_14_148
*1102 TAP_TAPCELL_ROW_14_149
*1103 TAP_TAPCELL_ROW_15_150
*1104 TAP_TAPCELL_ROW_15_151
*1105 TAP_TAPCELL_ROW_16_152
*1106 TAP_TAPCELL_ROW_16_153
*1107 TAP_TAPCELL_ROW_16_154
*1108 TAP_TAPCELL_ROW_17_155
*1109 TAP_TAPCELL_ROW_17_156
*1110 TAP_TAPCELL_ROW_18_157
*1111 TAP_TAPCELL_ROW_18_158
*1112 TAP_TAPCELL_ROW_18_159
*1113 TAP_TAPCELL_ROW_19_160
*1114 TAP_TAPCELL_ROW_19_161
*1115 TAP_TAPCELL_ROW_1_115
*1116 TAP_TAPCELL_ROW_1_116
*1117 TAP_TAPCELL_ROW_20_162
*1118 TAP_TAPCELL_ROW_20_163
*1119 TAP_TAPCELL_ROW_20_164
*1120 TAP_TAPCELL_ROW_21_165
*1121 TAP_TAPCELL_ROW_21_166
*1122 TAP_TAPCELL_ROW_22_167
*1123 TAP_TAPCELL_ROW_22_168
*1124 TAP_TAPCELL_ROW_22_169
*1125 TAP_TAPCELL_ROW_23_170
*1126 TAP_TAPCELL_ROW_23_171
*1127 TAP_TAPCELL_ROW_24_172
*1128 TAP_TAPCELL_ROW_24_173
*1129 TAP_TAPCELL_ROW_24_174
*1130 TAP_TAPCELL_ROW_25_175
*1131 TAP_TAPCELL_ROW_25_176
*1132 TAP_TAPCELL_ROW_26_177
*1133 TAP_TAPCELL_ROW_26_178
*1134 TAP_TAPCELL_ROW_26_179
*1135 TAP_TAPCELL_ROW_27_180
*1136 TAP_TAPCELL_ROW_27_181
*1137 TAP_TAPCELL_ROW_28_182
*1138 TAP_TAPCELL_ROW_28_183
*1139 TAP_TAPCELL_ROW_28_184
*1140 TAP_TAPCELL_ROW_29_185
*1141 TAP_TAPCELL_ROW_29_186
*1142 TAP_TAPCELL_ROW_2_117
*1143 TAP_TAPCELL_ROW_2_118
*1144 TAP_TAPCELL_ROW_2_119
*1145 TAP_TAPCELL_ROW_30_187
*1146 TAP_TAPCELL_ROW_30_188
*1147 TAP_TAPCELL_ROW_30_189
*1148 TAP_TAPCELL_ROW_31_190
*1149 TAP_TAPCELL_ROW_31_191
*1150 TAP_TAPCELL_ROW_32_192
*1151 TAP_TAPCELL_ROW_32_193
*1152 TAP_TAPCELL_ROW_32_194
*1153 TAP_TAPCELL_ROW_33_195
*1154 TAP_TAPCELL_ROW_33_196
*1155 TAP_TAPCELL_ROW_34_197
*1156 TAP_TAPCELL_ROW_34_198
*1157 TAP_TAPCELL_ROW_34_199
*1158 TAP_TAPCELL_ROW_35_200
*1159 TAP_TAPCELL_ROW_35_201
*1160 TAP_TAPCELL_ROW_36_202
*1161 TAP_TAPCELL_ROW_36_203
*1162 TAP_TAPCELL_ROW_36_204
*1163 TAP_TAPCELL_ROW_37_205
*1164 TAP_TAPCELL_ROW_37_206
*1165 TAP_TAPCELL_ROW_38_207
*1166 TAP_TAPCELL_ROW_38_208
*1167 TAP_TAPCELL_ROW_38_209
*1168 TAP_TAPCELL_ROW_39_210
*1169 TAP_TAPCELL_ROW_39_211
*1170 TAP_TAPCELL_ROW_3_120
*1171 TAP_TAPCELL_ROW_3_121
*1172 TAP_TAPCELL_ROW_40_212
*1173 TAP_TAPCELL_ROW_40_213
*1174 TAP_TAPCELL_ROW_40_214
*1175 TAP_TAPCELL_ROW_41_215
*1176 TAP_TAPCELL_ROW_41_216
*1177 TAP_TAPCELL_ROW_42_217
*1178 TAP_TAPCELL_ROW_42_218
*1179 TAP_TAPCELL_ROW_42_219
*1180 TAP_TAPCELL_ROW_43_220
*1181 TAP_TAPCELL_ROW_43_221
*1182 TAP_TAPCELL_ROW_44_222
*1183 TAP_TAPCELL_ROW_44_223
*1184 TAP_TAPCELL_ROW_44_224
*1185 TAP_TAPCELL_ROW_45_225
*1186 TAP_TAPCELL_ROW_45_226
*1187 TAP_TAPCELL_ROW_46_227
*1188 TAP_TAPCELL_ROW_46_228
*1189 TAP_TAPCELL_ROW_46_229
*1190 TAP_TAPCELL_ROW_47_230
*1191 TAP_TAPCELL_ROW_47_231
*1192 TAP_TAPCELL_ROW_48_232
*1193 TAP_TAPCELL_ROW_48_233
*1194 TAP_TAPCELL_ROW_48_234
*1195 TAP_TAPCELL_ROW_49_235
*1196 TAP_TAPCELL_ROW_49_236
*1197 TAP_TAPCELL_ROW_4_122
*1198 TAP_TAPCELL_ROW_4_123
*1199 TAP_TAPCELL_ROW_4_124
*1200 TAP_TAPCELL_ROW_50_237
*1201 TAP_TAPCELL_ROW_50_238
*1202 TAP_TAPCELL_ROW_50_239
*1203 TAP_TAPCELL_ROW_51_240
*1204 TAP_TAPCELL_ROW_51_241
*1205 TAP_TAPCELL_ROW_52_242
*1206 TAP_TAPCELL_ROW_52_243
*1207 TAP_TAPCELL_ROW_52_244
*1208 TAP_TAPCELL_ROW_53_245
*1209 TAP_TAPCELL_ROW_53_246
*1210 TAP_TAPCELL_ROW_54_247
*1211 TAP_TAPCELL_ROW_54_248
*1212 TAP_TAPCELL_ROW_54_249
*1213 TAP_TAPCELL_ROW_54_250
*1214 TAP_TAPCELL_ROW_54_251
*1215 TAP_TAPCELL_ROW_5_125
*1216 TAP_TAPCELL_ROW_5_126
*1217 TAP_TAPCELL_ROW_6_127
*1218 TAP_TAPCELL_ROW_6_128
*1219 TAP_TAPCELL_ROW_6_129
*1220 TAP_TAPCELL_ROW_7_130
*1221 TAP_TAPCELL_ROW_7_131
*1222 TAP_TAPCELL_ROW_8_132
*1223 TAP_TAPCELL_ROW_8_133
*1224 TAP_TAPCELL_ROW_8_134
*1225 TAP_TAPCELL_ROW_9_135
*1226 TAP_TAPCELL_ROW_9_136
*1227 _280_
*1228 _281_
*1229 _282_
*1230 _283_
*1231 _284_
*1232 _285_
*1233 _286_
*1234 _287_
*1235 _288_
*1236 _289_
*1237 _290_
*1238 _291_
*1239 _292_
*1240 _293_
*1241 _294_
*1242 _295_
*1243 _296_
*1244 _297_
*1245 _298_
*1246 _299_
*1247 _300_
*1248 _301_
*1249 _302_
*1250 _303_
*1251 _304_
*1252 _305_
*1253 _306_
*1254 _307_
*1255 _308_
*1256 _309_
*1257 _310_
*1258 _311_
*1259 _312_
*1260 _313_
*1261 _314_
*1262 _315_
*1263 _316_
*1264 _317_
*1265 _318_
*1266 _319_
*1267 _320_
*1268 _321_
*1269 _322_
*1270 _323_
*1271 _324_
*1272 _325_
*1273 _326_
*1274 _327_
*1275 _328_
*1276 _329_
*1277 _330_
*1278 _331_
*1279 _332_
*1280 _333_
*1281 _334_
*1282 _335_
*1283 _336_
*1284 _337_
*1285 _338_
*1286 _339_
*1287 _340_
*1288 _341_
*1289 _342_
*1290 _343_
*1291 _344_
*1292 _345_
*1293 _346_
*1294 _347_
*1295 _348_
*1296 _349_
*1297 _350_
*1298 _351_
*1299 _352_
*1300 _353_
*1301 _354_
*1302 _355_
*1303 _356_
*1304 _357_
*1305 _358_
*1306 _359_
*1307 _360_
*1308 _361_
*1309 _362_
*1310 _363_
*1311 _364_
*1312 _365_
*1313 _366_
*1314 _367_
*1315 _368_
*1316 _369_
*1317 _370_
*1318 _371_
*1319 _372_
*1320 _373_
*1321 _374_
*1322 _375_
*1323 _376_
*1324 _377_
*1325 _378_
*1326 _379_
*1327 _380_
*1328 _381_
*1329 _382_
*1330 _383_
*1331 _384_
*1332 _385_
*1333 _386_
*1334 _387_
*1335 _388_
*1336 _389_
*1337 _390_
*1338 _391_
*1339 _392_
*1340 _393_
*1341 _394_
*1342 _395_
*1343 _396_
*1344 _397_
*1345 _398_
*1346 _399_
*1347 _400_
*1348 _401_
*1349 _402_
*1350 _403_
*1351 _404_
*1352 _405_
*1353 _406_
*1354 _407_
*1355 _408_
*1356 _409_
*1357 _410_
*1358 _411_
*1359 _412_
*1360 _413_
*1361 _414_
*1362 _415_
*1363 _416_
*1364 _417_
*1365 _418_
*1366 _419_
*1367 _420_
*1368 _421_
*1369 _422_
*1370 _423_
*1371 _424_
*1372 _425_
*1373 _426_
*1374 _427_
*1375 _428_
*1376 _429_
*1377 _430_
*1378 _431_
*1379 _432_
*1380 _433_
*1381 _434_
*1382 _435_
*1383 _436_
*1384 _437_
*1385 _438_
*1386 _439_
*1387 _440_
*1388 _441_
*1389 _442_
*1390 _443_
*1391 _444_
*1392 _445_
*1393 _446_
*1394 _447_
*1395 _448_
*1396 _449_
*1397 _450_
*1398 _451_
*1399 _452_
*1400 _453_
*1401 _454_
*1402 _455_
*1403 _456_
*1404 _457_
*1405 _458_
*1406 _459_
*1407 _460_
*1408 _461_
*1409 _462_
*1410 _463_
*1411 _464_
*1412 _465_
*1413 _466_
*1414 _467_
*1415 _468_
*1416 _469_
*1417 _470_
*1418 _471_
*1419 _472_
*1420 _473_
*1421 _474_
*1422 _475_
*1423 _476_
*1424 _477_
*1425 _478_
*1426 _479_
*1427 _480_
*1428 _481_
*1429 _482_
*1430 _483_
*1431 _484_
*1432 _485_
*1433 _486_
*1434 _487_
*1435 _488_
*1436 _489_
*1437 _490_
*1438 _491_
*1439 _492_
*1440 _493_
*1441 _494_
*1442 _495_
*1443 _496_
*1444 _497_
*1445 _498_
*1446 _499_
*1447 _500_
*1448 _501_
*1449 _502_
*1450 _503_
*1451 _504_
*1452 _505_
*1453 _506_
*1454 _507_
*1455 _508_
*1456 _509_
*1457 _510_
*1458 _511_
*1459 _512_
*1460 _513_
*1461 _514_
*1462 _515_
*1463 _516_
*1464 _517_
*1465 _518_
*1466 _519_
*1467 _520_
*1468 _521_
*1469 _522_
*1470 _523_
*1471 _524_
*1472 _525_
*1473 _526_
*1474 _527_
*1475 _528_
*1476 _529_
*1477 _530_
*1478 _531_
*1479 _532_
*1480 _533_
*1481 _534_
*1482 _535_
*1483 _536_
*1484 _537_
*1485 _538_
*1486 _539_
*1487 _540_
*1488 _541_
*1489 _542_
*1490 _543_
*1491 _544_
*1492 _545_
*1493 _546_
*1494 _547_
*1495 _548_
*1496 _549_
*1497 _550_
*1498 _551_
*1499 _552_
*1500 _553_
*1501 _554_
*1502 _555_
*1503 _556_
*1504 _557_
*1505 _558_
*1506 _559_
*1507 _560_
*1508 _561_
*1509 _562_
*1510 _563_
*1511 _564_
*1512 _565_
*1513 _566_
*1514 _567_
*1515 _568_
*1516 _569_
*1517 _570_
*1518 _571_
*1519 _572_
*1520 _573_
*1521 _574_
*1522 _575_
*1523 _576_
*1524 _577_
*1525 _578_
*1526 _579_
*1527 _580_
*1528 _581_
*1529 _582_
*1530 _583_
*1531 _584_
*1532 _585_
*1533 _586_
*1534 _587_
*1535 _588_
*1536 _589_
*1537 _590_
*1538 _591_
*1539 _592_
*1540 _593_
*1541 _594_
*1542 _595_
*1543 _596_
*1544 _597_
*1545 _598_
*1546 _599_
*1547 _600_
*1548 _601_
*1549 _602_
*1550 _603_
*1551 _604_
*1552 _605_
*1553 _606_
*1554 _607_
*1555 _608_
*1556 _609_
*1557 _610_
*1558 _611_
*1559 _612_
*1560 _613_
*1561 _614_
*1562 _615_
*1563 _616_
*1564 _617_
*1565 _618_
*1566 _619_
*1567 _620_
*1568 _621_
*1569 _622_
*1570 _623_
*1571 _624_
*1572 clkbuf_0_clk
*1573 clkbuf_4_0_0_clk
*1574 clkbuf_4_10_0_clk
*1575 clkbuf_4_11_0_clk
*1576 clkbuf_4_12_0_clk
*1577 clkbuf_4_13_0_clk
*1578 clkbuf_4_14_0_clk
*1579 clkbuf_4_15_0_clk
*1580 clkbuf_4_1_0_clk
*1581 clkbuf_4_2_0_clk
*1582 clkbuf_4_3_0_clk
*1583 clkbuf_4_4_0_clk
*1584 clkbuf_4_5_0_clk
*1585 clkbuf_4_6_0_clk
*1586 clkbuf_4_7_0_clk
*1587 clkbuf_4_8_0_clk
*1588 clkbuf_4_9_0_clk
*1589 clkload0
*1590 clkload1
*1591 clkload10
*1592 clkload11
*1593 clkload12
*1594 clkload13
*1595 clkload2
*1596 clkload3
*1597 clkload4
*1598 clkload5
*1599 clkload6
*1600 clkload7
*1601 clkload8
*1602 clkload9
*1603 fanout11
*1604 fanout12
*1605 fanout13
*1606 fanout14
*1607 fanout15
*1608 fanout16
*1609 fanout17
*1610 fanout20
*1611 fanout21
*1612 fanout22
*1613 fanout23
*1614 fanout24
*1615 fanout25
*1616 fanout26
*1617 fanout27
*1618 fanout28
*1619 fanout29
*1620 fanout30
*1621 fanout31
*1622 fanout32
*1623 fanout33
*1624 fanout34
*1625 fanout35
*1626 fanout36
*1627 fanout37
*1628 fanout38
*1629 fanout39
*1630 fanout40
*1631 fanout41
*1632 fanout42
*1633 fanout43
*1634 fanout44
*1635 fanout45
*1636 fanout46
*1637 fanout47
*1638 fanout48
*1639 fanout49
*1640 fanout50
*1641 fanout51
*1642 fanout52
*1643 fanout53
*1644 fanout54
*1645 fanout55
*1646 fanout56
*1647 fanout57
*1648 fanout58
*1649 fanout59
*1650 fanout60
*1651 fanout61
*1652 fanout62
*1653 fanout63
*1654 input1
*1655 input2
*1656 input3
*1657 input4
*1658 max_cap18
*1659 output10
*1660 output5
*1661 output6
*1662 output7
*1663 output8
*1664 output9
*1665 wire19

*PORTS
cap_ctrl[0] O
cap_ctrl[1] O
cap_ctrl[2] O
clk I
comp_out I
en I
scl I
sda_in I
sda_oe O
sda_out O
trigger_out O

*D_NET *3 0.0016764
*CONN
*P cap_ctrl[0] O
*I *1660:Z O *D gf180mcu_fd_sc_mcu7t5v0__dlyb_1
*CAP
1 cap_ctrl[0] 0.000832991
2 *1660:Z 0.000832991
3 cap_ctrl[0] *1632:I 0
4 cap_ctrl[0] *1660:I 0
5 cap_ctrl[0] *311:26 1.0415e-05
*RES
1 *1660:Z cap_ctrl[0] 10.845 
*END

*D_NET *4 0.00231011
*CONN
*P cap_ctrl[1] O
*I *1661:Z O *D gf180mcu_fd_sc_mcu7t5v0__dlyb_1
*CAP
1 cap_ctrl[1] 0.000908008
2 *1661:Z 0.000908008
3 cap_ctrl[1] *1637:I 0.000494094
*RES
1 *1661:Z cap_ctrl[1] 11.745 
*END

*D_NET *5 0.00164731
*CONN
*P cap_ctrl[2] O
*I *1662:Z O *D gf180mcu_fd_sc_mcu7t5v0__dlyb_1
*CAP
1 cap_ctrl[2] 0.000823653
2 *1662:Z 0.000823653
*RES
1 *1662:Z cap_ctrl[2] 10.575 
*END

*D_NET *6 0.00736984
*CONN
*P clk I
*I *1572:I I *D gf180mcu_fd_sc_mcu7t5v0__clkbuf_16
*CAP
1 clk 0.00227968
2 *1572:I 0.00227968
3 *1572:I *1257:I 4.25624e-05
4 *1572:I *1264:A2 0.000159793
5 *1572:I *1272:B1 2.75692e-05
6 *1572:I *1272:B2 0.000158774
7 *1572:I *1272:C2 2.14347e-05
8 *1572:I *1295:A1 0
9 *1572:I *1295:A3 1.98047e-05
10 *1572:I *1295:A4 7.35094e-05
11 *1572:I *1302:A3 0
12 *1572:I *1391:A3 5.06031e-06
13 *1572:I *1396:A3 0
14 *1572:I *1447:I 0.000327519
15 *1572:I *1579:I 0.000259349
16 *1572:I *155:25 5.57773e-05
17 *1572:I *166:6 7.73347e-05
18 *1572:I *201:14 3.46409e-05
19 *1572:I *294:161 3.08015e-05
20 *1572:I *294:171 0.000299855
21 *1572:I *316:42 0
22 *1572:I *316:57 0.000633364
23 *1572:I *319:10 0.000204547
24 *1572:I *368:36 0.000182528
25 *1572:I *418:12 0
26 *1572:I *420:30 0.000196261
*RES
1 clk *1572:I 31.3264 
*END

*D_NET *7 0.00163992
*CONN
*P comp_out I
*I *1654:I I *D gf180mcu_fd_sc_mcu7t5v0__dlyb_1
*CAP
1 comp_out 0.000819959
2 *1654:I 0.000819959
*RES
1 comp_out *1654:I 10.845 
*END

*D_NET *8 0.000911945
*CONN
*P en I
*I *1655:I I *D gf180mcu_fd_sc_mcu7t5v0__dlyb_1
*CAP
1 en 0.000455973
2 *1655:I 0.000455973
*RES
1 en *1655:I 12.555 
*END

*D_NET *9 0.00102296
*CONN
*P scl I
*I *1656:I I *D gf180mcu_fd_sc_mcu7t5v0__dlyb_1
*CAP
1 scl 0.000478884
2 *1656:I 0.000478884
3 *1656:I *1571:D 4.8063e-05
4 *1656:I *1571:CLK 1.71254e-05
*RES
1 scl *1656:I 12.735 
*END

*D_NET *10 0.000735638
*CONN
*P sda_in I
*I *1657:I I *D gf180mcu_fd_sc_mcu7t5v0__dlyb_1
*CAP
1 sda_in 0.000367819
2 *1657:I 0.000367819
*RES
1 sda_in *1657:I 11.925 
*END

*D_NET *11 0.00124838
*CONN
*P sda_oe O
*I *1663:Z O *D gf180mcu_fd_sc_mcu7t5v0__dlyb_1
*CAP
1 sda_oe 0.000624191
2 *1663:Z 0.000624191
*RES
1 *1663:Z sda_oe 13.365 
*END

*D_NET *12 0.000922089
*CONN
*P sda_out O
*I *1664:Z O *D gf180mcu_fd_sc_mcu7t5v0__dlyb_1
*CAP
1 sda_out 0.000418229
2 *1664:Z 0.000418229
3 sda_out *1561:CLK 8.56312e-05
*RES
1 *1664:Z sda_out 12.285 
*END

*D_NET *13 0.000981675
*CONN
*P trigger_out O
*I *1659:Z O *D gf180mcu_fd_sc_mcu7t5v0__dlyb_1
*CAP
1 trigger_out 0.000490838
2 *1659:Z 0.000490838
*RES
1 *1659:Z trigger_out 12.645 
*END

*D_NET *14 0.000640429
*CONN
*I *1559:D I *D gf180mcu_fd_sc_mcu7t5v0__dffrnq_1
*I *1421:ZN O *D gf180mcu_fd_sc_mcu7t5v0__nand2_1
*CAP
1 *1559:D 0.000255158
2 *1421:ZN 0.000255158
3 *1559:D *1412:A2 0
4 *1559:D *1421:A2 9.98816e-05
5 *1559:D *1559:CLK 0
6 *1559:D *1568:D 3.02306e-05
*RES
1 *1421:ZN *1559:D 11.16 
*END

*D_NET *15 0.00126864
*CONN
*I *1560:D I *D gf180mcu_fd_sc_mcu7t5v0__dffrnq_1
*I *1419:ZN O *D gf180mcu_fd_sc_mcu7t5v0__nand2_1
*CAP
1 *1560:D 0.000169245
2 *1419:ZN 0.000169245
3 *1560:D *1419:A2 0.000231975
4 *1560:D *1561:CLK 0.000698179
*RES
1 *1419:ZN *1560:D 11.7 
*END

*D_NET *16 0.000378723
*CONN
*I *1561:D I *D gf180mcu_fd_sc_mcu7t5v0__dffrnq_1
*I *1415:ZN O *D gf180mcu_fd_sc_mcu7t5v0__nand2_1
*CAP
1 *1561:D 0.000100514
2 *1415:ZN 0.000100514
3 *1561:D *1412:A1 2.26729e-05
4 *1561:D *1412:A2 2.17167e-05
5 *1561:D *1414:A2 1.61174e-05
6 *1561:D *1415:A1 8.69576e-05
7 *1561:D *1561:CLK 3.02306e-05
*RES
1 *1415:ZN *1561:D 9.99 
*END

*D_NET *17 0.00542172
*CONN
*I *1562:D I *D gf180mcu_fd_sc_mcu7t5v0__dffrnq_1
*I *1410:ZN O *D gf180mcu_fd_sc_mcu7t5v0__oai32_1
*CAP
1 *1562:D 0.000948557
2 *1410:ZN 0.000948557
3 *1562:D *1406:A1 8.72603e-05
4 *1562:D *1410:B1 0.000276921
5 *1562:D *1410:B2 0.000106536
6 *1562:D *1421:A2 0.000305141
7 *1562:D *1444:I0 9.93993e-06
8 *1562:D *1452:I 3.0177e-06
9 *1562:D *1562:RN 0.00025625
10 *1562:D *1565:CLK 1.84079e-05
11 *1562:D *1620:I 0.00047923
12 *1562:D *217:16 0.00195145
13 *1562:D *405:10 3.04608e-05
*RES
1 *1410:ZN *1562:D 29.07 
*END

*D_NET *18 0.000810192
*CONN
*I *1563:D I *D gf180mcu_fd_sc_mcu7t5v0__dffrnq_1
*I *1409:ZN O *D gf180mcu_fd_sc_mcu7t5v0__oai22_1
*CAP
1 *1563:D 8.08227e-05
2 *1409:ZN 8.08227e-05
3 *1563:D *1409:A1 0.000345721
4 *1563:D *1626:I 0.000269783
5 *1563:D *272:31 2.89427e-06
6 *1563:D *339:30 3.01487e-05
*RES
1 *1409:ZN *1563:D 10.53 
*END

*D_NET *19 0.000424112
*CONN
*I *1564:D I *D gf180mcu_fd_sc_mcu7t5v0__dffrnq_1
*I *1408:ZN O *D gf180mcu_fd_sc_mcu7t5v0__oai22_1
*CAP
1 *1564:D 0.000115953
2 *1408:ZN 0.000115953
3 *1564:D *1626:I 0
4 *1564:D *1663:I 0.000192205
*RES
1 *1408:ZN *1564:D 10.17 
*END

*D_NET *20 0.00512623
*CONN
*I *1568:D I *D gf180mcu_fd_sc_mcu7t5v0__dffrnq_1
*I *1412:Z O *D gf180mcu_fd_sc_mcu7t5v0__and2_1
*CAP
1 *1568:D 0.000932233
2 *1412:Z 0.000932233
3 *1568:D *1421:A2 0.000365445
4 *1568:D *1460:I 0.000515537
5 *1568:D *1535:CLK 4.14988e-05
6 *1568:D *1567:CLK 0.000151281
7 *1568:D *1570:D 0.000567809
8 *1568:D *1645:I 0
9 *1568:D *1647:I 0
10 *1568:D *1651:I 0
11 *1568:D *239:12 0.000412825
12 *1568:D *239:16 0.00100751
13 *1568:D *309:6 9.41422e-05
14 *1568:D *360:8 7.54878e-05
15 *1568:D *360:25 0
16 *1559:D *1568:D 3.02306e-05
*RES
1 *1412:Z *1568:D 20.43 
*END

*D_NET *21 0.00204848
*CONN
*I *1508:D I *D gf180mcu_fd_sc_mcu7t5v0__dffrnq_1
*I *1422:ZN O *D gf180mcu_fd_sc_mcu7t5v0__nor3_1
*CAP
1 *1508:D 0.000601877
2 *1422:ZN 0.000601877
3 *1508:D *1259:I 0
4 *1508:D *1280:A1 0.000349055
5 *1508:D *1422:A1 0.000342814
6 *1508:D *1481:I 5.23429e-06
7 *1508:D *168:14 0
8 *1508:D *426:29 0.000147623
*RES
1 *1422:ZN *1508:D 14.22 
*END

*D_NET *22 0.00105415
*CONN
*I *1509:D I *D gf180mcu_fd_sc_mcu7t5v0__dffrnq_1
*I *1425:ZN O *D gf180mcu_fd_sc_mcu7t5v0__nor3_1
*CAP
1 *1509:D 0.000178051
2 *1425:ZN 0.000178051
3 *1509:D *1290:A4 3.01487e-05
4 *1509:D *1422:A3 0.000342416
5 *1509:D *1637:I 0.000325483
*RES
1 *1425:ZN *1509:D 11.52 
*END

*D_NET *23 0.00129735
*CONN
*I *1510:D I *D gf180mcu_fd_sc_mcu7t5v0__dffrnq_1
*I *1429:ZN O *D gf180mcu_fd_sc_mcu7t5v0__nor3_1
*CAP
1 *1510:D 0.000485089
2 *1429:ZN 0.000485089
3 *1510:D *1429:A1 7.80701e-06
4 *1510:D *1429:A2 4.45729e-05
5 *1510:D *1432:A1 0
6 *1510:D *1432:A4 3.20838e-05
7 *1510:D *1508:RN 0.000128404
8 *1510:D *1510:CLK 1.04649e-05
9 *1510:D *151:10 0
10 *1510:D *306:6 6.79182e-06
11 *1510:D *313:27 5.15527e-05
12 *1510:D *425:10 4.54996e-05
*RES
1 *1429:ZN *1510:D 12.42 
*END

*D_NET *24 0.00166748
*CONN
*I *1511:D I *D gf180mcu_fd_sc_mcu7t5v0__dffrnq_1
*I *1432:ZN O *D gf180mcu_fd_sc_mcu7t5v0__nor4_1
*CAP
1 *1511:D 0.000175944
2 *1432:ZN 0.000175944
3 *1511:D *1279:A2 0.000205793
4 *1511:D *1430:A1 7.86369e-05
5 *1511:D *1430:A2 0.000224296
6 *1511:D *167:8 0.000466036
7 *1511:D *167:10 0.000320262
8 *1511:D *313:27 2.0567e-05
*RES
1 *1432:ZN *1511:D 20.88 
*END

*D_NET *25 0.0013777
*CONN
*I *1512:D I *D gf180mcu_fd_sc_mcu7t5v0__dffrnq_1
*I *1435:ZN O *D gf180mcu_fd_sc_mcu7t5v0__nor4_1
*CAP
1 *1512:D 0.000292814
2 *1435:ZN 0.000292814
3 *1512:D *1435:A4 0.000174497
4 *1512:D *1607:I 0.000121351
5 *1512:D *190:14 2.08284e-05
6 *1512:D *287:10 0.000128714
7 *1512:D *313:10 0.000346684
*RES
1 *1435:ZN *1512:D 20.88 
*END

*D_NET *26 0.00315433
*CONN
*I *1513:D I *D gf180mcu_fd_sc_mcu7t5v0__dffrnq_1
*I *1438:ZN O *D gf180mcu_fd_sc_mcu7t5v0__nor3_1
*CAP
1 *1513:D 0.000183912
2 *1438:ZN 0.000183912
3 *1513:D *1438:A1 4.47283e-05
4 *1513:D *1438:A2 1.07374e-05
5 *1513:D *1439:A1 0.000426602
6 *1513:D *1468:I 2.9799e-05
7 *1513:D *1469:I 0.00129697
8 *1513:D *430:14 2.36954e-05
9 *1513:D *430:36 6.34901e-05
10 *1513:D *431:29 0.000890491
*RES
1 *1438:ZN *1513:D 22.5 
*END

*D_NET *27 0.00100347
*CONN
*I *1514:D I *D gf180mcu_fd_sc_mcu7t5v0__dffrnq_1
*I *1441:ZN O *D gf180mcu_fd_sc_mcu7t5v0__nor3_1
*CAP
1 *1514:D 0.000447158
2 *1441:ZN 0.000447158
3 *1514:D *1441:A3 6.99409e-05
4 *1514:D *1621:I 0
5 *1514:D *1640:I 2.65444e-06
6 *1514:D *336:6 3.65543e-05
*RES
1 *1441:ZN *1514:D 12.33 
*END

*D_NET *28 0.00191016
*CONN
*I *1515:D I *D gf180mcu_fd_sc_mcu7t5v0__dffrnq_1
*I *1443:ZN O *D gf180mcu_fd_sc_mcu7t5v0__nor3_1
*CAP
1 *1515:D 7.60618e-05
2 *1443:ZN 7.60618e-05
3 *1515:D *1443:A3 0.000903661
4 *1515:D *1606:I 0.000151427
5 *1515:D *287:33 2.08301e-05
6 *1515:D *432:8 0.000682113
*RES
1 *1443:ZN *1515:D 20.7 
*END

*D_NET *29 0.00245316
*CONN
*I *1554:RN I *D gf180mcu_fd_sc_mcu7t5v0__dffrnq_1
*I *1444:S I *D gf180mcu_fd_sc_mcu7t5v0__mux2_2
*I *1260:ZN O *D gf180mcu_fd_sc_mcu7t5v0__clkinv_1
*CAP
1 *1554:RN 0.00032415
2 *1444:S 1.81091e-05
3 *1260:ZN 0.000101294
4 *29:8 0.000443553
5 *1444:S *1444:I1 0.000247379
6 *1444:S *1554:D 7.41762e-05
7 *1554:RN *1249:I 0
8 *1554:RN *1260:I 0
9 *1554:RN *1444:I1 0.000705715
10 *1554:RN *1554:D 0.000219756
11 *1554:RN *1650:I 5.06377e-06
12 *1554:RN *367:23 0
13 *1554:RN *418:6 0
14 *29:8 *1260:I 0.000278256
15 *29:8 *1444:I0 3.57113e-05
16 *29:8 *1444:I1 0
*RES
1 *1260:ZN *29:8 9.99 
2 *29:8 *1444:S 9.63 
3 *29:8 *1554:RN 12.42 
*END

*D_NET *30 0.000476457
*CONN
*I *1555:RN I *D gf180mcu_fd_sc_mcu7t5v0__dffrnq_1
*I *1445:ZN O *D gf180mcu_fd_sc_mcu7t5v0__clkinv_1
*CAP
1 *1555:RN 0.000133355
2 *1445:ZN 0.000133355
3 *1555:RN *1402:A1 3.73774e-06
4 *1555:RN *1402:A2 0
5 *1555:RN *1555:D 6.31783e-05
6 *1555:RN *301:48 0.000142831
*RES
1 *1445:ZN *1555:RN 10.35 
*END

*D_NET *31 0.000440166
*CONN
*I *1556:RN I *D gf180mcu_fd_sc_mcu7t5v0__dffrnq_1
*I *1446:ZN O *D gf180mcu_fd_sc_mcu7t5v0__clkinv_1
*CAP
1 *1556:RN 0.000220083
2 *1446:ZN 0.000220083
*RES
1 *1446:ZN *1556:RN 10.35 
*END

*D_NET *32 0.000440166
*CONN
*I *1557:RN I *D gf180mcu_fd_sc_mcu7t5v0__dffrnq_1
*I *1447:ZN O *D gf180mcu_fd_sc_mcu7t5v0__clkinv_1
*CAP
1 *1557:RN 0.000220083
2 *1447:ZN 0.000220083
*RES
1 *1447:ZN *1557:RN 10.35 
*END

*D_NET *33 0.00161106
*CONN
*I *1558:RN I *D gf180mcu_fd_sc_mcu7t5v0__dffrnq_1
*I *1448:ZN O *D gf180mcu_fd_sc_mcu7t5v0__clkinv_1
*CAP
1 *1558:RN 0.000301451
2 *1448:ZN 0.000301451
3 *1558:RN *1551:D 0.000231442
4 *1558:RN *1558:D 0.000116662
5 *1558:RN *1608:I 4.78178e-05
6 *1558:RN *316:42 0.000551919
7 *1558:RN *415:29 6.0315e-05
*RES
1 *1448:ZN *1558:RN 22.32 
*END

*D_NET *34 0.000641115
*CONN
*I *1559:RN I *D gf180mcu_fd_sc_mcu7t5v0__dffrnq_1
*I *1449:ZN O *D gf180mcu_fd_sc_mcu7t5v0__clkinv_1
*CAP
1 *1559:RN 0.000230152
2 *1449:ZN 0.000230152
3 *1559:RN *1449:I 0
4 *1559:RN *1457:I 0
5 *1559:RN *1645:I 0.000180811
6 *1559:RN *159:6 0
*RES
1 *1449:ZN *1559:RN 10.8 
*END

*D_NET *35 0.000536987
*CONN
*I *1560:RN I *D gf180mcu_fd_sc_mcu7t5v0__dffrnq_1
*I *1450:ZN O *D gf180mcu_fd_sc_mcu7t5v0__clkinv_1
*CAP
1 *1560:RN 0.000142282
2 *1450:ZN 0.000142282
3 *1560:RN *237:29 0.000209048
4 *1560:RN *361:22 3.87145e-05
5 *1560:RN *361:37 4.6613e-06
*RES
1 *1450:ZN *1560:RN 10.08 
*END

*D_NET *36 0.00169883
*CONN
*I *1561:RN I *D gf180mcu_fd_sc_mcu7t5v0__dffrnq_1
*I *1451:ZN O *D gf180mcu_fd_sc_mcu7t5v0__clkinv_1
*CAP
1 *1561:RN 0.000444218
2 *1451:ZN 0.000444218
3 *1561:RN *1308:A3 4.43493e-05
4 *1561:RN *209:12 2.78273e-05
5 *1561:RN *237:6 0
6 *1561:RN *237:29 0.000209048
7 *1561:RN *361:10 0.000529172
*RES
1 *1451:ZN *1561:RN 13.05 
*END

*D_NET *37 0.0036745
*CONN
*I *1562:RN I *D gf180mcu_fd_sc_mcu7t5v0__dffrnq_1
*I *1452:ZN O *D gf180mcu_fd_sc_mcu7t5v0__clkinv_1
*CAP
1 *1562:RN 0.000580717
2 *1452:ZN 0.000580717
3 *1562:RN *1518:CLK 1.61174e-05
4 *1562:RN *1569:D 9.99635e-05
5 *1562:RN *233:18 0.00143792
6 *1562:RN *337:19 0.000685085
7 *1562:RN *411:19 1.77281e-05
8 *1562:D *1562:RN 0.00025625
*RES
1 *1452:ZN *1562:RN 25.47 
*END

*D_NET *38 0.000349262
*CONN
*I *1563:RN I *D gf180mcu_fd_sc_mcu7t5v0__dffrnq_1
*I *1453:ZN O *D gf180mcu_fd_sc_mcu7t5v0__clkinv_1
*CAP
1 *1563:RN 0.000139833
2 *1453:ZN 0.000139833
3 *1563:RN *1328:A2 1.26644e-05
4 *1563:RN *1646:I 5.69319e-05
*RES
1 *1453:ZN *1563:RN 10.08 
*END

*D_NET *39 0.000293311
*CONN
*I *1564:RN I *D gf180mcu_fd_sc_mcu7t5v0__dffrnq_1
*I *1454:ZN O *D gf180mcu_fd_sc_mcu7t5v0__clkinv_1
*CAP
1 *1564:RN 0.000146656
2 *1454:ZN 0.000146656
3 *1564:RN *1646:I 0
*RES
1 *1454:ZN *1564:RN 9.9 
*END

*D_NET *40 0.000717868
*CONN
*I *1565:RN I *D gf180mcu_fd_sc_mcu7t5v0__dffrnq_1
*I *1455:ZN O *D gf180mcu_fd_sc_mcu7t5v0__clkinv_1
*CAP
1 *1565:RN 0.000312204
2 *1455:ZN 0.000312204
3 *1565:RN *423:12 9.34594e-05
*RES
1 *1455:ZN *1565:RN 11.16 
*END

*D_NET *41 0.000653437
*CONN
*I *1566:RN I *D gf180mcu_fd_sc_mcu7t5v0__dffrnq_1
*I *1456:ZN O *D gf180mcu_fd_sc_mcu7t5v0__clkinv_1
*CAP
1 *1566:RN 0.0001302
2 *1456:ZN 0.0001302
3 *1566:RN *1257:I 0.0001102
4 *1566:RN *1269:A2 0.000169927
5 *1566:RN *364:13 2.59527e-05
6 *1566:RN *376:14 8.69576e-05
*RES
1 *1456:ZN *1566:RN 19.62 
*END

*D_NET *42 0.00181114
*CONN
*I *1567:SETN I *D gf180mcu_fd_sc_mcu7t5v0__dffsnq_1
*I *1457:ZN O *D gf180mcu_fd_sc_mcu7t5v0__clkinv_1
*CAP
1 *1567:SETN 0.000344866
2 *1457:ZN 0.000344866
3 *1567:SETN *1250:I 0.0006413
4 *1567:SETN *1421:A2 0
5 *1567:SETN *406:10 1.86887e-06
6 *1567:SETN *406:12 5.70124e-05
7 *1567:SETN *406:36 0.000421224
*RES
1 *1457:ZN *1567:SETN 21.42 
*END

*D_NET *43 0.0020558
*CONN
*I *1568:RN I *D gf180mcu_fd_sc_mcu7t5v0__dffrnq_1
*I *1458:ZN O *D gf180mcu_fd_sc_mcu7t5v0__clkinv_1
*CAP
1 *1568:RN 0.000930537
2 *1458:ZN 0.000930537
3 *1568:RN *1343:A2 0
4 *1568:RN *1568:CLK 0.00015997
5 *1568:RN *1652:I 2.66308e-05
6 *1568:RN *239:16 8.12023e-06
7 *1568:RN *239:33 0
*RES
1 *1458:ZN *1568:RN 24.12 
*END

*D_NET *44 0.000321109
*CONN
*I *1569:SETN I *D gf180mcu_fd_sc_mcu7t5v0__dffsnq_1
*I *1459:ZN O *D gf180mcu_fd_sc_mcu7t5v0__clkinv_1
*CAP
1 *1569:SETN 0.000133645
2 *1459:ZN 0.000133645
3 *1569:SETN *1646:I 5.3819e-05
4 *1569:SETN *298:25 0
*RES
1 *1459:ZN *1569:SETN 9.99 
*END

*D_NET *45 0.0016141
*CONN
*I *1570:SETN I *D gf180mcu_fd_sc_mcu7t5v0__dffsnq_1
*I *1460:ZN O *D gf180mcu_fd_sc_mcu7t5v0__clkinv_1
*CAP
1 *1570:SETN 0.000210748
2 *1460:ZN 0.000210748
3 *1570:SETN *1460:I 0.00061317
4 *1570:SETN *360:8 9.07674e-05
5 *1570:SETN *360:21 0.000351582
6 *1570:SETN *360:41 0.000137088
*RES
1 *1460:ZN *1570:SETN 20.88 
*END

*D_NET *46 0.00140922
*CONN
*I *1571:SETN I *D gf180mcu_fd_sc_mcu7t5v0__dffsnq_1
*I *1461:ZN O *D gf180mcu_fd_sc_mcu7t5v0__clkinv_1
*CAP
1 *1571:SETN 0.000229242
2 *1461:ZN 0.000229242
3 *1571:SETN *1461:I 4.47028e-05
4 *1571:SETN *1490:I 0.000584045
5 *1571:SETN *1536:RN 8.69474e-05
6 *1571:SETN *1571:CLK 2.9238e-05
7 *1571:SETN *349:8 2.8764e-06
8 *1571:SETN *349:23 0.000107427
9 *1571:SETN *395:10 9.55009e-05
*RES
1 *1461:ZN *1571:SETN 20.79 
*END

*D_NET *47 0.00111563
*CONN
*I *1508:RN I *D gf180mcu_fd_sc_mcu7t5v0__dffrnq_1
*I *1462:ZN O *D gf180mcu_fd_sc_mcu7t5v0__clkinv_1
*CAP
1 *1508:RN 0.000447969
2 *1462:ZN 0.000447969
3 *1508:RN *1509:RN 0
4 *1508:RN *1510:CLK 4.54996e-05
5 *1508:RN *426:12 4.57916e-05
6 *1510:D *1508:RN 0.000128404
*RES
1 *1462:ZN *1508:RN 12.15 
*END

*D_NET *48 0.000249471
*CONN
*I *1509:RN I *D gf180mcu_fd_sc_mcu7t5v0__dffrnq_1
*I *1463:ZN O *D gf180mcu_fd_sc_mcu7t5v0__clkinv_1
*CAP
1 *1509:RN 7.69853e-05
2 *1463:ZN 7.69853e-05
3 *1509:RN *1259:I 9.55009e-05
4 *1508:RN *1509:RN 0
*RES
1 *1463:ZN *1509:RN 9.63 
*END

*D_NET *49 0.000247564
*CONN
*I *1510:RN I *D gf180mcu_fd_sc_mcu7t5v0__dffrnq_1
*I *1464:ZN O *D gf180mcu_fd_sc_mcu7t5v0__clkinv_1
*CAP
1 *1510:RN 0.000120432
2 *1464:ZN 0.000120432
3 *1510:RN *427:12 6.7004e-06
*RES
1 *1464:ZN *1510:RN 9.63 
*END

*D_NET *50 0.000748066
*CONN
*I *1511:RN I *D gf180mcu_fd_sc_mcu7t5v0__dffrnq_1
*I *1465:ZN O *D gf180mcu_fd_sc_mcu7t5v0__clkinv_1
*CAP
1 *1511:RN 0.000121623
2 *1465:ZN 0.000121623
3 *1511:RN *1466:I 0.00050482
*RES
1 *1465:ZN *1511:RN 10.35 
*END

*D_NET *51 0.000357776
*CONN
*I *1512:RN I *D gf180mcu_fd_sc_mcu7t5v0__dffrnq_1
*I *1466:ZN O *D gf180mcu_fd_sc_mcu7t5v0__clkinv_1
*CAP
1 *1512:RN 6.31671e-05
2 *1466:ZN 6.31671e-05
3 *1512:RN *1466:I 0.000231442
*RES
1 *1466:ZN *1512:RN 9.63 
*END

*D_NET *52 0.00105237
*CONN
*I *1513:RN I *D gf180mcu_fd_sc_mcu7t5v0__dffrnq_1
*I *1467:ZN O *D gf180mcu_fd_sc_mcu7t5v0__clkinv_1
*CAP
1 *1513:RN 3.88505e-05
2 *1467:ZN 3.88505e-05
3 *1513:RN *1467:I 0.00015547
4 *1513:RN *1468:I 0.000331866
5 *1513:RN *430:36 0.000487336
*RES
1 *1467:ZN *1513:RN 10.35 
*END

*D_NET *53 0.000482916
*CONN
*I *1514:RN I *D gf180mcu_fd_sc_mcu7t5v0__dffrnq_1
*I *1468:ZN O *D gf180mcu_fd_sc_mcu7t5v0__clkinv_1
*CAP
1 *1514:RN 0.000122906
2 *1468:ZN 0.000122906
3 *1514:RN *316:25 0.00022444
4 *1514:RN *431:10 1.26644e-05
*RES
1 *1468:ZN *1514:RN 10.35 
*END

*D_NET *54 0.00084283
*CONN
*I *1515:RN I *D gf180mcu_fd_sc_mcu7t5v0__dffrnq_1
*I *1469:ZN O *D gf180mcu_fd_sc_mcu7t5v0__clkinv_1
*CAP
1 *1515:RN 0.000235022
2 *1469:ZN 0.000235022
3 *1515:RN *1439:A1 5.97457e-06
4 *1515:RN *1469:I 0.000173375
5 *1515:RN *430:36 0.000193438
*RES
1 *1469:ZN *1515:RN 11.07 
*END

*D_NET *55 0.000892376
*CONN
*I *1516:SETN I *D gf180mcu_fd_sc_mcu7t5v0__dffsnq_1
*I *1470:ZN O *D gf180mcu_fd_sc_mcu7t5v0__clkinv_1
*CAP
1 *1516:SETN 0.000195008
2 *1470:ZN 0.000195008
3 *1516:SETN *1610:I 0.000139586
4 *1516:SETN *311:36 0.000362773
5 *1516:SETN *359:14 0
*RES
1 *1470:ZN *1516:SETN 11.16 
*END

*D_NET *56 0.000479995
*CONN
*I *1517:RN I *D gf180mcu_fd_sc_mcu7t5v0__dffrnq_1
*I *1471:ZN O *D gf180mcu_fd_sc_mcu7t5v0__clkinv_1
*CAP
1 *1517:RN 0.000118278
2 *1471:ZN 0.000118278
3 *1517:RN *1267:B1 1.7368e-05
4 *1517:RN *1270:A1 2.70125e-05
5 *1517:RN *1270:B1 3.33171e-05
6 *1517:RN *294:161 0.000165741
*RES
1 *1471:ZN *1517:RN 19.35 
*END

*D_NET *57 0.000451922
*CONN
*I *1518:SETN I *D gf180mcu_fd_sc_mcu7t5v0__dffsnq_1
*I *1472:ZN O *D gf180mcu_fd_sc_mcu7t5v0__clkinv_1
*CAP
1 *1518:SETN 0.000150248
2 *1472:ZN 0.000150248
3 *1518:SETN *359:26 0.000151427
4 *1518:SETN *376:10 0
*RES
1 *1472:ZN *1518:SETN 10.26 
*END

*D_NET *58 0.000725982
*CONN
*I *1519:RN I *D gf180mcu_fd_sc_mcu7t5v0__dffrnq_1
*I *1473:ZN O *D gf180mcu_fd_sc_mcu7t5v0__clkinv_1
*CAP
1 *1519:RN 0.000233403
2 *1473:ZN 0.000233403
3 *1519:RN *1262:A4 1.07374e-05
4 *1519:RN *1473:I 0.000111633
5 *1519:RN *1474:I 0.000136807
*RES
1 *1473:ZN *1519:RN 10.8 
*END

*D_NET *59 0.00238421
*CONN
*I *1520:RN I *D gf180mcu_fd_sc_mcu7t5v0__dffrnq_1
*I *1474:ZN O *D gf180mcu_fd_sc_mcu7t5v0__clkinv_1
*CAP
1 *1520:RN 0.000438225
2 *1474:ZN 0.000438225
3 *1520:RN *1381:B 1.47998e-05
4 *1520:RN *1384:I0 7.6387e-05
5 *1520:RN *1386:A1 0.00131752
6 *1520:RN *1519:D 4.82122e-05
7 *1520:RN *378:25 5.08425e-05
*RES
1 *1474:ZN *1520:RN 22.95 
*END

*D_NET *60 0.000379214
*CONN
*I *1521:RN I *D gf180mcu_fd_sc_mcu7t5v0__dffrnq_1
*I *1475:ZN O *D gf180mcu_fd_sc_mcu7t5v0__clkinv_1
*CAP
1 *1521:RN 0.00010025
2 *1475:ZN 0.00010025
3 *1521:RN *154:23 9.55009e-05
4 *1521:RN *294:7 2.95272e-05
5 *1521:RN *364:6 5.36871e-05
*RES
1 *1475:ZN *1521:RN 10.08 
*END

*D_NET *61 0.000743421
*CONN
*I *1522:RN I *D gf180mcu_fd_sc_mcu7t5v0__dffrnq_1
*I *1476:ZN O *D gf180mcu_fd_sc_mcu7t5v0__clkinv_1
*CAP
1 *1522:RN 0.000100205
2 *1476:ZN 0.000100205
3 *1522:RN *1476:I 0.000433797
4 *1522:RN *308:35 0.000109215
*RES
1 *1476:ZN *1522:RN 10.44 
*END

*D_NET *62 0.000685112
*CONN
*I *1523:RN I *D gf180mcu_fd_sc_mcu7t5v0__dffrnq_1
*I *1477:ZN O *D gf180mcu_fd_sc_mcu7t5v0__clkinv_1
*CAP
1 *1523:RN 0.000342556
2 *1477:ZN 0.000342556
*RES
1 *1477:ZN *1523:RN 11.34 
*END

*D_NET *63 0.00261521
*CONN
*I *1524:RN I *D gf180mcu_fd_sc_mcu7t5v0__dffrnq_1
*I *1478:ZN O *D gf180mcu_fd_sc_mcu7t5v0__clkinv_1
*CAP
1 *1524:RN 0.000298742
2 *1478:ZN 0.000298742
3 *1524:RN *1373:A1 0
4 *1524:RN *1373:A2 3.80346e-05
5 *1524:RN *1533:CLK 0.000814543
6 *1524:RN *1653:I 0.000380315
7 *1524:RN *305:20 0.000362298
8 *1524:RN *347:14 0.000372597
9 *1524:RN *371:6 4.99408e-05
*RES
1 *1478:ZN *1524:RN 22.14 
*END

*D_NET *64 0.00310765
*CONN
*I *1525:RN I *D gf180mcu_fd_sc_mcu7t5v0__dffrnq_1
*I *1479:ZN O *D gf180mcu_fd_sc_mcu7t5v0__clkinv_1
*CAP
1 *1525:RN 0.00046001
2 *1479:ZN 0.00046001
3 *1525:RN *1243:I 0.00050482
4 *1525:RN *1278:B2 4.43719e-05
5 *1525:RN *1373:A1 8.12856e-06
6 *1525:RN *1374:A1 0.000653848
7 *1525:RN *1533:RN 0
8 *1525:RN *1653:I 0.000948609
9 *1525:RN *347:8 2.78561e-05
10 *1525:RN *371:6 0
*RES
1 *1479:ZN *1525:RN 23.4 
*END

*D_NET *65 0.00342616
*CONN
*I *1526:RN I *D gf180mcu_fd_sc_mcu7t5v0__dffrnq_1
*I *1480:ZN O *D gf180mcu_fd_sc_mcu7t5v0__clkinv_1
*CAP
1 *1526:RN 0.000239635
2 *1480:ZN 0.000239635
3 *1526:RN *1653:I 0.00133231
4 *1526:RN *342:50 1.53188e-05
5 *1526:RN *347:43 0.00159926
*RES
1 *1480:ZN *1526:RN 14.04 
*END

*D_NET *66 0.00212131
*CONN
*I *1527:RN I *D gf180mcu_fd_sc_mcu7t5v0__dffrnq_1
*I *1481:ZN O *D gf180mcu_fd_sc_mcu7t5v0__clkinv_1
*CAP
1 *1527:RN 0.000246271
2 *1481:ZN 0.000246271
3 *1527:RN *1292:B1 0.000348355
4 *1527:RN *1292:B2 0.000294421
5 *1527:RN *1369:A1 9.30289e-05
6 *1527:RN *1369:A2 4.20744e-05
7 *1527:RN *1481:I 0
8 *1527:RN *1530:RN 0.000703432
9 *1527:RN *1607:I 1.17934e-05
10 *1527:RN *148:25 0.000135666
*RES
1 *1481:ZN *1527:RN 21.96 
*END

*D_NET *67 0.000866551
*CONN
*I *1528:RN I *D gf180mcu_fd_sc_mcu7t5v0__dffrnq_1
*I *1482:ZN O *D gf180mcu_fd_sc_mcu7t5v0__clkinv_1
*CAP
1 *1528:RN 0.000274778
2 *1482:ZN 0.000274778
3 *1528:RN *1527:D 9.16061e-06
4 *1528:RN *1614:I 0.000119951
5 *1528:RN *1616:I 0.000127736
6 *1528:RN *294:9 4.48299e-05
7 *1528:RN *342:50 1.53188e-05
*RES
1 *1482:ZN *1528:RN 11.34 
*END

*D_NET *68 0.00256515
*CONN
*I *1529:SETN I *D gf180mcu_fd_sc_mcu7t5v0__dffsnq_1
*I *1483:ZN O *D gf180mcu_fd_sc_mcu7t5v0__clkinv_1
*CAP
1 *1529:SETN 0.000486236
2 *1483:ZN 0.000486236
3 *1529:SETN *1364:B 0.000201539
4 *1529:SETN *1368:A1 0
5 *1529:SETN *1530:CLK 0.000142831
6 *1529:SETN *330:6 0.000444513
7 *1529:SETN *330:10 0.000444513
8 *1529:SETN *342:50 0.000215697
9 *1529:SETN *386:10 0.000143583
*RES
1 *1483:ZN *1529:SETN 24.3 
*END

*D_NET *69 0.00264074
*CONN
*I *1530:RN I *D gf180mcu_fd_sc_mcu7t5v0__dffrnq_1
*I *1484:ZN O *D gf180mcu_fd_sc_mcu7t5v0__clkinv_1
*CAP
1 *1530:RN 0.000378229
2 *1484:ZN 0.000378229
3 *1530:RN *1291:A1 0.00050482
4 *1530:RN *1291:A2 0.00050482
5 *1530:RN *1292:B2 3.22348e-05
6 *1530:RN *1363:A1 1.13403e-05
7 *1530:RN *1369:A1 3.0177e-06
8 *1530:RN *1370:A1 0
9 *1530:RN *148:25 0.000124614
10 *1530:RN *357:27 0
11 *1527:RN *1530:RN 0.000703432
*RES
1 *1484:ZN *1530:RN 22.68 
*END

*D_NET *70 0.00155531
*CONN
*I *1531:SETN I *D gf180mcu_fd_sc_mcu7t5v0__dffsnq_1
*I *1485:ZN O *D gf180mcu_fd_sc_mcu7t5v0__clkinv_1
*CAP
1 *1531:SETN 0.000406769
2 *1485:ZN 0.000406769
3 *1531:SETN *1291:A1 2.37143e-05
4 *1531:SETN *1379:A1 0.000382875
5 *1531:SETN *1474:I 0
6 *1531:SETN *1523:CLK 8.33579e-05
7 *1531:SETN *354:23 9.52423e-05
8 *1531:SETN *354:29 0.000156581
*RES
1 *1485:ZN *1531:SETN 21.69 
*END

*D_NET *71 0.00293225
*CONN
*I *1532:RN I *D gf180mcu_fd_sc_mcu7t5v0__dffrnq_1
*I *1486:ZN O *D gf180mcu_fd_sc_mcu7t5v0__clkinv_1
*CAP
1 *1532:RN 0.000526727
2 *1486:ZN 0.000526727
3 *1532:RN *1358:S 8.16511e-05
4 *1532:RN *1376:B 0.00102639
5 *1532:RN *1524:D 0.000455757
6 *1532:RN *1636:I 3.96404e-05
7 *1532:RN *1641:I 0
8 *1532:RN *311:26 0
9 *1532:RN *345:56 0.000176886
10 *1532:RN *348:33 9.84668e-05
11 *1532:RN *355:10 0
*RES
1 *1486:ZN *1532:RN 23.85 
*END

*D_NET *72 0.000521129
*CONN
*I *1533:RN I *D gf180mcu_fd_sc_mcu7t5v0__dffrnq_1
*I *1487:ZN O *D gf180mcu_fd_sc_mcu7t5v0__clkinv_1
*CAP
1 *1533:RN 0.000260565
2 *1487:ZN 0.000260565
3 *1533:RN *1661:I 0
4 *1525:RN *1533:RN 0
*RES
1 *1487:ZN *1533:RN 10.62 
*END

*D_NET *73 0.00106303
*CONN
*I *1534:RN I *D gf180mcu_fd_sc_mcu7t5v0__dffrnq_1
*I *1488:ZN O *D gf180mcu_fd_sc_mcu7t5v0__clkinv_1
*CAP
1 *1534:RN 0.000373461
2 *1488:ZN 0.000373461
3 *1534:RN *1375:A2 1.6462e-05
4 *1534:RN *1488:I 0.000173169
5 *1534:RN *1533:CLK 6.81593e-05
6 *1534:RN *1662:I 0
7 *1534:RN *347:14 5.8316e-05
8 *1534:RN *371:6 0
*RES
1 *1488:ZN *1534:RN 11.7 
*END

*D_NET *74 0.000668896
*CONN
*I *1535:RN I *D gf180mcu_fd_sc_mcu7t5v0__dffrnq_1
*I *1489:ZN O *D gf180mcu_fd_sc_mcu7t5v0__clkinv_1
*CAP
1 *1535:RN 0.000218061
2 *1489:ZN 0.000218061
3 *1535:RN *1516:D 2.93896e-05
4 *1535:RN *334:8 3.01487e-05
5 *1535:RN *334:27 0
6 *1535:RN *406:10 0.000173237
*RES
1 *1489:ZN *1535:RN 10.98 
*END

*D_NET *75 0.001885
*CONN
*I *1536:RN I *D gf180mcu_fd_sc_mcu7t5v0__dffrnq_1
*I *1490:ZN O *D gf180mcu_fd_sc_mcu7t5v0__clkinv_1
*CAP
1 *1536:RN 0.000225133
2 *1490:ZN 0.000225133
3 *1536:RN *1353:I1 5.30888e-06
4 *1536:RN *1490:I 0.000415026
5 *1536:RN *1536:D 9.55009e-05
6 *1536:RN *349:8 0.00073156
7 *1536:RN *395:10 0.000100396
8 *1571:SETN *1536:RN 8.69474e-05
*RES
1 *1490:ZN *1536:RN 12.42 
*END

*D_NET *76 0.00137535
*CONN
*I *1537:RN I *D gf180mcu_fd_sc_mcu7t5v0__dffrnq_1
*I *1491:ZN O *D gf180mcu_fd_sc_mcu7t5v0__clkinv_1
*CAP
1 *1537:RN 0.000418031
2 *1491:ZN 0.000418031
3 *1537:RN *1357:I0 0.000229148
4 *1537:RN *1532:CLK 7.71655e-05
5 *1537:RN *341:18 0
6 *1537:RN *370:10 0.000232969
*RES
1 *1491:ZN *1537:RN 21.78 
*END

*D_NET *77 0.00469529
*CONN
*I *1538:RN I *D gf180mcu_fd_sc_mcu7t5v0__dffrnq_1
*I *1492:ZN O *D gf180mcu_fd_sc_mcu7t5v0__clkinv_1
*CAP
1 *1538:RN 0.000530919
2 *1492:ZN 0.000530919
3 *1538:RN *1353:I0 1.72023e-05
4 *1538:RN *1371:A2 0.00236547
5 *1538:RN *1372:B 2.59007e-05
6 *1538:RN *1492:I 0.000609152
7 *1538:RN *311:26 3.12857e-05
8 *1538:RN *341:12 0.000375166
9 *1538:RN *341:42 3.41666e-06
10 *1538:RN *348:55 0.000205859
*RES
1 *1492:ZN *1538:RN 25.92 
*END

*D_NET *78 0.000494897
*CONN
*I *1539:RN I *D gf180mcu_fd_sc_mcu7t5v0__dffrnq_1
*I *1493:ZN O *D gf180mcu_fd_sc_mcu7t5v0__clkinv_1
*CAP
1 *1539:RN 9.5298e-05
2 *1493:ZN 9.5298e-05
3 *1539:RN *1490:I 5.95864e-05
4 *1539:RN *1493:I 1.32722e-05
5 *1539:RN *331:16 0.000231442
*RES
1 *1493:ZN *1539:RN 10.08 
*END

*D_NET *79 0.00252475
*CONN
*I *1540:RN I *D gf180mcu_fd_sc_mcu7t5v0__dffrnq_1
*I *1494:ZN O *D gf180mcu_fd_sc_mcu7t5v0__clkinv_1
*CAP
1 *1540:RN 0.000850507
2 *1494:ZN 0.000850507
3 *1540:RN *1235:I 6.62654e-05
4 *1540:RN *1384:I0 1.79536e-05
5 *1540:RN *1494:I 0.000336274
6 *1540:RN *311:26 7.29735e-05
7 *1540:RN *311:36 0
8 *1540:RN *332:16 0.000319529
9 *1540:RN *399:8 1.07374e-05
*RES
1 *1494:ZN *1540:RN 16.38 
*END

*D_NET *80 0.00389326
*CONN
*I *1541:RN I *D gf180mcu_fd_sc_mcu7t5v0__dffrnq_1
*I *1495:ZN O *D gf180mcu_fd_sc_mcu7t5v0__clkinv_1
*CAP
1 *1541:RN 0.000461863
2 *1495:ZN 0.000461863
3 *1541:RN *1360:A1 0.000354143
4 *1541:RN *1539:CLK 0.000230236
5 *1541:RN *1541:D 0.000438694
6 *1541:RN *1541:CLK 6.34901e-05
7 *1541:RN *1544:RN 2.3802e-06
8 *1541:RN *1581:I 3.08806e-06
9 *1541:RN *1617:I 0.000143202
10 *1541:RN *1634:I 0.00119119
11 *1541:RN *1635:I 0.000282255
12 *1541:RN *1652:I 1.34641e-05
13 *1541:RN *141:25 0.000247389
*RES
1 *1495:ZN *1541:RN 24.66 
*END

*D_NET *81 0.00143201
*CONN
*I *1542:RN I *D gf180mcu_fd_sc_mcu7t5v0__dffrnq_1
*I *1496:ZN O *D gf180mcu_fd_sc_mcu7t5v0__clkinv_1
*CAP
1 *1542:RN 0.000373694
2 *1496:ZN 0.000373694
3 *1542:RN *1362:A2 1.23607e-05
4 *1542:RN *1362:B 0.000289278
5 *1542:RN *1519:CLK 4.70417e-05
6 *1542:RN *1531:D 2.79072e-05
7 *1542:RN *294:7 0
8 *1542:RN *329:16 0.000308038
*RES
1 *1496:ZN *1542:RN 12.51 
*END

*D_NET *82 0.0011775
*CONN
*I *1543:RN I *D gf180mcu_fd_sc_mcu7t5v0__dffrnq_1
*I *1497:ZN O *D gf180mcu_fd_sc_mcu7t5v0__clkinv_1
*CAP
1 *1543:RN 0.000293618
2 *1497:ZN 0.000293618
3 *1543:RN *1343:A1 0.00010449
4 *1543:RN *1356:A2 0.000215362
5 *1543:RN *1388:A1 0
6 *1543:RN *1497:I 0.000202421
7 *1543:RN *1630:I 6.7989e-05
*RES
1 *1497:ZN *1543:RN 20.52 
*END

*D_NET *83 0.00182108
*CONN
*I *1544:RN I *D gf180mcu_fd_sc_mcu7t5v0__dffrnq_1
*I *1498:ZN O *D gf180mcu_fd_sc_mcu7t5v0__clkinv_1
*CAP
1 *1544:RN 0.000541981
2 *1498:ZN 0.000541981
3 *1544:RN *1232:I 0.000164306
4 *1544:RN *1377:A1 2.16688e-05
5 *1544:RN *1539:CLK 2.54405e-05
6 *1544:RN *1541:CLK 6.15268e-05
7 *1544:RN *1629:I 0.000238392
8 *1544:RN *141:10 0.000223407
9 *1541:RN *1544:RN 2.3802e-06
*RES
1 *1498:ZN *1544:RN 13.77 
*END

*D_NET *84 0.00136023
*CONN
*I *1545:SETN I *D gf180mcu_fd_sc_mcu7t5v0__dffsnq_1
*I *1499:ZN O *D gf180mcu_fd_sc_mcu7t5v0__clkinv_1
*CAP
1 *1545:SETN 0.000358463
2 *1499:ZN 0.000358463
3 *1545:SETN *1408:A1 0
4 *1545:SETN *1546:D 0.000620192
5 *1545:SETN *361:51 2.31089e-05
*RES
1 *1499:ZN *1545:SETN 12.15 
*END

*D_NET *85 0.000423245
*CONN
*I *1546:RN I *D gf180mcu_fd_sc_mcu7t5v0__dffrnq_1
*I *1500:ZN O *D gf180mcu_fd_sc_mcu7t5v0__clkinv_1
*CAP
1 *1546:RN 0.000155093
2 *1500:ZN 0.000155093
3 *1546:RN *1626:I 1.26644e-05
4 *1546:RN *1663:I 0.000100396
*RES
1 *1500:ZN *1546:RN 10.35 
*END

*D_NET *86 0.000387123
*CONN
*I *1547:RN I *D gf180mcu_fd_sc_mcu7t5v0__dffrnq_1
*I *1501:ZN O *D gf180mcu_fd_sc_mcu7t5v0__clkinv_1
*CAP
1 *1547:RN 0.000132883
2 *1501:ZN 0.000132883
3 *1547:RN *1329:A2 0
4 *1547:RN *1548:CLK 0.000121356
*RES
1 *1501:ZN *1547:RN 10.17 
*END

*D_NET *87 0.000362291
*CONN
*I *1548:RN I *D gf180mcu_fd_sc_mcu7t5v0__dffrnq_1
*I *1502:ZN O *D gf180mcu_fd_sc_mcu7t5v0__clkinv_1
*CAP
1 *1548:RN 0.000181145
2 *1502:ZN 0.000181145
3 *1548:RN *391:10 0
*RES
1 *1502:ZN *1548:RN 10.17 
*END

*D_NET *88 0.000982831
*CONN
*I *1549:RN I *D gf180mcu_fd_sc_mcu7t5v0__dffrnq_1
*I *1503:ZN O *D gf180mcu_fd_sc_mcu7t5v0__clkinv_1
*CAP
1 *1549:RN 0.000231438
2 *1503:ZN 0.000231438
3 *1549:RN *1502:I 5.69319e-05
4 *1549:RN *1549:D 0.000179062
5 *1549:RN *1578:I 0.000283961
*RES
1 *1503:ZN *1549:RN 21.06 
*END

*D_NET *89 0.00039889
*CONN
*I *1550:RN I *D gf180mcu_fd_sc_mcu7t5v0__dffrnq_1
*I *1504:ZN O *D gf180mcu_fd_sc_mcu7t5v0__clkinv_1
*CAP
1 *1550:RN 0.000170663
2 *1504:ZN 0.000170663
3 *1550:RN *1502:I 0
4 *1550:RN *1503:I 2.38983e-05
5 *1550:RN *367:47 3.36658e-05
*RES
1 *1504:ZN *1550:RN 10.17 
*END

*D_NET *90 0.00046258
*CONN
*I *1551:RN I *D gf180mcu_fd_sc_mcu7t5v0__dffrnq_1
*I *1505:ZN O *D gf180mcu_fd_sc_mcu7t5v0__clkinv_1
*CAP
1 *1551:RN 7.13518e-05
2 *1505:ZN 7.13518e-05
3 *1551:RN *1505:I 3.22348e-05
4 *1551:RN *1552:CLK 1.98047e-05
5 *1551:RN *1558:CLK 2.97177e-05
6 *1551:RN *365:23 0.00023812
*RES
1 *1505:ZN *1551:RN 9.9 
*END

*D_NET *91 0.00179891
*CONN
*I *1552:RN I *D gf180mcu_fd_sc_mcu7t5v0__dffrnq_1
*I *1506:ZN O *D gf180mcu_fd_sc_mcu7t5v0__clkinv_1
*CAP
1 *1552:RN 0.000463196
2 *1506:ZN 0.000463196
3 *1552:RN *1609:I 0.000185727
4 *1552:RN *1621:I 6.57682e-05
5 *1552:RN *1649:I 1.17934e-05
6 *1552:RN *336:6 0
7 *1552:RN *365:10 0.000609231
*RES
1 *1506:ZN *1552:RN 22.86 
*END

*D_NET *92 0.000357776
*CONN
*I *1553:RN I *D gf180mcu_fd_sc_mcu7t5v0__dffrnq_1
*I *1507:ZN O *D gf180mcu_fd_sc_mcu7t5v0__clkinv_1
*CAP
1 *1553:RN 6.31671e-05
2 *1507:ZN 6.31671e-05
3 *1553:RN *1227:I 0
4 *1553:RN *1269:A1 0
5 *1553:RN *364:20 0.000231442
*RES
1 *1507:ZN *1553:RN 9.63 
*END

*D_NET *93 0.00262569
*CONN
*I *1554:D I *D gf180mcu_fd_sc_mcu7t5v0__dffrnq_1
*I *1404:ZN O *D gf180mcu_fd_sc_mcu7t5v0__nor4_1
*CAP
1 *1554:D 0.000860321
2 *1404:ZN 0.000860321
3 *1554:D *1391:A2 1.18477e-05
4 *1554:D *1401:A2 2.49458e-05
5 *1554:D *1404:A2 6.91924e-05
6 *1554:D *1404:A4 4.15457e-05
7 *1554:D *1444:I1 0.000194418
8 *1554:D *1650:I 0.000162001
9 *1554:D *312:16 8.06865e-05
10 *1554:D *418:6 2.64816e-05
11 *1444:S *1554:D 7.41762e-05
12 *1554:RN *1554:D 0.000219756
*RES
1 *1404:ZN *1554:D 25.47 
*END

*D_NET *94 0.00203059
*CONN
*I *1555:D I *D gf180mcu_fd_sc_mcu7t5v0__dffrnq_1
*I *1402:ZN O *D gf180mcu_fd_sc_mcu7t5v0__nor3_1
*CAP
1 *1555:D 0.000328165
2 *1402:ZN 0.000328165
3 *1555:D *1401:A1 0
4 *1555:D *1402:A1 0.00116765
5 *1555:D *1402:A3 9.6931e-05
6 *1555:D *1445:I 4.65097e-05
7 *1555:D *420:14 0
8 *1555:RN *1555:D 6.31783e-05
*RES
1 *1402:ZN *1555:D 22.14 
*END

*D_NET *95 0.000488873
*CONN
*I *1556:D I *D gf180mcu_fd_sc_mcu7t5v0__dffrnq_1
*I *1400:ZN O *D gf180mcu_fd_sc_mcu7t5v0__nor3_1
*CAP
1 *1556:D 0.000214968
2 *1400:ZN 0.000214968
3 *1556:D *1557:CLK 2.76913e-05
4 *1556:D *419:10 3.12451e-05
*RES
1 *1400:ZN *1556:D 10.44 
*END

*D_NET *96 0.0013702
*CONN
*I *1557:D I *D gf180mcu_fd_sc_mcu7t5v0__dffrnq_1
*I *1398:ZN O *D gf180mcu_fd_sc_mcu7t5v0__nor3_1
*CAP
1 *1557:D 0.000164592
2 *1398:ZN 0.000164592
3 *1557:D *1400:A1 0.000488731
4 *1557:D *1400:A2 9.04462e-05
5 *1557:D *315:34 0.000417707
6 *1557:D *316:57 3.01487e-05
7 *1557:D *318:36 1.39839e-05
*RES
1 *1398:ZN *1557:D 11.16 
*END

*D_NET *97 0.00153141
*CONN
*I *1558:D I *D gf180mcu_fd_sc_mcu7t5v0__dffrnq_1
*I *1396:ZN O *D gf180mcu_fd_sc_mcu7t5v0__nor3_1
*CAP
1 *1558:D 0.000210209
2 *1396:ZN 0.000210209
3 *1558:D *1294:A2 2.36152e-06
4 *1558:D *316:42 2.18242e-05
5 *1558:D *318:19 0.000433797
6 *1558:D *415:12 0
7 *1558:D *415:29 0.000536348
8 *1558:RN *1558:D 0.000116662
*RES
1 *1396:ZN *1558:D 20.88 
*END

*D_NET *98 0.0011474
*CONN
*I *1516:D I *D gf180mcu_fd_sc_mcu7t5v0__dffsnq_1
*I *1390:Z O *D gf180mcu_fd_sc_mcu7t5v0__mux2_2
*CAP
1 *1516:D 0.00023888
2 *1390:Z 0.00023888
3 *1516:D *1355:I0 1.0415e-05
4 *1516:D *1489:I 7.84068e-05
5 *1516:D *1516:CLK 0.000365445
6 *1516:D *334:27 0.000166843
7 *1516:D *406:10 1.91431e-05
8 *1535:RN *1516:D 2.93896e-05
*RES
1 *1390:Z *1516:D 11.79 
*END

*D_NET *99 0.0028601
*CONN
*I *1517:D I *D gf180mcu_fd_sc_mcu7t5v0__dffrnq_1
*I *1389:ZN O *D gf180mcu_fd_sc_mcu7t5v0__oai21_1
*CAP
1 *1517:D 0.000603033
2 *1389:ZN 0.000603033
3 *1517:D *1263:A1 0.000578516
4 *1517:D *1388:A1 1.7611e-05
5 *1517:D *1389:A1 0.000578516
6 *1517:D *1521:CLK 8.35196e-05
7 *1517:D *1611:I 0
8 *1517:D *323:38 7.86261e-05
9 *1517:D *374:19 0.000181593
10 *1517:D *374:27 0.000135657
*RES
1 *1389:ZN *1517:D 24.21 
*END

*D_NET *100 0.00169501
*CONN
*I *1518:D I *D gf180mcu_fd_sc_mcu7t5v0__dffsnq_1
*I *1387:Z O *D gf180mcu_fd_sc_mcu7t5v0__mux2_2
*CAP
1 *1518:D 0.000503376
2 *1387:Z 0.000503376
3 *1518:D *1517:CLK 0.000121576
4 *1518:D *1521:CLK 1.43511e-05
5 *1518:D *1587:I 6.98034e-05
6 *1518:D *1610:I 0.000109215
7 *1518:D *294:99 0.000367515
8 *1518:D *359:26 5.79792e-06
9 *1518:D *363:52 0
*RES
1 *1387:Z *1518:D 22.68 
*END

*D_NET *101 0.000615113
*CONN
*I *1519:D I *D gf180mcu_fd_sc_mcu7t5v0__dffrnq_1
*I *1386:ZN O *D gf180mcu_fd_sc_mcu7t5v0__oai21_1
*CAP
1 *1519:D 0.000245266
2 *1386:ZN 0.000245266
3 *1519:D *1388:A1 7.63687e-05
4 *1519:D *294:7 0
5 *1519:D *325:10 0
6 *1520:RN *1519:D 4.82122e-05
*RES
1 *1386:ZN *1519:D 19.8 
*END

*D_NET *102 0.0012361
*CONN
*I *1520:D I *D gf180mcu_fd_sc_mcu7t5v0__dffrnq_1
*I *1384:Z O *D gf180mcu_fd_sc_mcu7t5v0__mux2_2
*CAP
1 *1520:D 0.00038635
2 *1384:Z 0.00038635
3 *1520:D *1343:A1 0
4 *1520:D *1384:I0 1.71254e-05
5 *1520:D *1384:I1 4.21768e-05
6 *1520:D *1520:CLK 7.71821e-06
7 *1520:D *144:8 0
8 *1520:D *144:25 0.000151417
9 *1520:D *233:18 0.000223398
10 *1520:D *324:26 8.54106e-06
11 *1520:D *398:44 1.3026e-05
*RES
1 *1384:Z *1520:D 20.88 
*END

*D_NET *103 0.00115418
*CONN
*I *1521:D I *D gf180mcu_fd_sc_mcu7t5v0__dffrnq_1
*I *1383:ZN O *D gf180mcu_fd_sc_mcu7t5v0__oai21_1
*CAP
1 *1521:D 0.000128867
2 *1383:ZN 0.000128867
3 *1521:D *1384:I0 0.000189328
4 *1521:D *1387:I1 3.97987e-05
5 *1521:D *1521:CLK 5.97457e-06
6 *1521:D *1612:I 3.50927e-05
7 *1521:D *324:26 0.000593822
8 *1521:D *325:10 3.24315e-05
*RES
1 *1383:ZN *1521:D 20.25 
*END

*D_NET *104 0.000434878
*CONN
*I *1522:D I *D gf180mcu_fd_sc_mcu7t5v0__dffrnq_1
*I *1381:ZN O *D gf180mcu_fd_sc_mcu7t5v0__oai21_1
*CAP
1 *1522:D 0.000137454
2 *1381:ZN 0.000137454
3 *1522:D *1381:A1 0.00015997
*RES
1 *1381:ZN *1522:D 10.26 
*END

*D_NET *105 0.000461578
*CONN
*I *1523:D I *D gf180mcu_fd_sc_mcu7t5v0__dffrnq_1
*I *1379:ZN O *D gf180mcu_fd_sc_mcu7t5v0__aoi21_1
*CAP
1 *1523:D 0.000198845
2 *1379:ZN 0.000198845
3 *1523:D *1381:A2 7.191e-07
4 *1523:D *325:23 6.317e-05
*RES
1 *1379:ZN *1523:D 10.44 
*END

*D_NET *106 0.00202847
*CONN
*I *1524:D I *D gf180mcu_fd_sc_mcu7t5v0__dffrnq_1
*I *1376:ZN O *D gf180mcu_fd_sc_mcu7t5v0__aoi21_1
*CAP
1 *1524:D 0.000172419
2 *1376:ZN 0.000172419
3 *1524:D *1358:S 0.000707069
4 *1524:D *1641:I 0
5 *1524:D *326:41 9.30128e-05
6 *1524:D *345:56 5.2326e-05
7 *1524:D *348:33 9.30128e-05
8 *1524:D *358:14 0.000282456
9 *1532:RN *1524:D 0.000455757
*RES
1 *1376:ZN *1524:D 20.97 
*END

*D_NET *107 0.00127668
*CONN
*I *1525:D I *D gf180mcu_fd_sc_mcu7t5v0__dffrnq_1
*I *1374:ZN O *D gf180mcu_fd_sc_mcu7t5v0__aoi21_1
*CAP
1 *1525:D 0.000212251
2 *1374:ZN 0.000212251
3 *1525:D *1243:I 0.000327662
4 *1525:D *1278:B2 6.84426e-06
5 *1525:D *1358:I0 1.52191e-05
6 *1525:D *1358:S 9.96337e-05
7 *1525:D *1373:A1 5.59262e-05
8 *1525:D *1374:A1 0.000239791
9 *1525:D *1376:A1 0.000107095
*RES
1 *1374:ZN *1525:D 20.7 
*END

*D_NET *108 0.00129377
*CONN
*I *1526:D I *D gf180mcu_fd_sc_mcu7t5v0__dffrnq_1
*I *1372:ZN O *D gf180mcu_fd_sc_mcu7t5v0__aoi21_1
*CAP
1 *1526:D 0.000376529
2 *1372:ZN 0.000376529
3 *1526:D *1372:A1 0.000102568
4 *1526:D *311:26 9.04539e-05
5 *1526:D *326:8 0.00023506
6 *1526:D *348:55 9.7667e-05
7 *1526:D *396:14 1.49663e-05
*RES
1 *1372:ZN *1526:D 20.97 
*END

*D_NET *109 0.00268051
*CONN
*I *1527:D I *D gf180mcu_fd_sc_mcu7t5v0__dffrnq_1
*I *1370:ZN O *D gf180mcu_fd_sc_mcu7t5v0__aoi21_1
*CAP
1 *1527:D 0.000386822
2 *1370:ZN 0.000386822
3 *1527:D *1368:A1 0.000726739
4 *1527:D *1482:I 5.06377e-06
5 *1527:D *1614:I 0.00032999
6 *1527:D *294:9 0
7 *1527:D *294:19 0
8 *1527:D *342:50 0.000835913
9 *1527:D *347:43 0
10 *1528:RN *1527:D 9.16061e-06
*RES
1 *1370:ZN *1527:D 22.32 
*END

*D_NET *110 0.000575241
*CONN
*I *1528:D I *D gf180mcu_fd_sc_mcu7t5v0__dffrnq_1
*I *1368:ZN O *D gf180mcu_fd_sc_mcu7t5v0__aoi21_1
*CAP
1 *1528:D 6.23642e-05
2 *1368:ZN 6.23642e-05
3 *1528:D *1368:A2 0.000362773
4 *1528:D *1368:B 8.77402e-05
*RES
1 *1368:ZN *1528:D 9.99 
*END

*D_NET *111 0.000667458
*CONN
*I *1529:D I *D gf180mcu_fd_sc_mcu7t5v0__dffsnq_1
*I *1366:ZN O *D gf180mcu_fd_sc_mcu7t5v0__oai21_1
*CAP
1 *1529:D 9.79533e-05
2 *1366:ZN 9.79533e-05
3 *1529:D *1330:A4 3.40532e-05
4 *1529:D *1347:A1 7.20436e-05
5 *1529:D *345:35 0.000365454
*RES
1 *1366:ZN *1529:D 10.26 
*END

*D_NET *112 0.000440113
*CONN
*I *1530:D I *D gf180mcu_fd_sc_mcu7t5v0__dffrnq_1
*I *1364:ZN O *D gf180mcu_fd_sc_mcu7t5v0__aoi21_1
*CAP
1 *1530:D 0.000184974
2 *1364:ZN 0.000184974
3 *1530:D *1364:B 7.01651e-05
4 *1530:D *1530:CLK 0
*RES
1 *1364:ZN *1530:D 10.44 
*END

*D_NET *113 0.00165298
*CONN
*I *1531:D I *D gf180mcu_fd_sc_mcu7t5v0__dffsnq_1
*I *1362:ZN O *D gf180mcu_fd_sc_mcu7t5v0__oai21_1
*CAP
1 *1531:D 0.000379533
2 *1362:ZN 0.000379533
3 *1531:D *1361:A1 2.76589e-05
4 *1531:D *1361:A2 0.00022651
5 *1531:D *1362:A2 9.04462e-05
6 *1531:D *1616:I 0.000152904
7 *1531:D *294:7 4.85384e-06
8 *1531:D *329:16 0.000136523
9 *1531:D *350:8 0.000227114
10 *1542:RN *1531:D 2.79072e-05
*RES
1 *1362:ZN *1531:D 12.87 
*END

*D_NET *114 0.00066105
*CONN
*I *1532:D I *D gf180mcu_fd_sc_mcu7t5v0__dffrnq_1
*I *1359:Z O *D gf180mcu_fd_sc_mcu7t5v0__mux2_2
*CAP
1 *1532:D 0.000142453
2 *1359:Z 0.000142453
3 *1532:D *1357:I0 0.00037349
4 *1532:D *1532:CLK 2.65444e-06
*RES
1 *1359:Z *1532:D 10.44 
*END

*D_NET *115 0.00421939
*CONN
*I *1533:D I *D gf180mcu_fd_sc_mcu7t5v0__dffrnq_1
*I *1358:Z O *D gf180mcu_fd_sc_mcu7t5v0__mux2_2
*CAP
1 *1533:D 0.000695117
2 *1358:Z 0.000695117
3 *1533:D *1358:I1 9.17615e-05
4 *1533:D *1425:A3 9.06175e-05
5 *1533:D *1479:I 5.86732e-05
6 *1533:D *1509:CLK 0.000822957
7 *1533:D *1637:I 0.000110838
8 *1533:D *1641:I 0.000567809
9 *1533:D *1653:I 0.000744726
10 *1533:D *1661:I 0.000214306
11 *1533:D *1662:I 0
12 *1533:D *347:34 4.71736e-05
13 *1533:D *352:8 4.01448e-05
14 *1533:D *352:30 4.01448e-05
*RES
1 *1358:Z *1533:D 27.09 
*END

*D_NET *116 0.00155994
*CONN
*I *1534:D I *D gf180mcu_fd_sc_mcu7t5v0__dffrnq_1
*I *1357:Z O *D gf180mcu_fd_sc_mcu7t5v0__mux2_2
*CAP
1 *1534:D 0.000232294
2 *1357:Z 0.000232294
3 *1534:D *1357:I0 0
4 *1534:D *1357:S 1.79733e-05
5 *1534:D *1359:I0 0.000671835
6 *1534:D *1359:I1 0.000138305
7 *1534:D *1359:S 1.61174e-05
8 *1534:D *1653:I 6.17613e-06
9 *1534:D *1660:I 6.317e-05
10 *1534:D *355:10 0.000181774
*RES
1 *1357:Z *1534:D 21.15 
*END

*D_NET *117 0.000826353
*CONN
*I *1535:D I *D gf180mcu_fd_sc_mcu7t5v0__dffrnq_1
*I *1355:Z O *D gf180mcu_fd_sc_mcu7t5v0__mux2_2
*CAP
1 *1535:D 0.000113696
2 *1355:Z 0.000113696
3 *1535:D *1355:I0 0
4 *1535:D *1355:S 0.000598962
*RES
1 *1355:Z *1535:D 19.53 
*END

*D_NET *118 0.00257411
*CONN
*I *1536:D I *D gf180mcu_fd_sc_mcu7t5v0__dffrnq_1
*I *1354:Z O *D gf180mcu_fd_sc_mcu7t5v0__mux2_2
*CAP
1 *1536:D 0.000540302
2 *1354:Z 0.000540302
3 *1536:D *1353:I1 4.74921e-05
4 *1536:D *1353:S 0.000522192
5 *1536:D *1492:I 0
6 *1536:D *1589:I 0
7 *1536:D *295:22 0
8 *1536:D *331:20 0.000828322
9 *1536:D *349:23 0
10 *1536:RN *1536:D 9.55009e-05
*RES
1 *1354:Z *1536:D 22.86 
*END

*D_NET *119 0.000629007
*CONN
*I *1537:D I *D gf180mcu_fd_sc_mcu7t5v0__dffrnq_1
*I *1353:Z O *D gf180mcu_fd_sc_mcu7t5v0__mux2_2
*CAP
1 *1537:D 0.000100849
2 *1353:Z 0.000100849
3 *1537:D *1532:CLK 5.3819e-05
4 *1537:D *1537:CLK 0.00037349
*RES
1 *1353:Z *1537:D 10.26 
*END

*D_NET *120 0.00130626
*CONN
*I *1538:D I *D gf180mcu_fd_sc_mcu7t5v0__dffrnq_1
*I *1352:Z O *D gf180mcu_fd_sc_mcu7t5v0__mux2_2
*CAP
1 *1538:D 0.000362969
2 *1352:Z 0.000362969
3 *1538:D *1532:CLK 1.11996e-05
4 *1538:D *1652:I 0.000162133
5 *1538:D *295:18 0.000406991
*RES
1 *1352:Z *1538:D 11.97 
*END

*D_NET *121 0.00139468
*CONN
*I *1539:D I *D gf180mcu_fd_sc_mcu7t5v0__dffrnq_1
*I *1351:Z O *D gf180mcu_fd_sc_mcu7t5v0__mux2_2
*CAP
1 *1539:D 0.000246935
2 *1351:Z 0.000246935
3 *1539:D *1539:CLK 7.191e-07
4 *1539:D *1652:I 6.95119e-05
5 *1539:D *331:18 0.00023711
6 *1539:D *331:20 0.000455757
7 *1539:D *342:10 0.000137711
*RES
1 *1351:Z *1539:D 20.7 
*END

*D_NET *122 0.000570957
*CONN
*I *1540:D I *D gf180mcu_fd_sc_mcu7t5v0__dffrnq_1
*I *1350:ZN O *D gf180mcu_fd_sc_mcu7t5v0__oai21_1
*CAP
1 *1540:D 7.86819e-05
2 *1350:ZN 7.86819e-05
3 *1540:D *1630:I 5.61832e-05
4 *1540:D *334:27 0.00035741
*RES
1 *1350:ZN *1540:D 9.99 
*END

*D_NET *123 0.000941749
*CONN
*I *1541:D I *D gf180mcu_fd_sc_mcu7t5v0__dffrnq_1
*I *1348:ZN O *D gf180mcu_fd_sc_mcu7t5v0__aoi21_1
*CAP
1 *1541:D 0.000240617
2 *1348:ZN 0.000240617
3 *1541:D *1652:I 2.18208e-05
4 *1541:RN *1541:D 0.000438694
*RES
1 *1348:ZN *1541:D 11.16 
*END

*D_NET *124 0.00391163
*CONN
*I *1542:D I *D gf180mcu_fd_sc_mcu7t5v0__dffrnq_1
*I *1346:ZN O *D gf180mcu_fd_sc_mcu7t5v0__oai21_1
*CAP
1 *1542:D 0.000678415
2 *1346:ZN 0.000678415
3 *1542:D *1346:A1 0.000129139
4 *1542:D *1346:B 0.000615841
5 *1542:D *1385:A1 0.000281834
6 *1542:D *1387:I1 0.000218358
7 *1542:D *1388:A1 0.000164219
8 *1542:D *1494:I 0.000372203
9 *1542:D *1581:I 0.000671129
10 *1542:D *1596:I 4.83522e-05
11 *1542:D *143:12 0
12 *1542:D *332:16 5.3725e-05
*RES
1 *1346:ZN *1542:D 35.28 
*END

*D_NET *125 0.000429129
*CONN
*I *1543:D I *D gf180mcu_fd_sc_mcu7t5v0__dffrnq_1
*I *1344:ZN O *D gf180mcu_fd_sc_mcu7t5v0__aoi21_1
*CAP
1 *1543:D 0.000166491
2 *1344:ZN 0.000166491
3 *1543:D *1568:CLK 8.003e-05
4 *1543:D *303:13 1.61174e-05
5 *1543:D *349:43 0
*RES
1 *1344:ZN *1543:D 10.26 
*END

*D_NET *126 0.000865179
*CONN
*I *1544:D I *D gf180mcu_fd_sc_mcu7t5v0__dffrnq_1
*I *1342:ZN O *D gf180mcu_fd_sc_mcu7t5v0__aoi21_1
*CAP
1 *1544:D 0.000259935
2 *1342:ZN 0.000259935
3 *1544:D *1342:A2 0.000162554
4 *1544:D *303:6 0.000121356
5 *1544:D *303:13 1.07374e-05
6 *1544:D *349:43 5.06604e-05
*RES
1 *1342:ZN *1544:D 11.25 
*END

*D_NET *127 0.000549175
*CONN
*I *1545:D I *D gf180mcu_fd_sc_mcu7t5v0__dffsnq_1
*I *1339:ZN O *D gf180mcu_fd_sc_mcu7t5v0__nor2_1
*CAP
1 *1545:D 8.88727e-05
2 *1339:ZN 8.88727e-05
3 *1545:D *1339:A2 0.000365454
4 *1545:D *296:38 5.97457e-06
*RES
1 *1339:ZN *1545:D 9.99 
*END

*D_NET *128 0.00323796
*CONN
*I *1546:D I *D gf180mcu_fd_sc_mcu7t5v0__dffrnq_1
*I *1337:ZN O *D gf180mcu_fd_sc_mcu7t5v0__nor2_1
*CAP
1 *1546:D 0.000658539
2 *1337:ZN 0.000658539
3 *1546:D *1408:A1 0
4 *1546:D *1500:I 0.000143853
5 *1546:D *1546:CLK 0.000209254
6 *1546:D *361:51 0.000947585
7 *1545:SETN *1546:D 0.000620192
*RES
1 *1337:ZN *1546:D 16.38 
*END

*D_NET *129 0.00104841
*CONN
*I *1547:D I *D gf180mcu_fd_sc_mcu7t5v0__dffrnq_1
*I *1329:ZN O *D gf180mcu_fd_sc_mcu7t5v0__nor2_1
*CAP
1 *1547:D 0.000286905
2 *1329:ZN 0.000286905
3 *1547:D *1329:A1 0.000365454
4 *1547:D *1646:I 4.15093e-05
5 *1547:D *413:12 6.76406e-05
*RES
1 *1329:ZN *1547:D 20.7 
*END

*D_NET *130 0.000637388
*CONN
*I *1548:D I *D gf180mcu_fd_sc_mcu7t5v0__dffrnq_1
*I *1327:ZN O *D gf180mcu_fd_sc_mcu7t5v0__aoi21_1
*CAP
1 *1548:D 0.000318694
2 *1327:ZN 0.000318694
3 *1548:D *1548:CLK 0
*RES
1 *1327:ZN *1548:D 20.16 
*END

*D_NET *131 0.00181386
*CONN
*I *1549:D I *D gf180mcu_fd_sc_mcu7t5v0__dffrnq_1
*I *1325:ZN O *D gf180mcu_fd_sc_mcu7t5v0__nor2_1
*CAP
1 *1549:D 0.000606454
2 *1325:ZN 0.000606454
3 *1549:D *1318:A1 0.000174497
4 *1549:D *1578:I 0
5 *1549:D *391:10 0
6 *1549:D *391:12 0
7 *1549:D *392:8 0.000247389
8 *1549:RN *1549:D 0.000179062
*RES
1 *1325:ZN *1549:D 23.85 
*END

*D_NET *132 0.000660836
*CONN
*I *1550:D I *D gf180mcu_fd_sc_mcu7t5v0__dffrnq_1
*I *1322:ZN O *D gf180mcu_fd_sc_mcu7t5v0__oai22_1
*CAP
1 *1550:D 0.000143673
2 *1322:ZN 0.000143673
3 *1550:D *1322:A1 0.00037349
*RES
1 *1322:ZN *1550:D 10.44 
*END

*D_NET *133 0.00141055
*CONN
*I *1551:D I *D gf180mcu_fd_sc_mcu7t5v0__dffrnq_1
*I *1302:ZN O *D gf180mcu_fd_sc_mcu7t5v0__nor3_1
*CAP
1 *1551:D 0.000332802
2 *1302:ZN 0.000332802
3 *1551:D *1395:A1 4.10827e-06
4 *1551:D *1608:I 0.000191041
5 *1551:D *1621:I 0.000113947
6 *1551:D *201:14 0.000204404
7 *1558:RN *1551:D 0.000231442
*RES
1 *1302:ZN *1551:D 12.51 
*END

*D_NET *134 0.000617757
*CONN
*I *1552:D I *D gf180mcu_fd_sc_mcu7t5v0__dffrnq_1
*I *1300:ZN O *D gf180mcu_fd_sc_mcu7t5v0__nor3_1
*CAP
1 *1552:D 8.17169e-05
2 *1300:ZN 8.17169e-05
3 *1552:D *1552:CLK 0.000176065
4 *1552:D *365:23 0.000278258
*RES
1 *1300:ZN *1552:D 10.53 
*END

*D_NET *135 0.00246248
*CONN
*I *1553:D I *D gf180mcu_fd_sc_mcu7t5v0__dffrnq_1
*I *1298:ZN O *D gf180mcu_fd_sc_mcu7t5v0__nor4_1
*CAP
1 *1553:D 0.000824334
2 *1298:ZN 0.000824334
3 *1553:D *1257:I 6.2083e-06
4 *1553:D *1269:A2 0
5 *1553:D *1297:A2 0.000365454
6 *1553:D *1298:A4 0.000231442
7 *1553:D *1444:I0 0
8 *1553:D *1447:I 1.70787e-05
9 *1553:D *1455:I 0
10 *1553:D *364:24 6.14958e-05
11 *1553:D *376:10 0
12 *1553:D *418:12 3.38463e-05
13 *1553:D *423:12 9.8287e-05
*RES
1 *1298:ZN *1553:D 25.2 
*END

*D_NET *136 0.0041183
*CONN
*I *1391:A1 I *D gf180mcu_fd_sc_mcu7t5v0__nor3_1
*I *1297:A1 I *D gf180mcu_fd_sc_mcu7t5v0__and2_1
*I *1296:A1 I *D gf180mcu_fd_sc_mcu7t5v0__nor2_1
*I *1227:ZN O *D gf180mcu_fd_sc_mcu7t5v0__clkinv_1
*CAP
1 *1391:A1 2.33136e-05
2 *1297:A1 0.000115413
3 *1296:A1 0.000192092
4 *1227:ZN 0
5 *136:19 0.000205597
6 *136:6 0.000258963
7 *1296:A1 *1260:I 0
8 *1296:A1 *1447:I 3.64412e-05
9 *1296:A1 *204:10 0.000456595
10 *1296:A1 *364:24 0.000390584
11 *1296:A1 *418:12 1.8336e-05
12 *1297:A1 *1297:A2 0.000496766
13 *1297:A1 *1579:I 6.11574e-05
14 *1297:A1 *294:171 0
15 *1297:A1 *316:57 6.06287e-05
16 *1391:A1 *1447:I 0.000551283
17 *1391:A1 *203:26 0.000582585
18 *136:19 *1298:A3 9.61377e-05
19 *136:19 *1447:I 0.000398769
20 *136:19 *203:26 0.00015651
21 *136:19 *204:10 1.71254e-05
*RES
1 *1227:ZN *136:6 9 
2 *136:6 *1296:A1 11.52 
3 *136:6 *136:19 1.17 
4 *136:19 *1297:A1 10.62 
5 *136:19 *1391:A1 10.53 
*END

*D_NET *137 0.00816948
*CONN
*I *1301:A1 I *D gf180mcu_fd_sc_mcu7t5v0__xor2_1
*I *1267:B2 I *D gf180mcu_fd_sc_mcu7t5v0__oai221_1
*I *1270:A1 I *D gf180mcu_fd_sc_mcu7t5v0__aoi221_1
*I *1228:ZN O *D gf180mcu_fd_sc_mcu7t5v0__clkinv_1
*CAP
1 *1301:A1 0
2 *1267:B2 0
3 *1270:A1 0.000489856
4 *1228:ZN 0.000394685
5 *137:20 0.000578461
6 *137:14 0.00048329
7 *1270:A1 *1267:A2 0.000310002
8 *1270:A1 *1267:B1 0.00185235
9 *1270:A1 *1270:C 1.19491e-05
10 *1270:A1 *1272:C2 0
11 *1270:A1 *1651:I 8.68281e-06
12 *1270:A1 *294:161 4.17866e-05
13 *1270:A1 *374:27 1.0415e-05
14 *1270:A1 *375:8 0.000205859
15 *1270:A1 *416:28 3.1612e-05
16 *1270:A1 *418:12 2.00087e-05
17 *137:14 *1228:I 0.000507502
18 *137:14 *1257:I 1.98195e-05
19 *137:14 *1265:A2 0.0002875
20 *137:14 *1267:C 6.2979e-05
21 *137:14 *1295:A4 0.000145056
22 *137:14 *157:12 0.00037349
23 *137:14 *166:6 1.0686e-05
24 *137:14 *201:14 0.000684008
25 *137:14 *299:35 0.000178723
26 *137:14 *420:30 0
27 *137:20 *1264:A1 1.56674e-05
28 *137:20 *1265:A2 4.16602e-05
29 *137:20 *1267:A2 0.000309993
30 *137:20 *1267:B1 7.28823e-05
31 *137:20 *1267:C 0.000436478
32 *137:20 *157:12 0.000557073
33 *1517:RN *1270:A1 2.70125e-05
*RES
1 *1228:ZN *137:14 18.99 
2 *137:14 *137:20 6.84 
3 *137:20 *1270:A1 14.94 
4 *137:20 *1267:B2 9 
5 *137:14 *1301:A1 4.5 
*END

*D_NET *138 0.00164539
*CONN
*I *1322:A1 I *D gf180mcu_fd_sc_mcu7t5v0__oai22_1
*I *1229:ZN O *D gf180mcu_fd_sc_mcu7t5v0__clkinv_1
*CAP
1 *1322:A1 0.00017256
2 *1229:ZN 0.00017256
3 *1322:A1 *1554:CLK 0.000111961
4 *1322:A1 *300:10 0.00037349
5 *1322:A1 *300:12 0.000354738
6 *1322:A1 *393:10 8.65928e-05
7 *1550:D *1322:A1 0.00037349
*RES
1 *1229:ZN *1322:A1 20.7 
*END

*D_NET *139 0.000890521
*CONN
*I *1323:A1 I *D gf180mcu_fd_sc_mcu7t5v0__nor2_1
*I *1230:ZN O *D gf180mcu_fd_sc_mcu7t5v0__clkinv_1
*CAP
1 *1323:A1 0.000108102
2 *1230:ZN 0.000108102
3 *1323:A1 *1318:A3 1.07374e-05
4 *1323:A1 *1319:B 1.61174e-05
5 *1323:A1 *1328:A2 0.000435073
6 *1323:A1 *1548:CLK 0
7 *1323:A1 *227:8 0.000164036
8 *1323:A1 *321:25 4.83522e-05
*RES
1 *1230:ZN *1323:A1 10.62 
*END

*D_NET *140 0.000374218
*CONN
*I *1339:A1 I *D gf180mcu_fd_sc_mcu7t5v0__nor2_1
*I *1231:ZN O *D gf180mcu_fd_sc_mcu7t5v0__clkinv_1
*CAP
1 *1339:A1 0.000177723
2 *1231:ZN 0.000177723
3 *1339:A1 *1339:A2 1.61174e-05
4 *1339:A1 *1659:I 0
5 *1339:A1 *1664:I 2.65444e-06
*RES
1 *1231:ZN *1339:A1 10.44 
*END

*D_NET *141 0.00486199
*CONN
*I *1360:A1 I *D gf180mcu_fd_sc_mcu7t5v0__nand3_1
*I *1377:A1 I *D gf180mcu_fd_sc_mcu7t5v0__and3_1
*I *1342:A1 I *D gf180mcu_fd_sc_mcu7t5v0__aoi21_1
*I *1232:ZN O *D gf180mcu_fd_sc_mcu7t5v0__clkinv_1
*CAP
1 *1360:A1 9.67393e-05
2 *1377:A1 0.000271077
3 *1342:A1 0.000799692
4 *1232:ZN 6.99074e-05
5 *141:25 0.000411612
6 *141:10 0.000913395
7 *1342:A1 *1341:A1 8.47777e-05
8 *1342:A1 *1581:I 3.53225e-05
9 *1342:A1 *1634:I 0.000219718
10 *1360:A1 *1581:I 5.61609e-05
11 *1360:A1 *1596:I 8.69576e-05
12 *1360:A1 *1652:I 0.000223407
13 *1377:A1 *1232:I 0.000248121
14 *1377:A1 *1360:A3 0.00038059
15 *1377:A1 *1652:I 5.3289e-05
16 *141:25 *1581:I 5.01255e-05
17 *141:25 *1634:I 1.44866e-05
18 *1541:RN *1360:A1 0.000354143
19 *1541:RN *141:25 0.000247389
20 *1544:RN *1377:A1 2.16688e-05
21 *1544:RN *141:10 0.000223407
*RES
1 *1232:ZN *141:10 9.9 
2 *141:10 *1342:A1 13.95 
3 *141:10 *141:25 0.81 
4 *141:25 *1377:A1 12.33 
5 *141:25 *1360:A1 10.62 
*END

*D_NET *142 0.00638065
*CONN
*I *1356:A2 I *D gf180mcu_fd_sc_mcu7t5v0__nand3_1
*I *1377:A2 I *D gf180mcu_fd_sc_mcu7t5v0__and3_1
*I *1344:A1 I *D gf180mcu_fd_sc_mcu7t5v0__aoi21_1
*I *1233:ZN O *D gf180mcu_fd_sc_mcu7t5v0__clkinv_1
*CAP
1 *1356:A2 0.000126242
2 *1377:A2 0.000222242
3 *1344:A1 0.000155464
4 *1233:ZN 0
5 *142:8 0.000413899
6 *142:6 0.000162434
7 *1344:A1 *1343:A2 0.00160993
8 *1344:A1 *1344:B 0.00153705
9 *1344:A1 *1458:I 6.85018e-05
10 *1344:A1 *1497:I 7.37251e-05
11 *1356:A2 *1497:I 0.000103119
12 *1356:A2 *1630:I 1.23607e-05
13 *1356:A2 *334:31 0
14 *1356:A2 *414:8 0.000346693
15 *1377:A2 *1233:I 0.000236816
16 *1377:A2 *1360:A2 0.000312454
17 *1377:A2 *1360:A3 3.55118e-05
18 *1377:A2 *1652:I 0.000674843
19 *1377:A2 *414:8 8.12023e-06
20 *142:8 *1497:I 6.58723e-05
21 *1543:RN *1356:A2 0.000215362
*RES
1 *1233:ZN *142:6 9 
2 *142:6 *142:8 0.45 
3 *142:8 *1344:A1 13.95 
4 *142:8 *1377:A2 11.97 
5 *142:6 *1356:A2 10.62 
*END

*D_NET *143 0.00774831
*CONN
*I *1379:A1 I *D gf180mcu_fd_sc_mcu7t5v0__aoi21_1
*I *1362:A1 I *D gf180mcu_fd_sc_mcu7t5v0__oai21_1
*I *1331:A3 I *D gf180mcu_fd_sc_mcu7t5v0__nor4_1
*I *1346:A1 I *D gf180mcu_fd_sc_mcu7t5v0__oai21_1
*I *1234:ZN O *D gf180mcu_fd_sc_mcu7t5v0__clkinv_1
*CAP
1 *1379:A1 0.000303988
2 *1362:A1 0
3 *1331:A3 0
4 *1346:A1 0.000410541
5 *1234:ZN 5.87318e-05
6 *143:12 0.00116228
7 *143:10 0.000966842
8 *143:8 0.000577824
9 *1346:A1 *1331:A2 0.000164219
10 *1346:A1 *1346:B 2.1343e-05
11 *1346:A1 *1385:A1 1.38506e-05
12 *1346:A1 *1388:A1 0
13 *1346:A1 *1596:I 0.000101516
14 *1346:A1 *245:24 0.000195949
15 *1379:A1 *1378:A2 0.000255088
16 *1379:A1 *1585:I 0
17 *1379:A1 *325:10 0
18 *1379:A1 *325:19 0
19 *1379:A1 *329:10 0.000270991
20 *1379:A1 *354:29 3.05494e-05
21 *143:8 *1385:A1 0.000365454
22 *143:8 *294:7 8.91504e-05
23 *143:10 *1234:I 2.73e-05
24 *143:10 *1385:A1 2.57552e-05
25 *143:10 *325:10 0
26 *143:10 *329:10 0.000726748
27 *143:12 *1331:A2 0.000270982
28 *143:12 *1385:A1 0.000319078
29 *143:12 *1388:A1 0
30 *143:12 *1494:I 0.000109332
31 *143:12 *325:10 0
32 *143:12 *331:10 0.000768787
33 *1531:SETN *1379:A1 0.000382875
34 *1542:D *1346:A1 0.000129139
35 *1542:D *143:12 0
*RES
1 *1234:ZN *143:8 9.99 
2 *143:8 *143:10 2.25 
3 *143:10 *143:12 6.39 
4 *143:12 *1346:A1 12.24 
5 *143:12 *1331:A3 9 
6 *143:10 *1362:A1 9 
7 *143:8 *1379:A1 11.97 
*END

*D_NET *144 0.011284
*CONN
*I *1330:A1 I *D gf180mcu_fd_sc_mcu7t5v0__nor4_1
*I *1348:A1 I *D gf180mcu_fd_sc_mcu7t5v0__aoi21_1
*I *1366:A1 I *D gf180mcu_fd_sc_mcu7t5v0__oai21_1
*I *1350:A1 I *D gf180mcu_fd_sc_mcu7t5v0__oai21_1
*I *1235:ZN O *D gf180mcu_fd_sc_mcu7t5v0__clkinv_1
*CAP
1 *1330:A1 0
2 *1348:A1 0
3 *1366:A1 0.000238029
4 *1350:A1 0.000214272
5 *1235:ZN 0.000157617
6 *144:41 0.00104849
7 *144:25 0.00109877
8 *144:8 0.000660197
9 *1350:A1 *1384:I1 5.92385e-05
10 *1350:A1 *1619:I 2.36954e-05
11 *1350:A1 *1630:I 2.31089e-05
12 *1350:A1 *1652:I 7.96333e-06
13 *1350:A1 *334:31 0.000209401
14 *1366:A1 *1347:A1 6.84426e-06
15 *1366:A1 *1367:A2 0.000109332
16 *1366:A1 *1368:B 0.000463466
17 *1366:A1 *1490:I 0.000765018
18 *1366:A1 *1623:I 0.000251587
19 *1366:A1 *1652:I 0.000425752
20 *1366:A1 *245:24 5.94337e-05
21 *1366:A1 *328:10 6.85018e-05
22 *1366:A1 *397:39 6.08466e-05
23 *144:8 *1384:I1 0.000147523
24 *144:8 *1619:I 0.00059669
25 *144:8 *324:26 0.000653857
26 *144:25 *1332:A1 0.000252453
27 *144:25 *1332:A2 0
28 *144:25 *1349:A2 0.000496776
29 *144:25 *1384:I1 3.22348e-05
30 *144:25 *1623:I 0.000153415
31 *144:25 *233:18 3.08083e-05
32 *144:25 *398:44 9.7667e-05
33 *144:41 *1332:A1 0.000300836
34 *144:41 *1346:A2 1.29736e-05
35 *144:41 *1348:A2 3.53326e-05
36 *144:41 *1623:I 0.000641717
37 *144:41 *1652:I 0.000337442
38 *144:41 *245:24 0
39 *144:41 *304:19 0.000454129
40 *144:41 *304:23 0.000168945
41 *144:41 *332:16 0.000428239
42 *144:41 *398:27 0.000339989
43 *1520:D *144:8 0
44 *1520:D *144:25 0.000151417
*RES
1 *1235:ZN *144:8 12.51 
2 *144:8 *1350:A1 10.8 
3 *144:8 *144:25 8.28 
4 *144:25 *144:41 25.56 
5 *144:41 *1366:A1 18 
6 *144:41 *1348:A1 4.5 
7 *144:25 *1330:A1 4.5 
*END

*D_NET *145 0.0038266
*CONN
*I *1281:A1 I *D gf180mcu_fd_sc_mcu7t5v0__aoi22_1
*I *1289:A1 I *D gf180mcu_fd_sc_mcu7t5v0__oai21_1
*I *1285:A1 I *D gf180mcu_fd_sc_mcu7t5v0__oai22_1
*I *1236:ZN O *D gf180mcu_fd_sc_mcu7t5v0__clkinv_1
*CAP
1 *1281:A1 0.000455864
2 *1289:A1 0.000175609
3 *1285:A1 2.87414e-05
4 *1236:ZN 0
5 *145:6 0.000580412
6 *145:4 0.000831926
7 *1281:A1 *1281:B2 0
8 *1281:A1 *1378:A1 0.000287156
9 *1281:A1 *1477:I 0.000734439
10 *1281:A1 *1586:I 2.94866e-05
11 *1281:A1 *354:23 0
12 *1281:A1 *354:53 1.38506e-05
13 *1281:A1 *431:29 0.000174506
14 *1285:A1 *1289:A2 0
15 *1289:A1 *1285:B2 3.1559e-05
16 *1289:A1 *1286:A2 5.50498e-05
17 *1289:A1 *1289:A2 2.96962e-05
18 *1289:A1 *148:25 5.92193e-05
19 *1289:A1 *192:10 0
20 *145:6 *1236:I 9.84908e-05
21 *145:6 *1281:B2 0
22 *145:6 *1284:B2 5.61832e-05
23 *145:6 *1289:A2 1.58709e-05
24 *145:6 *192:10 0
25 *145:6 *354:23 7.96333e-06
26 *145:6 *432:14 0.00016058
*RES
1 *1236:ZN *145:4 4.5 
2 *145:4 *145:6 2.97 
3 *145:6 *1285:A1 4.77 
4 *145:6 *1289:A1 6.12 
5 *145:4 *1281:A1 18.09 
*END

*D_NET *146 0.00637693
*CONN
*I *1281:B2 I *D gf180mcu_fd_sc_mcu7t5v0__aoi22_1
*I *1284:A1 I *D gf180mcu_fd_sc_mcu7t5v0__oai22_1
*I *1364:A1 I *D gf180mcu_fd_sc_mcu7t5v0__aoi21_1
*I *1237:ZN O *D gf180mcu_fd_sc_mcu7t5v0__clkinv_1
*CAP
1 *1281:B2 0.000398999
2 *1284:A1 0
3 *1364:A1 0.000357347
4 *1237:ZN 0
5 *146:19 0.00051406
6 *146:6 0.000472408
7 *1281:B2 *1284:A2 0.00140579
8 *1281:B2 *1284:B2 1.86887e-06
9 *1281:B2 *1586:I 5.96565e-05
10 *1281:B2 *192:10 7.96333e-06
11 *1364:A1 *1237:I 0.000726748
12 *1364:A1 *1238:I 8.54106e-06
13 *1364:A1 *1291:A2 0.000437789
14 *1364:A1 *1361:A1 0
15 *1364:A1 *1363:A2 0.000789353
16 *1364:A1 *1639:I 0.000136569
17 *1364:A1 *1640:I 0.000139995
18 *1364:A1 *147:8 1.36885e-05
19 *1364:A1 *387:12 0.000470242
20 *1364:A1 *389:8 0
21 *146:19 *1282:A1 5.58654e-05
22 *146:19 *1284:B1 0.000182206
23 *146:19 *1640:I 0.000142787
24 *146:19 *147:8 5.50565e-05
25 *1281:A1 *1281:B2 0
26 *145:6 *1281:B2 0
*RES
1 *1237:ZN *146:6 9 
2 *146:6 *1364:A1 15.21 
3 *146:6 *146:19 6.21 
4 *146:19 *1284:A1 4.5 
5 *146:19 *1281:B2 8.64 
*END

*D_NET *147 0.00256587
*CONN
*I *1282:A1 I *D gf180mcu_fd_sc_mcu7t5v0__aoi22_1
*I *1284:B2 I *D gf180mcu_fd_sc_mcu7t5v0__oai22_1
*I *1238:ZN O *D gf180mcu_fd_sc_mcu7t5v0__clkinv_1
*CAP
1 *1282:A1 0.000290439
2 *1284:B2 0.000143518
3 *1238:ZN 0.000285254
4 *147:8 0.000719212
5 *1282:A1 *1284:B1 3.98375e-05
6 *1282:A1 *1285:B1 0.000371456
7 *1282:A1 *1621:I 4.78286e-05
8 *1282:A1 *190:14 0.000223407
9 *1282:A1 *335:12 2.48332e-05
10 *1284:B2 *189:10 0
11 *1284:B2 *192:10 2.37695e-05
12 *147:8 *1237:I 9.37696e-05
13 *147:8 *1285:B1 0.000119878
14 *147:8 *148:25 0
15 *1281:B2 *1284:B2 1.86887e-06
16 *1364:A1 *147:8 1.36885e-05
17 *145:6 *1284:B2 5.61832e-05
18 *146:19 *1282:A1 5.58654e-05
19 *146:19 *147:8 5.50565e-05
*RES
1 *1238:ZN *147:8 11.43 
2 *147:8 *1284:B2 9.99 
3 *147:8 *1282:A1 12.24 
*END

*D_NET *148 0.00701107
*CONN
*I *1285:B2 I *D gf180mcu_fd_sc_mcu7t5v0__oai22_1
*I *1282:B2 I *D gf180mcu_fd_sc_mcu7t5v0__aoi22_1
*I *1368:A1 I *D gf180mcu_fd_sc_mcu7t5v0__aoi21_1
*I *1239:ZN O *D gf180mcu_fd_sc_mcu7t5v0__clkinv_1
*CAP
1 *1285:B2 5.50767e-05
2 *1282:B2 0.000384007
3 *1368:A1 0.000830382
4 *1239:ZN 0
5 *148:25 0.0011886
6 *148:4 0.0015799
7 *1282:B2 *1282:B1 0.000129618
8 *1282:B2 *1285:B1 7.21742e-05
9 *1282:B2 *1286:A1 4.1368e-05
10 *1282:B2 *1607:I 0
11 *1282:B2 *1621:I 0
12 *1282:B2 *189:10 0.000254936
13 *1282:B2 *190:14 0.000365647
14 *1282:B2 *429:29 9.30835e-05
15 *1285:B2 *192:10 2.17721e-05
16 *1368:A1 *1370:B 0.000176903
17 *1368:A1 *1573:I 0
18 *1368:A1 *1614:I 4.86572e-05
19 *1368:A1 *342:50 9.23312e-05
20 *1368:A1 *386:10 0
21 *148:25 *1238:I 0
22 *148:25 *1239:I 0.000183652
23 *148:25 *1285:B1 0
24 *148:25 *1286:A1 0.000304291
25 *148:25 *1289:B 1.0415e-05
26 *148:25 *1292:A2 3.59963e-05
27 *148:25 *1363:A1 1.23715e-05
28 *148:25 *1607:I 1.86195e-05
29 *148:25 *192:10 3.34767e-05
30 *1289:A1 *1285:B2 3.1559e-05
31 *1289:A1 *148:25 5.92193e-05
32 *1527:D *1368:A1 0.000726739
33 *1527:RN *148:25 0.000135666
34 *1529:SETN *1368:A1 0
35 *1530:RN *148:25 0.000124614
36 *147:8 *148:25 0
*RES
1 *1239:ZN *148:4 4.5 
2 *148:4 *1368:A1 20.43 
3 *148:4 *148:25 15.21 
4 *148:25 *1282:B2 17.46 
5 *148:25 *1285:B2 4.95 
*END

*D_NET *149 0.0072152
*CONN
*I *1279:A1 I *D gf180mcu_fd_sc_mcu7t5v0__oai22_1
*I *1370:A1 I *D gf180mcu_fd_sc_mcu7t5v0__aoi21_1
*I *1240:ZN O *D gf180mcu_fd_sc_mcu7t5v0__clkinv_1
*CAP
1 *1279:A1 0
2 *1370:A1 0.000512444
3 *1240:ZN 0.000296199
4 *149:8 0.000808644
5 *1370:A1 *1279:B2 0.000152267
6 *1370:A1 *1369:A1 0.00108937
7 *1370:A1 *1369:A2 0.0022788
8 *1370:A1 *1370:B 0.00035741
9 *1370:A1 *1387:I1 0.000175882
10 *1370:A1 *1484:I 5.22248e-06
11 *1370:A1 *1613:I 0.000209583
12 *1370:A1 *294:19 0
13 *1370:A1 *330:10 0.000234115
14 *1370:A1 *385:10 0.000151455
15 *1370:A1 *385:28 3.16214e-05
16 *149:8 *1240:I 0.000416217
17 *149:8 *1279:A2 0.000257257
18 *149:8 *1280:B 2.94015e-06
19 *149:8 *294:19 0
20 *149:8 *385:28 0.00023578
21 *1530:RN *1370:A1 0
*RES
1 *1240:ZN *149:8 12.87 
2 *149:8 *1370:A1 19.62 
3 *149:8 *1279:A1 9 
*END

*D_NET *150 0.0062573
*CONN
*I *1372:A1 I *D gf180mcu_fd_sc_mcu7t5v0__aoi21_1
*I *1279:B2 I *D gf180mcu_fd_sc_mcu7t5v0__oai22_1
*I *1241:ZN O *D gf180mcu_fd_sc_mcu7t5v0__clkinv_1
*CAP
1 *1372:A1 0.000659806
2 *1279:B2 0.000270707
3 *1241:ZN 0.000264232
4 *150:6 0.00119475
5 *1279:B2 *1369:A2 0.000151165
6 *1279:B2 *294:19 0.000102923
7 *1279:B2 *305:10 1.91657e-05
8 *1372:A1 *1369:A2 0.002365
9 *1372:A1 *1371:A2 0.000182206
10 *1372:A1 *1597:I 2.38064e-05
11 *1372:A1 *294:19 3.32e-05
12 *1372:A1 *305:10 9.21109e-05
13 *1372:A1 *326:10 0.000471642
14 *150:6 *1597:I 4.1068e-05
15 *150:6 *294:19 9.78755e-05
16 *150:6 *347:43 2.89145e-06
17 *150:6 *384:10 2.99208e-05
18 *1370:A1 *1279:B2 0.000152267
19 *1526:D *1372:A1 0.000102568
*RES
1 *1241:ZN *150:6 6.39 
2 *150:6 *1279:B2 16.65 
3 *150:6 *1372:A1 21.78 
*END

*D_NET *151 0.0115851
*CONN
*I *1277:A1 I *D gf180mcu_fd_sc_mcu7t5v0__nand2_1
*I *1278:A1 I *D gf180mcu_fd_sc_mcu7t5v0__oai22_1
*I *1374:A1 I *D gf180mcu_fd_sc_mcu7t5v0__aoi21_1
*I *1242:ZN O *D gf180mcu_fd_sc_mcu7t5v0__clkinv_1
*CAP
1 *1277:A1 0
2 *1278:A1 0.000145936
3 *1374:A1 0.00040113
4 *1242:ZN 0.000513081
5 *151:12 0.000746466
6 *151:10 0.000712482
7 *1278:A1 *1509:CLK 0.000904526
8 *1278:A1 *1637:I 0.000904526
9 *1278:A1 *294:19 7.76334e-05
10 *1278:A1 *384:19 0.000382866
11 *1374:A1 *1278:B2 0
12 *1374:A1 *1290:A4 0.000185332
13 *1374:A1 *1358:I0 0.000851947
14 *1374:A1 *1358:S 3.42509e-05
15 *1374:A1 *1373:A1 9.30128e-05
16 *1374:A1 *1641:I 0
17 *1374:A1 *1653:I 5.78854e-06
18 *1374:A1 *342:50 0.000198212
19 *1374:A1 *425:18 0.000230457
20 *151:10 *1279:B1 0.000789343
21 *151:10 *1432:A1 9.12775e-05
22 *151:10 *425:10 0.000351534
23 *151:10 *426:12 0.000247379
24 *151:10 *426:14 0.000453197
25 *151:10 *426:18 0.000635403
26 *151:10 *427:12 0.000655983
27 *151:10 *427:14 0.000135496
28 *151:12 *1279:B1 0.00043264
29 *151:12 *1290:A4 3.94291e-05
30 *151:12 *425:14 2.63437e-05
31 *151:12 *425:18 0.000305538
32 *151:12 *426:18 0.000101624
33 *151:12 *426:29 3.86527e-05
34 *1510:D *151:10 0
35 *1525:D *1374:A1 0.000239791
36 *1525:RN *1374:A1 0.000653848
*RES
1 *1242:ZN *151:10 17.1 
2 *151:10 *151:12 2.43 
3 *151:12 *1374:A1 14.4 
4 *151:12 *1278:A1 21.6 
5 *151:10 *1277:A1 9 
*END

*D_NET *152 0.00495822
*CONN
*I *1278:B2 I *D gf180mcu_fd_sc_mcu7t5v0__oai22_1
*I *1376:A1 I *D gf180mcu_fd_sc_mcu7t5v0__aoi21_1
*I *1243:ZN O *D gf180mcu_fd_sc_mcu7t5v0__clkinv_1
*CAP
1 *1278:B2 0.000576713
2 *1376:A1 0.000321043
3 *1243:ZN 0
4 *152:6 0.000897756
5 *1278:B2 *1278:B1 7.95712e-05
6 *1278:B2 *1358:I0 1.39313e-05
7 *1278:B2 *1358:S 0.000220879
8 *1278:B2 *1424:A1 0.000819549
9 *1278:B2 *1641:I 0.000413614
10 *1278:B2 *347:43 0
11 *1376:A1 *1358:S 0
12 *1376:A1 *1375:A2 0.000365454
13 *1376:A1 *1641:I 0.000717905
14 *1376:A1 *348:33 0.00037349
15 *1374:A1 *1278:B2 0
16 *1525:D *1278:B2 6.84426e-06
17 *1525:D *1376:A1 0.000107095
18 *1525:RN *1278:B2 4.43719e-05
*RES
1 *1243:ZN *152:6 9 
2 *152:6 *1376:A1 14.04 
3 *152:6 *1278:B2 15.03 
*END

*D_NET *153 0.00508975
*CONN
*I *1272:A1 I *D gf180mcu_fd_sc_mcu7t5v0__oai222_1
*I *1266:B2 I *D gf180mcu_fd_sc_mcu7t5v0__aoi22_1
*I *1381:A1 I *D gf180mcu_fd_sc_mcu7t5v0__oai21_1
*I *1244:ZN O *D gf180mcu_fd_sc_mcu7t5v0__clkinv_1
*CAP
1 *1272:A1 3.44897e-05
2 *1266:B2 5.31099e-05
3 *1381:A1 0.000253219
4 *1244:ZN 0
5 *153:23 0.000634559
6 *153:4 0.000800178
7 *1266:B2 *1266:A2 7.55765e-06
8 *1266:B2 *1266:B1 3.55118e-05
9 *1266:B2 *1272:A2 0.000480025
10 *1266:B2 *156:21 7.55765e-06
11 *1266:B2 *416:28 0.000110619
12 *1272:A1 *1272:A2 0
13 *1381:A1 *1244:I 6.01893e-05
14 *1381:A1 *1522:CLK 0.000486049
15 *1381:A1 *155:8 3.57113e-05
16 *1381:A1 *155:25 5.79792e-06
17 *153:23 *1263:A2 2.54079e-05
18 *153:23 *1265:A1 2.40933e-06
19 *153:23 *1271:A2 0.000504973
20 *153:23 *1272:A2 3.55118e-05
21 *153:23 *1273:A1 9.70609e-07
22 *153:23 *1273:A4 0.000523346
23 *153:23 *155:25 0
24 *153:23 *156:21 8.01201e-05
25 *153:23 *368:8 0.000718361
26 *153:23 *368:36 3.41065e-05
27 *1522:D *1381:A1 0.00015997
*RES
1 *1244:ZN *153:4 4.5 
2 *153:4 *1381:A1 7.2 
3 *153:4 *153:23 6.03 
4 *153:23 *1266:B2 5.85 
5 *153:23 *1272:A1 4.77 
*END

*D_NET *154 0.00739647
*CONN
*I *1268:B2 I *D gf180mcu_fd_sc_mcu7t5v0__aoi221_1
*I *1272:B2 I *D gf180mcu_fd_sc_mcu7t5v0__oai222_1
*I *1383:A1 I *D gf180mcu_fd_sc_mcu7t5v0__oai21_1
*I *1245:ZN O *D gf180mcu_fd_sc_mcu7t5v0__clkinv_1
*CAP
1 *1268:B2 0.00022625
2 *1272:B2 0.000190882
3 *1383:A1 0.000562011
4 *1245:ZN 0.000147166
5 *154:23 0.00107552
6 *154:6 0.00136757
7 *1268:B2 *1265:A2 0.000101624
8 *1268:B2 *1271:A1 0.000382884
9 *1268:B2 *1271:A2 0.000115931
10 *1268:B2 *1273:A4 2.98051e-05
11 *1268:B2 *1648:I 0
12 *1268:B2 *1649:I 0
13 *1272:B2 *1264:A2 0.000274255
14 *1272:B2 *368:8 0.000405586
15 *1272:B2 *368:36 0.000375446
16 *1383:A1 *1263:A1 5.53196e-05
17 *1383:A1 *1385:A2 0.00016201
18 *1383:A1 *1611:I 0
19 *1383:A1 *323:21 3.45237e-05
20 *1383:A1 *323:38 1.78175e-05
21 *1383:A1 *324:26 0.000504483
22 *1383:A1 *324:37 0.000206807
23 *1383:A1 *378:25 2.70694e-05
24 *154:6 *1245:I 0.000223407
25 *154:6 *1265:A1 0
26 *154:6 *1385:A2 2.95601e-05
27 *154:6 *294:7 0
28 *154:23 *1263:A1 0
29 *154:23 *1271:A2 0.000455809
30 *154:23 *1389:A1 4.21513e-05
31 *154:23 *1648:I 0
32 *154:23 *294:7 0
33 *154:23 *364:13 7.77173e-05
34 *154:23 *374:27 5.05993e-05
35 *1521:RN *154:23 9.55009e-05
36 *1572:I *1272:B2 0.000158774
*RES
1 *1245:ZN *154:6 5.67 
2 *154:6 *1383:A1 19.35 
3 *154:6 *154:23 10.62 
4 *154:23 *1272:B2 20.52 
5 *154:23 *1268:B2 11.07 
*END

*D_NET *155 0.00741111
*CONN
*I *1272:C2 I *D gf180mcu_fd_sc_mcu7t5v0__oai222_1
*I *1270:B2 I *D gf180mcu_fd_sc_mcu7t5v0__aoi221_1
*I *1386:A1 I *D gf180mcu_fd_sc_mcu7t5v0__oai21_1
*I *1246:ZN O *D gf180mcu_fd_sc_mcu7t5v0__clkinv_1
*CAP
1 *1272:C2 0.000206078
2 *1270:B2 4.70694e-05
3 *1386:A1 0.000206723
4 *1246:ZN 0.000120541
5 *155:25 0.000996161
6 *155:8 0.00107028
7 *1270:B2 *1247:I 0.000169677
8 *1270:B2 *1389:A1 0.00050188
9 *1270:B2 *1651:I 0.000872513
10 *1272:C2 *1272:B1 1.05078e-05
11 *1272:C2 *1272:C1 2.60586e-05
12 *1272:C2 *1651:I 9.3226e-06
13 *1272:C2 *418:12 1.19184e-05
14 *1386:A1 *1262:A2 7.5874e-06
15 *1386:A1 *1265:A1 0
16 *1386:A1 *1381:B 4.55978e-05
17 *1386:A1 *1386:B 0.000609231
18 *1386:A1 *378:25 0.000334264
19 *155:8 *1262:A4 0.000119182
20 *155:25 *1262:A1 0.000231442
21 *155:25 *1262:A4 7.33612e-05
22 *155:25 *1263:A1 5.78854e-06
23 *155:25 *1263:A2 0.000151417
24 *155:25 *1264:A2 2.76268e-05
25 *155:25 *1265:A1 1.39839e-05
26 *155:25 *1271:A2 3.80169e-06
27 *155:25 *1522:CLK 5.11428e-05
28 *155:25 *1651:I 2.30981e-05
29 *155:25 *374:27 0
30 *155:25 *378:25 2.86227e-05
31 *1270:A1 *1272:C2 0
32 *1381:A1 *155:8 3.57113e-05
33 *1381:A1 *155:25 5.79792e-06
34 *1520:RN *1386:A1 0.00131752
35 *1572:I *1272:C2 2.14347e-05
36 *1572:I *155:25 5.57773e-05
37 *153:23 *155:25 0
*RES
1 *1246:ZN *155:8 5.58 
2 *155:8 *1386:A1 18.27 
3 *155:8 *155:25 5.67 
4 *155:25 *1270:B2 16.29 
5 *155:25 *1272:C2 5.67 
*END

*D_NET *156 0.00744795
*CONN
*I *1266:A2 I *D gf180mcu_fd_sc_mcu7t5v0__aoi22_1
*I *1267:A2 I *D gf180mcu_fd_sc_mcu7t5v0__oai221_1
*I *1389:A1 I *D gf180mcu_fd_sc_mcu7t5v0__oai21_1
*I *1247:ZN O *D gf180mcu_fd_sc_mcu7t5v0__clkinv_1
*CAP
1 *1266:A2 7.27868e-05
2 *1267:A2 6.5111e-05
3 *1389:A1 0.000435774
4 *1247:ZN 0
5 *156:21 0.000431057
6 *156:4 0.000728933
7 *1266:A2 *416:28 0.000294431
8 *1266:A2 *420:30 7.86261e-05
9 *1267:A2 *1264:B 0
10 *1267:A2 *416:28 0.000716479
11 *1389:A1 *1247:I 0.000136579
12 *1389:A1 *1261:A3 4.6613e-06
13 *1389:A1 *1263:A1 9.05721e-05
14 *1389:A1 *1264:A2 0.000424923
15 *1389:A1 *1271:A2 0.000450898
16 *1389:A1 *1273:A4 0.000231549
17 *1389:A1 *1387:I0 0.000101624
18 *1389:A1 *1389:B 0.00010933
19 *1389:A1 *1651:I 0.000119834
20 *1389:A1 *374:27 0.00097881
21 *156:21 *1268:B1 8.28252e-05
22 *156:21 *1273:A1 1.61174e-05
23 *156:21 *420:30 3.92487e-05
24 *1266:B2 *1266:A2 7.55765e-06
25 *1266:B2 *156:21 7.55765e-06
26 *1270:A1 *1267:A2 0.000310002
27 *1270:B2 *1389:A1 0.00050188
28 *1517:D *1389:A1 0.000578516
29 *137:20 *1267:A2 0.000309993
30 *153:23 *156:21 8.01201e-05
31 *154:23 *1389:A1 4.21513e-05
*RES
1 *1247:ZN *156:4 4.5 
2 *156:4 *1389:A1 22.32 
3 *156:4 *156:21 2.16 
4 *156:21 *1267:A2 15.39 
5 *156:21 *1266:A2 5.49 
*END

*D_NET *157 0.00404554
*CONN
*I *1268:A2 I *D gf180mcu_fd_sc_mcu7t5v0__aoi221_1
*I *1264:A1 I *D gf180mcu_fd_sc_mcu7t5v0__aoi21_1
*I *1248:ZN O *D gf180mcu_fd_sc_mcu7t5v0__clkinv_1
*CAP
1 *1268:A2 9.52399e-05
2 *1264:A1 8.25463e-05
3 *1248:ZN 0.000231864
4 *157:12 0.000409651
5 *1264:A1 *1264:B 0.000244819
6 *1264:A1 *1267:B1 2.05328e-05
7 *1264:A1 *1273:A4 3.62257e-05
8 *1268:A2 *1264:B 0.000265083
9 *1268:A2 *1265:A2 6.17716e-05
10 *1268:A2 *1273:A2 7.71021e-06
11 *1268:A2 *1273:A4 0.000297517
12 *1268:A2 *381:27 1.61174e-05
13 *1268:A2 *416:20 1.61174e-05
14 *157:12 *1265:A2 0.000323469
15 *157:12 *1551:CLK 0
16 *157:12 *299:35 0.000634542
17 *157:12 *415:29 0.000226832
18 *157:12 *416:20 0.000129275
19 *137:14 *157:12 0.00037349
20 *137:20 *1264:A1 1.56674e-05
21 *137:20 *157:12 0.000557073
*RES
1 *1248:ZN *157:12 17.64 
2 *157:12 *1264:A1 14.49 
3 *157:12 *1268:A2 6.12 
*END

*D_NET *158 0.0027841
*CONN
*I *1391:A2 I *D gf180mcu_fd_sc_mcu7t5v0__nor3_1
*I *1249:ZN O *D gf180mcu_fd_sc_mcu7t5v0__clkinv_1
*CAP
1 *1391:A2 0.000447398
2 *1249:ZN 0.000447398
3 *1391:A2 *1394:A4 0
4 *1391:A2 *1401:A1 0.000372606
5 *1391:A2 *1402:A1 0.000417717
6 *1391:A2 *1446:I 2.82657e-05
7 *1391:A2 *1579:I 0.00010398
8 *1391:A2 *1650:I 0.000108746
9 *1391:A2 *261:8 0.000755695
10 *1391:A2 *261:19 9.04462e-05
11 *1391:A2 *367:47 0
12 *1554:D *1391:A2 1.18477e-05
*RES
1 *1249:ZN *1391:A2 23.04 
*END

*D_NET *159 0.00298418
*CONN
*I *1335:A2 I *D gf180mcu_fd_sc_mcu7t5v0__xor2_1
*I *1312:A2 I *D gf180mcu_fd_sc_mcu7t5v0__nor3_1
*I *1410:A2 I *D gf180mcu_fd_sc_mcu7t5v0__oai32_1
*I *1250:ZN O *D gf180mcu_fd_sc_mcu7t5v0__clkinv_1
*CAP
1 *1335:A2 0
2 *1312:A2 0
3 *1410:A2 0.000194396
4 *1250:ZN 0.000377645
5 *159:12 0.000387552
6 *159:6 0.000570801
7 *1410:A2 *1312:A1 2.08301e-05
8 *1410:A2 *1410:A3 0.000148576
9 *1410:A2 *216:24 0.000204482
10 *1410:A2 *406:45 0.000304706
11 *159:6 *1335:A1 1.80607e-05
12 *159:6 *1336:A2 3.94564e-05
13 *159:6 *1410:A3 0
14 *159:6 *1645:I 0
15 *159:6 *216:24 0
16 *159:6 *237:6 1.4382e-06
17 *159:12 *1312:A3 4.34597e-05
18 *159:12 *1335:A1 0.000672774
19 *159:12 *1413:A1 0
20 *159:12 *1415:A1 0
21 *159:12 *410:8 0
22 *1559:RN *159:6 0
*RES
1 *1250:ZN *159:6 6.75 
2 *159:6 *159:12 10.89 
3 *159:12 *1410:A2 7.02 
4 *159:12 *1312:A2 4.5 
5 *159:6 *1335:A2 4.5 
*END

*D_NET *160 0.00405641
*CONN
*I *1305:A2 I *D gf180mcu_fd_sc_mcu7t5v0__or3_1
*I *1304:A2 I *D gf180mcu_fd_sc_mcu7t5v0__nor3_1
*I *1303:A1 I *D gf180mcu_fd_sc_mcu7t5v0__nor2_1
*I *1251:ZN O *D gf180mcu_fd_sc_mcu7t5v0__clkinv_1
*CAP
1 *1305:A2 0
2 *1304:A2 0
3 *1303:A1 0.000444892
4 *1251:ZN 0.000142418
5 *160:16 0.000574734
6 *160:12 0.000272261
7 *1303:A1 *1409:B2 0
8 *1303:A1 *1564:CLK 0.000200629
9 *1303:A1 *1663:I 1.0415e-05
10 *1303:A1 *213:16 0
11 *1303:A1 *272:31 0.000868851
12 *160:12 *1305:A3 0.00043521
13 *160:12 *1316:B 5.44009e-05
14 *160:12 *1417:A1 0.000426479
15 *160:12 *210:8 2.60524e-05
16 *160:12 *233:18 2.60524e-05
17 *160:12 *312:16 1.86195e-05
18 *160:16 *1304:A1 0.000372597
19 *160:16 *1304:A3 1.90142e-05
20 *160:16 *1417:A1 0.00013169
21 *160:16 *297:29 1.78107e-05
22 *160:16 *312:16 1.42823e-05
*RES
1 *1251:ZN *160:12 11.07 
2 *160:12 *160:16 5.85 
3 *160:16 *1303:A1 8.73 
4 *160:16 *1304:A2 4.5 
5 *160:12 *1305:A2 9 
*END

*D_NET *161 0.000540604
*CONN
*I *1310:A2 I *D gf180mcu_fd_sc_mcu7t5v0__and4_1
*I *1252:ZN O *D gf180mcu_fd_sc_mcu7t5v0__clkinv_1
*CAP
1 *1310:A2 0.000142127
2 *1252:ZN 0.000142127
3 *1310:A2 *1310:A1 0.000166843
4 *1310:A2 *1310:A3 3.55118e-05
5 *1310:A2 *1547:CLK 0
6 *1310:A2 *1646:I 5.15895e-05
7 *1310:A2 *233:18 2.40587e-06
*RES
1 *1252:ZN *1310:A2 10.17 
*END

*D_NET *162 0.00143679
*CONN
*I *1408:A1 I *D gf180mcu_fd_sc_mcu7t5v0__oai22_1
*I *1253:ZN O *D gf180mcu_fd_sc_mcu7t5v0__clkinv_1
*CAP
1 *1408:A1 0.00050985
2 *1253:ZN 0.00050985
3 *1408:A1 *1408:B1 0.000132459
4 *1408:A1 *1409:A1 3.05679e-05
5 *1408:A1 *1409:A2 2.16372e-05
6 *1408:A1 *1663:I 8.16641e-05
7 *1408:A1 *270:10 6.9417e-05
8 *1408:A1 *272:31 1.0415e-05
9 *1408:A1 *373:10 7.09292e-05
10 *1545:SETN *1408:A1 0
11 *1546:D *1408:A1 0
*RES
1 *1253:ZN *1408:A1 21.69 
*END

*D_NET *163 0.00250836
*CONN
*I *1410:B2 I *D gf180mcu_fd_sc_mcu7t5v0__oai32_1
*I *1254:ZN O *D gf180mcu_fd_sc_mcu7t5v0__clkinv_1
*CAP
1 *1410:B2 0.000470571
2 *1254:ZN 0.000470571
3 *1410:B2 *1250:I 8.66027e-05
4 *1410:B2 *1410:B1 3.22348e-05
5 *1410:B2 *1569:D 0.000896347
6 *1410:B2 *1569:CLK 5.36351e-05
7 *1410:B2 *1620:I 0.000169515
8 *1410:B2 *1623:I 0.000181846
9 *1410:B2 *1631:I 0
10 *1410:B2 *337:19 4.0497e-05
11 *1562:D *1410:B2 0.000106536
*RES
1 *1254:ZN *1410:B2 23.13 
*END

*D_NET *164 0.000327825
*CONN
*I *1409:B2 I *D gf180mcu_fd_sc_mcu7t5v0__oai22_1
*I *1255:ZN O *D gf180mcu_fd_sc_mcu7t5v0__clkinv_1
*CAP
1 *1409:B2 8.76959e-05
2 *1255:ZN 8.76959e-05
3 *1409:B2 *1663:I 5.69319e-05
4 *1409:B2 *272:31 9.55009e-05
5 *1303:A1 *1409:B2 0
*RES
1 *1255:ZN *1409:B2 9.9 
*END

*D_NET *165 0.000811876
*CONN
*I *1408:B2 I *D gf180mcu_fd_sc_mcu7t5v0__oai22_1
*I *1256:ZN O *D gf180mcu_fd_sc_mcu7t5v0__clkinv_1
*CAP
1 *1408:B2 0.000251376
2 *1256:ZN 0.000251376
3 *1408:B2 *1255:I 0
4 *1408:B2 *1408:B1 0.000148576
5 *1408:B2 *1409:A2 0.000120626
6 *1408:B2 *1626:I 3.99224e-05
7 *1408:B2 *339:30 0
*RES
1 *1256:ZN *1408:B2 20.16 
*END

*D_NET *166 0.001911
*CONN
*I *1295:A4 I *D gf180mcu_fd_sc_mcu7t5v0__nand4_1
*I *1293:A2 I *D gf180mcu_fd_sc_mcu7t5v0__and2_1
*I *1257:ZN O *D gf180mcu_fd_sc_mcu7t5v0__clkinv_1
*CAP
1 *1295:A4 0.000240983
2 *1293:A2 0.000105592
3 *1257:ZN 6.8375e-05
4 *166:6 0.00041495
5 *1293:A2 *1257:I 0.000220553
6 *1293:A2 *1295:A3 1.94907e-05
7 *1293:A2 *1577:I 0.000126485
8 *1295:A4 *1228:I 0.000100777
9 *1295:A4 *1272:A2 2.26729e-05
10 *1295:A4 *1295:A3 9.30128e-05
11 *1295:A4 *261:8 0
12 *1295:A4 *415:29 9.84908e-05
13 *166:6 *1257:I 9.30289e-05
14 *1572:I *1295:A4 7.35094e-05
15 *1572:I *166:6 7.73347e-05
16 *137:14 *1295:A4 0.000145056
17 *137:14 *166:6 1.0686e-05
*RES
1 *1257:ZN *166:6 5.13 
2 *166:6 *1293:A2 14.85 
3 *166:6 *1295:A4 7.56 
*END

*D_NET *167 0.00788657
*CONN
*I *1430:A1 I *D gf180mcu_fd_sc_mcu7t5v0__nor2_1
*I *1275:A2 I *D gf180mcu_fd_sc_mcu7t5v0__nand2_1
*I *1274:A2 I *D gf180mcu_fd_sc_mcu7t5v0__oai22_1
*I *1431:A1 I *D gf180mcu_fd_sc_mcu7t5v0__and2_1
*I *1258:ZN O *D gf180mcu_fd_sc_mcu7t5v0__clkinv_1
*CAP
1 *1430:A1 0.000275618
2 *1275:A2 0.000140895
3 *1274:A2 0
4 *1431:A1 9.40376e-05
5 *1258:ZN 0.000187328
6 *167:31 0.000531505
7 *167:10 0.000681013
8 *167:8 0.000659311
9 *1275:A2 *1240:I 2.54542e-05
10 *1275:A2 *1274:B1 5.79059e-06
11 *1275:A2 *1276:A2 0.000193367
12 *1275:A2 *1287:A2 9.04462e-05
13 *1275:A2 *182:12 0.000101615
14 *1275:A2 *385:28 0.00021097
15 *1430:A1 *1430:A2 7.07276e-05
16 *1430:A1 *1432:A3 0.000336961
17 *1430:A1 *1432:A4 2.16166e-05
18 *1430:A1 *313:27 0
19 *1431:A1 *282:8 4.47148e-05
20 *1431:A1 *306:6 0.000547579
21 *1431:A1 *335:20 0.000240548
22 *167:8 *1279:A2 0.000134884
23 *167:8 *1432:A2 6.23828e-05
24 *167:8 *1638:I 6.63206e-05
25 *167:10 *1279:A2 8.43025e-06
26 *167:10 *1430:A2 8.03944e-05
27 *167:10 *1432:A2 2.70125e-05
28 *167:10 *282:21 2.48332e-05
29 *167:10 *335:44 0.000186245
30 *167:31 *1274:A1 3.46409e-05
31 *167:31 *1274:B1 1.5412e-05
32 *167:31 *1280:B 0.000583535
33 *167:31 *1287:A2 0.00025136
34 *167:31 *1428:A1 0.000376971
35 *167:31 *1428:A2 4.40163e-05
36 *167:31 *1429:A3 0.000335707
37 *167:31 *282:21 0.000123828
38 *167:31 *335:26 0.000197484
39 *167:31 *335:44 8.68398e-06
40 *1511:D *1430:A1 7.86369e-05
41 *1511:D *167:8 0.000466036
42 *1511:D *167:10 0.000320262
*RES
1 *1258:ZN *167:8 11.61 
2 *167:8 *167:10 2.07 
3 *167:10 *1431:A1 10.53 
4 *167:10 *167:31 9.81 
5 *167:31 *1274:A2 4.5 
6 *167:31 *1275:A2 15.48 
7 *167:8 *1430:A1 11.79 
*END

*D_NET *168 0.00581915
*CONN
*I *1427:A1 I *D gf180mcu_fd_sc_mcu7t5v0__nand2_1
*I *1274:B1 I *D gf180mcu_fd_sc_mcu7t5v0__oai22_1
*I *1259:ZN O *D gf180mcu_fd_sc_mcu7t5v0__clkinv_1
*CAP
1 *1427:A1 2.41552e-05
2 *1274:B1 0.000349256
3 *1259:ZN 0.000619165
4 *168:14 0.000992576
5 *1274:B1 *1274:A1 1.98195e-05
6 *1274:B1 *1274:B2 0.00131462
7 *1274:B1 *1287:A2 4.34467e-06
8 *1274:B1 *1428:A1 2.14748e-05
9 *1274:B1 *1428:A2 0.000588105
10 *1274:B1 *1481:I 2.08301e-05
11 *1427:A1 *1280:B 0
12 *1427:A1 *1427:A2 1.86887e-06
13 *168:14 *1242:I 0.000424066
14 *168:14 *1259:I 0.000247527
15 *168:14 *1280:A1 6.7338e-05
16 *168:14 *1427:A2 0.000655936
17 *168:14 *1481:I 1.1426e-05
18 *168:14 *282:8 1.60098e-05
19 *168:14 *313:35 0.000419426
20 *1275:A2 *1274:B1 5.79059e-06
21 *1508:D *168:14 0
22 *167:31 *1274:B1 1.5412e-05
*RES
1 *1259:ZN *168:14 19.53 
2 *168:14 *1274:B1 9.27 
3 *168:14 *1427:A1 4.77 
*END

*D_NET *169 0.00312495
*CONN
*I *1263:A1 I *D gf180mcu_fd_sc_mcu7t5v0__nand2_1
*I *1261:ZN O *D gf180mcu_fd_sc_mcu7t5v0__nor3_1
*CAP
1 *1263:A1 0.000870666
2 *1261:ZN 0.000870666
3 *1263:A1 *1245:I 0
4 *1263:A1 *1261:A3 1.86887e-06
5 *1263:A1 *1262:A2 0
6 *1263:A1 *1263:A2 1.0415e-05
7 *1263:A1 *1264:A2 1.0415e-05
8 *1263:A1 *1265:A1 0
9 *1263:A1 *1387:I0 3.01487e-05
10 *1263:A1 *1648:I 0.000372606
11 *1263:A1 *294:7 0.000141868
12 *1263:A1 *294:97 8.03115e-05
13 *1263:A1 *368:8 5.78854e-06
14 *1383:A1 *1263:A1 5.53196e-05
15 *1389:A1 *1263:A1 9.05721e-05
16 *1517:D *1263:A1 0.000578516
17 *154:23 *1263:A1 0
18 *155:25 *1263:A1 5.78854e-06
*RES
1 *1261:ZN *1263:A1 25.47 
*END

*D_NET *170 0.000455897
*CONN
*I *1263:A2 I *D gf180mcu_fd_sc_mcu7t5v0__nand2_1
*I *1262:ZN O *D gf180mcu_fd_sc_mcu7t5v0__nor4_1
*CAP
1 *1263:A2 0.000134329
2 *1262:ZN 0.000134329
3 *1263:A1 *1263:A2 1.0415e-05
4 *153:23 *1263:A2 2.54079e-05
5 *155:25 *1263:A2 0.000151417
*RES
1 *1262:ZN *1263:A2 10.26 
*END

*D_NET *171 0.00207787
*CONN
*I *1264:A2 I *D gf180mcu_fd_sc_mcu7t5v0__aoi21_1
*I *1263:ZN O *D gf180mcu_fd_sc_mcu7t5v0__nand2_1
*CAP
1 *1264:A2 0.00031493
2 *1263:ZN 0.00031493
3 *1264:A2 *1247:I 0.000138251
4 *1264:A2 *1272:B1 5.92728e-05
5 *1264:A2 *1273:A4 9.20788e-05
6 *1264:A2 *368:8 0.000261398
7 *1263:A1 *1264:A2 1.0415e-05
8 *1272:B2 *1264:A2 0.000274255
9 *1389:A1 *1264:A2 0.000424923
10 *1572:I *1264:A2 0.000159793
11 *155:25 *1264:A2 2.76268e-05
*RES
1 *1263:ZN *1264:A2 22.14 
*END

*D_NET *172 0.00245982
*CONN
*I *1273:A1 I *D gf180mcu_fd_sc_mcu7t5v0__nor4_1
*I *1264:ZN O *D gf180mcu_fd_sc_mcu7t5v0__aoi21_1
*CAP
1 *1273:A1 0.0003883
2 *1264:ZN 0.0003883
3 *1273:A1 *1265:A1 1.61174e-05
4 *1273:A1 *1265:A2 0.000509189
5 *1273:A1 *1268:B1 0.000165417
6 *1273:A1 *1271:A1 0.000153777
7 *1273:A1 *1271:A2 4.03366e-06
8 *1273:A1 *1649:I 0.000817599
9 *153:23 *1273:A1 9.70609e-07
10 *156:21 *1273:A1 1.61174e-05
*RES
1 *1264:ZN *1273:A1 22.32 
*END

*D_NET *173 0.000667282
*CONN
*I *1268:C I *D gf180mcu_fd_sc_mcu7t5v0__aoi221_1
*I *1265:Z O *D gf180mcu_fd_sc_mcu7t5v0__xor2_1
*CAP
1 *1268:C 0.000144488
2 *1265:Z 0.000144488
3 *1268:C *1265:A2 0.000302466
4 *1268:C *1268:B1 2.98728e-05
5 *1268:C *1273:A4 4.06582e-05
6 *1268:C *381:27 5.30888e-06
*RES
1 *1265:Z *1268:C 10.62 
*END

*D_NET *174 0.0015101
*CONN
*I *1267:C I *D gf180mcu_fd_sc_mcu7t5v0__oai221_1
*I *1266:ZN O *D gf180mcu_fd_sc_mcu7t5v0__aoi22_1
*CAP
1 *1267:C 0.000199359
2 *1266:ZN 0.000199359
3 *1267:C *1265:A2 0.000499457
4 *1267:C *415:29 6.10919e-05
5 *1267:C *416:28 0
6 *1267:C *421:37 5.13763e-05
7 *137:14 *1267:C 6.2979e-05
8 *137:20 *1267:C 0.000436478
*RES
1 *1266:ZN *1267:C 20.7 
*END

*D_NET *175 0.00209347
*CONN
*I *1273:A2 I *D gf180mcu_fd_sc_mcu7t5v0__nor4_1
*I *1267:ZN O *D gf180mcu_fd_sc_mcu7t5v0__oai221_1
*CAP
1 *1273:A2 0.000209971
2 *1267:ZN 0.000209971
3 *1273:A2 *1264:B 0.000358359
4 *1273:A2 *1299:A1 0.00037349
5 *1273:A2 *1621:I 0.000167395
6 *1273:A2 *381:27 0.000322063
7 *1273:A2 *416:20 0.000444513
8 *1268:A2 *1273:A2 7.71021e-06
*RES
1 *1267:ZN *1273:A2 12.78 
*END

*D_NET *176 0.00223512
*CONN
*I *1271:A1 I *D gf180mcu_fd_sc_mcu7t5v0__nand2_1
*I *1268:ZN O *D gf180mcu_fd_sc_mcu7t5v0__aoi221_1
*CAP
1 *1271:A1 0.000206536
2 *1268:ZN 0.000206536
3 *1271:A1 *1265:A1 0.000374581
4 *1271:A1 *1265:A2 0.000102753
5 *1271:A1 *1271:A2 0.000545915
6 *1271:A1 *1273:A4 0.000262133
7 *1268:B2 *1271:A1 0.000382884
8 *1273:A1 *1271:A1 0.000153777
*RES
1 *1268:ZN *1271:A1 22.5 
*END

*D_NET *177 0.00176315
*CONN
*I *1270:C I *D gf180mcu_fd_sc_mcu7t5v0__aoi221_1
*I *1269:Z O *D gf180mcu_fd_sc_mcu7t5v0__xor2_1
*CAP
1 *1270:C 0.000634686
2 *1269:Z 0.000634686
3 *1270:C *1267:B1 4.04191e-05
4 *1270:C *1270:B1 0.000147435
5 *1270:C *1471:I 0
6 *1270:C *298:10 3.98088e-05
7 *1270:C *364:13 0.000254169
8 *1270:C *418:12 0
9 *1270:A1 *1270:C 1.19491e-05
*RES
1 *1269:Z *1270:C 13.86 
*END

*D_NET *178 0.00316328
*CONN
*I *1271:A2 I *D gf180mcu_fd_sc_mcu7t5v0__nand2_1
*I *1270:ZN O *D gf180mcu_fd_sc_mcu7t5v0__aoi221_1
*CAP
1 *1271:A2 0.000438579
2 *1270:ZN 0.000438579
3 *1271:A2 *1265:A1 3.22348e-05
4 *1271:A2 *1273:A4 0.000161838
5 *1271:A2 *364:13 0
6 *1271:A2 *374:27 1.06861e-05
7 *1268:B2 *1271:A2 0.000115931
8 *1271:A1 *1271:A2 0.000545915
9 *1273:A1 *1271:A2 4.03366e-06
10 *1389:A1 *1271:A2 0.000450898
11 *153:23 *1271:A2 0.000504973
12 *154:23 *1271:A2 0.000455809
13 *155:25 *1271:A2 3.80169e-06
*RES
1 *1270:ZN *1271:A2 24.75 
*END

*D_NET *179 0.00114164
*CONN
*I *1273:A3 I *D gf180mcu_fd_sc_mcu7t5v0__nor4_1
*I *1271:ZN O *D gf180mcu_fd_sc_mcu7t5v0__nand2_1
*CAP
1 *1273:A3 0.000157404
2 *1271:ZN 0.000157404
3 *1273:A3 *1265:A1 0
4 *1273:A3 *1265:A2 7.191e-07
5 *1273:A3 *1522:CLK 0.000325383
6 *1273:A3 *1649:I 0.000154042
7 *1273:A3 *381:27 0.000346684
*RES
1 *1271:ZN *1273:A3 20.7 
*END

*D_NET *180 0.00361878
*CONN
*I *1273:A4 I *D gf180mcu_fd_sc_mcu7t5v0__nor4_1
*I *1272:ZN O *D gf180mcu_fd_sc_mcu7t5v0__oai222_1
*CAP
1 *1273:A4 0.000380663
2 *1272:ZN 0.000380663
3 *1273:A4 *1264:B 9.51827e-05
4 *1273:A4 *1265:A2 0.000307206
5 *1273:A4 *1267:B1 0
6 *1273:A4 *1272:B1 5.29961e-06
7 *1273:A4 *368:8 0.000283696
8 *1273:A4 *368:36 0.000276946
9 *1273:A4 *381:27 0.00021397
10 *1264:A1 *1273:A4 3.62257e-05
11 *1264:A2 *1273:A4 9.20788e-05
12 *1268:A2 *1273:A4 0.000297517
13 *1268:B2 *1273:A4 2.98051e-05
14 *1268:C *1273:A4 4.06582e-05
15 *1271:A1 *1273:A4 0.000262133
16 *1271:A2 *1273:A4 0.000161838
17 *1389:A1 *1273:A4 0.000231549
18 *153:23 *1273:A4 0.000523346
*RES
1 *1272:ZN *1273:A4 24.12 
*END

*D_NET *181 0.00672812
*CONN
*I *1609:I I *D gf180mcu_fd_sc_mcu7t5v0__dlyb_1
*I *1273:ZN O *D gf180mcu_fd_sc_mcu7t5v0__nor4_1
*CAP
1 *1609:I 0.00156324
2 *1273:ZN 0.00156324
3 *1609:I *1448:I 7.77227e-05
4 *1609:I *1522:CLK 4.79098e-05
5 *1609:I *1552:CLK 0.00119511
6 *1609:I *1558:CLK 0.000766842
7 *1609:I *1649:I 0.000754995
8 *1609:I *316:25 0
9 *1609:I *316:42 0
10 *1609:I *365:10 0.000212914
11 *1609:I *365:23 6.59867e-05
12 *1609:I *380:8 0
13 *1609:I *415:12 0.000294421
14 *1552:RN *1609:I 0.000185727
*RES
1 *1273:ZN *1609:I 34.11 
*END

*D_NET *182 0.00301551
*CONN
*I *1276:A1 I *D gf180mcu_fd_sc_mcu7t5v0__and2_1
*I *1280:C I *D gf180mcu_fd_sc_mcu7t5v0__aoi211_1
*I *1274:ZN O *D gf180mcu_fd_sc_mcu7t5v0__oai22_1
*CAP
1 *1276:A1 0
2 *1280:C 0.000210793
3 *1274:ZN 0.000201735
4 *182:12 0.000412528
5 *1280:C *1276:A2 1.61174e-05
6 *1280:C *1280:B 0.000263553
7 *1280:C *1287:A2 0
8 *1280:C *282:8 0.000735889
9 *1280:C *335:20 2.50036e-05
10 *182:12 *1240:I 0.000725766
11 *182:12 *1276:A2 0.000171743
12 *182:12 *1598:I 0.000135666
13 *182:12 *335:20 1.51e-05
14 *1275:A2 *182:12 0.000101615
*RES
1 *1274:ZN *182:12 16.38 
2 *182:12 *1280:C 7.11 
3 *182:12 *1276:A1 4.5 
*END

*D_NET *183 0.00205135
*CONN
*I *1276:A2 I *D gf180mcu_fd_sc_mcu7t5v0__and2_1
*I *1275:ZN O *D gf180mcu_fd_sc_mcu7t5v0__nand2_1
*CAP
1 *1276:A2 0.000404576
2 *1275:ZN 0.000404576
3 *1276:A2 *1287:A1 0.000633683
4 *1276:A2 *1287:A2 9.6501e-06
5 *1276:A2 *1287:B 8.31395e-06
6 *1276:A2 *1292:A1 0.000109593
7 *1276:A2 *1598:I 7.77106e-05
8 *1276:A2 *1607:I 0
9 *1276:A2 *335:20 0
10 *1276:A2 *385:10 3.0177e-06
11 *1276:A2 *385:28 7.18797e-06
12 *1276:A2 *429:18 5.06031e-06
13 *1276:A2 *429:29 6.75054e-06
14 *1275:A2 *1276:A2 0.000193367
15 *1280:C *1276:A2 1.61174e-05
16 *182:12 *1276:A2 0.000171743
*RES
1 *1275:ZN *1276:A2 22.86 
*END

*D_NET *184 0.00176661
*CONN
*I *1287:A1 I *D gf180mcu_fd_sc_mcu7t5v0__oai211_1
*I *1276:Z O *D gf180mcu_fd_sc_mcu7t5v0__and2_1
*CAP
1 *1287:A1 0.000446847
2 *1276:Z 0.000446847
3 *1287:A1 *1283:A2 0
4 *1287:A1 *1287:A2 0.000163067
5 *1287:A1 *1287:B 6.81994e-05
6 *1287:A1 *1287:C 7.96333e-06
7 *1287:A1 *1484:I 0
8 *1276:A2 *1287:A1 0.000633683
*RES
1 *1276:Z *1287:A1 21.87 
*END

*D_NET *185 0.00211539
*CONN
*I *1280:A1 I *D gf180mcu_fd_sc_mcu7t5v0__aoi211_1
*I *1277:ZN O *D gf180mcu_fd_sc_mcu7t5v0__nand2_1
*CAP
1 *1280:A1 0.000371979
2 *1277:ZN 0.000371979
3 *1280:A1 *1280:B 3.55118e-05
4 *1280:A1 *1427:A2 6.26468e-05
5 *1280:A1 *1481:I 9.94903e-06
6 *1280:A1 *1508:CLK 0.000597041
7 *1280:A1 *282:8 3.49634e-05
8 *1280:A1 *313:35 0.000214923
9 *1508:D *1280:A1 0.000349055
10 *168:14 *1280:A1 6.7338e-05
*RES
1 *1277:ZN *1280:A1 21.87 
*END

*D_NET *186 0.00325955
*CONN
*I *1280:A2 I *D gf180mcu_fd_sc_mcu7t5v0__aoi211_1
*I *1278:ZN O *D gf180mcu_fd_sc_mcu7t5v0__oai22_1
*CAP
1 *1280:A2 0.000305065
2 *1278:ZN 0.000305065
3 *1280:A2 *1242:I 0.00121632
4 *1280:A2 *1274:B2 0.00039363
5 *1280:A2 *1429:A3 0.000143583
6 *1280:A2 *1638:I 0.000107407
7 *1280:A2 *383:14 0.000155175
8 *1280:A2 *384:19 0.000633301
*RES
1 *1278:ZN *1280:A2 22.59 
*END

*D_NET *187 0.00294249
*CONN
*I *1280:B I *D gf180mcu_fd_sc_mcu7t5v0__aoi211_1
*I *1279:ZN O *D gf180mcu_fd_sc_mcu7t5v0__oai22_1
*CAP
1 *1280:B 0.000446503
2 *1279:ZN 0.000446503
3 *1280:B *1274:B2 4.21018e-05
4 *1280:B *1279:A2 0.000239033
5 *1280:B *1287:A2 2.30948e-05
6 *1280:B *1290:A1 9.7667e-05
7 *1280:B *1428:A1 0.00063558
8 *1280:B *1584:I 0.000109073
9 *1280:B *294:19 1.05495e-05
10 *1280:B *335:26 6.84426e-06
11 *1280:A1 *1280:B 3.55118e-05
12 *1280:C *1280:B 0.000263553
13 *1427:A1 *1280:B 0
14 *149:8 *1280:B 2.94015e-06
15 *167:31 *1280:B 0.000583535
*RES
1 *1279:ZN *1280:B 23.58 
*END

*D_NET *188 0.00279007
*CONN
*I *1287:A2 I *D gf180mcu_fd_sc_mcu7t5v0__oai211_1
*I *1280:ZN O *D gf180mcu_fd_sc_mcu7t5v0__aoi211_1
*CAP
1 *1287:A2 0.000684667
2 *1280:ZN 0.000684667
3 *1287:A2 *1283:A2 2.65444e-06
4 *1287:A2 *1289:B 1.07374e-05
5 *1287:A2 *1427:A2 8.05869e-05
6 *1287:A2 *1429:A3 0.000784795
7 *1274:B1 *1287:A2 4.34467e-06
8 *1275:A2 *1287:A2 9.04462e-05
9 *1276:A2 *1287:A2 9.6501e-06
10 *1280:B *1287:A2 2.30948e-05
11 *1280:C *1287:A2 0
12 *1287:A1 *1287:A2 0.000163067
13 *167:31 *1287:A2 0.00025136
*RES
1 *1280:ZN *1287:A2 15.03 
*END

*D_NET *189 0.00372517
*CONN
*I *1283:A1 I *D gf180mcu_fd_sc_mcu7t5v0__and2_1
*I *1288:B I *D gf180mcu_fd_sc_mcu7t5v0__oai21_1
*I *1281:ZN O *D gf180mcu_fd_sc_mcu7t5v0__aoi22_1
*CAP
1 *1283:A1 0.000151107
2 *1288:B 0
3 *1281:ZN 0.000530275
4 *189:10 0.000681382
5 *1283:A1 *1283:A2 0.000119952
6 *1283:A1 *1435:A1 0.000180811
7 *1283:A1 *429:29 2.14748e-05
8 *189:10 *1281:A2 0.000432417
9 *189:10 *1282:A2 0
10 *189:10 *1283:A2 3.55118e-05
11 *189:10 *1284:A2 0.00099467
12 *189:10 *1442:A2 3.89314e-05
13 *189:10 *1621:I 0
14 *189:10 *190:14 5.69484e-05
15 *189:10 *192:10 9.84003e-05
16 *189:10 *429:29 2.98571e-05
17 *189:10 *432:34 9.85004e-05
18 *1282:B2 *189:10 0.000254936
19 *1284:B2 *189:10 0
*RES
1 *1281:ZN *189:10 11.07 
2 *189:10 *1288:B 4.5 
3 *189:10 *1283:A1 6.3 
*END

*D_NET *190 0.00292625
*CONN
*I *1283:A2 I *D gf180mcu_fd_sc_mcu7t5v0__and2_1
*I *1288:A1 I *D gf180mcu_fd_sc_mcu7t5v0__oai21_1
*I *1282:ZN O *D gf180mcu_fd_sc_mcu7t5v0__aoi22_1
*CAP
1 *1283:A2 0.00022837
2 *1288:A1 0
3 *1282:ZN 0.000252616
4 *190:14 0.000480986
5 *1283:A2 *1289:B 3.77369e-05
6 *1283:A2 *192:10 2.03496e-05
7 *190:14 *1282:B1 0.000354738
8 *190:14 *1285:B1 3.19635e-05
9 *190:14 *1607:I 0
10 *190:14 *1621:I 1.27836e-05
11 *190:14 *192:10 0.000120271
12 *190:14 *287:27 1.58782e-05
13 *190:14 *335:12 0.0003293
14 *190:14 *429:29 0.000216305
15 *1282:A1 *190:14 0.000223407
16 *1282:B2 *190:14 0.000365647
17 *1283:A1 *1283:A2 0.000119952
18 *1287:A1 *1283:A2 0
19 *1287:A2 *1283:A2 2.65444e-06
20 *1512:D *190:14 2.08284e-05
21 *189:10 *1283:A2 3.55118e-05
22 *189:10 *190:14 5.69484e-05
*RES
1 *1282:ZN *190:14 17.37 
2 *190:14 *1288:A1 4.5 
3 *190:14 *1283:A2 6.57 
*END

*D_NET *191 0.00104717
*CONN
*I *1287:B I *D gf180mcu_fd_sc_mcu7t5v0__oai211_1
*I *1283:Z O *D gf180mcu_fd_sc_mcu7t5v0__and2_1
*CAP
1 *1287:B 0.000135711
2 *1283:Z 0.000135711
3 *1287:B *1292:A1 1.71254e-05
4 *1287:B *1607:I 0.000682113
5 *1276:A2 *1287:B 8.31395e-06
6 *1287:A1 *1287:B 6.81994e-05
*RES
1 *1283:Z *1287:B 19.71 
*END

*D_NET *192 0.00204375
*CONN
*I *1288:A2 I *D gf180mcu_fd_sc_mcu7t5v0__oai21_1
*I *1286:A1 I *D gf180mcu_fd_sc_mcu7t5v0__nor2_1
*I *1284:ZN O *D gf180mcu_fd_sc_mcu7t5v0__oai22_1
*CAP
1 *1288:A2 0
2 *1286:A1 0.000104206
3 *1284:ZN 0.000354553
4 *192:10 0.000458759
5 *1286:A1 *1292:A2 0.000187274
6 *1286:A1 *1607:I 0.000165108
7 *192:10 *1289:B 0.000102192
8 *1281:B2 *192:10 7.96333e-06
9 *1282:B2 *1286:A1 4.1368e-05
10 *1283:A2 *192:10 2.03496e-05
11 *1284:B2 *192:10 2.37695e-05
12 *1285:B2 *192:10 2.17721e-05
13 *1289:A1 *192:10 0
14 *145:6 *192:10 0
15 *148:25 *1286:A1 0.000304291
16 *148:25 *192:10 3.34767e-05
17 *189:10 *192:10 9.84003e-05
18 *190:14 *192:10 0.000120271
*RES
1 *1284:ZN *192:10 7.65 
2 *192:10 *1286:A1 15.93 
3 *192:10 *1288:A2 4.5 
*END

*D_NET *193 0.000581665
*CONN
*I *1286:A2 I *D gf180mcu_fd_sc_mcu7t5v0__nor2_1
*I *1285:ZN O *D gf180mcu_fd_sc_mcu7t5v0__oai22_1
*CAP
1 *1286:A2 8.93323e-05
2 *1285:ZN 8.93323e-05
3 *1286:A2 *1289:A2 0.00034795
4 *1289:A1 *1286:A2 5.50498e-05
*RES
1 *1285:ZN *1286:A2 10.26 
*END

*D_NET *194 0.000484079
*CONN
*I *1287:C I *D gf180mcu_fd_sc_mcu7t5v0__oai211_1
*I *1286:ZN O *D gf180mcu_fd_sc_mcu7t5v0__nor2_1
*CAP
1 *1287:C 0.000163666
2 *1286:ZN 0.000163666
3 *1287:C *1289:A2 0
4 *1287:C *1292:A2 9.86029e-06
5 *1287:C *1484:I 0.000138924
6 *1287:A1 *1287:C 7.96333e-06
*RES
1 *1286:ZN *1287:C 10.26 
*END

*D_NET *195 0.000827326
*CONN
*I *1292:A1 I *D gf180mcu_fd_sc_mcu7t5v0__aoi22_1
*I *1287:ZN O *D gf180mcu_fd_sc_mcu7t5v0__oai211_1
*CAP
1 *1292:A1 0.000185223
2 *1287:ZN 0.000185223
3 *1292:A1 *1292:B1 3.22122e-05
4 *1292:A1 *1481:I 3.98088e-05
5 *1292:A1 *1484:I 4.05523e-05
6 *1292:A1 *1607:I 0.000217587
7 *1292:A1 *385:10 0
8 *1276:A2 *1292:A1 0.000109593
9 *1287:B *1292:A1 1.71254e-05
*RES
1 *1287:ZN *1292:A1 20.34 
*END

*D_NET *196 0.000703223
*CONN
*I *1289:B I *D gf180mcu_fd_sc_mcu7t5v0__oai21_1
*I *1288:ZN O *D gf180mcu_fd_sc_mcu7t5v0__oai21_1
*CAP
1 *1289:B 0.000266141
2 *1288:ZN 0.000266141
3 *1289:B *1292:A2 9.86029e-06
4 *1283:A2 *1289:B 3.77369e-05
5 *1287:A2 *1289:B 1.07374e-05
6 *148:25 *1289:B 1.0415e-05
7 *192:10 *1289:B 0.000102192
*RES
1 *1288:ZN *1289:B 10.89 
*END

*D_NET *197 0.00150767
*CONN
*I *1292:A2 I *D gf180mcu_fd_sc_mcu7t5v0__aoi22_1
*I *1289:ZN O *D gf180mcu_fd_sc_mcu7t5v0__oai21_1
*CAP
1 *1292:A2 0.00022492
2 *1289:ZN 0.00022492
3 *1292:A2 *1292:B2 1.34588e-05
4 *1292:A2 *1481:I 8.49143e-05
5 *1292:A2 *1607:I 0.000716461
6 *1286:A1 *1292:A2 0.000187274
7 *1287:C *1292:A2 9.86029e-06
8 *1289:B *1292:A2 9.86029e-06
9 *148:25 *1292:A2 3.59963e-05
*RES
1 *1289:ZN *1292:A2 20.61 
*END

*D_NET *198 0.00238231
*CONN
*I *1292:B1 I *D gf180mcu_fd_sc_mcu7t5v0__aoi22_1
*I *1290:ZN O *D gf180mcu_fd_sc_mcu7t5v0__nor4_1
*CAP
1 *1292:B1 0.000577278
2 *1290:ZN 0.000577278
3 *1292:B1 *1369:A2 3.73774e-06
4 *1292:B1 *1481:I 0.000637967
5 *1292:B1 *1509:CLK 8.38421e-05
6 *1292:B1 *1597:I 0
7 *1292:B1 *1637:I 9.30128e-05
8 *1292:B1 *385:10 2.86254e-05
9 *1292:A1 *1292:B1 3.22122e-05
10 *1527:RN *1292:B1 0.000348355
*RES
1 *1290:ZN *1292:B1 14.94 
*END

*D_NET *199 0.000526288
*CONN
*I *1292:B2 I *D gf180mcu_fd_sc_mcu7t5v0__aoi22_1
*I *1291:ZN O *D gf180mcu_fd_sc_mcu7t5v0__nor4_1
*CAP
1 *1292:B2 8.62511e-05
2 *1291:ZN 8.62511e-05
3 *1292:B2 *1481:I 1.36713e-05
4 *1292:A2 *1292:B2 1.34588e-05
5 *1527:RN *1292:B2 0.000294421
6 *1530:RN *1292:B2 3.22348e-05
*RES
1 *1291:ZN *1292:B2 9.99 
*END

*D_NET *200 0.00457935
*CONN
*I *1607:I I *D gf180mcu_fd_sc_mcu7t5v0__dlyb_1
*I *1292:ZN O *D gf180mcu_fd_sc_mcu7t5v0__aoi22_1
*CAP
1 *1607:I 0.000735964
2 *1292:ZN 0.000735964
3 *1607:I *1433:A2 0
4 *1607:I *1435:A1 0.000364888
5 *1607:I *1435:A4 1.20708e-05
6 *1607:I *1484:I 0
7 *1607:I *1598:I 0
8 *1607:I *1603:I 0
9 *1607:I *287:27 7.96581e-05
10 *1607:I *313:10 0.000717767
11 *1607:I *317:13 0
12 *1276:A2 *1607:I 0
13 *1282:B2 *1607:I 0
14 *1286:A1 *1607:I 0.000165108
15 *1287:B *1607:I 0.000682113
16 *1292:A1 *1607:I 0.000217587
17 *1292:A2 *1607:I 0.000716461
18 *1512:D *1607:I 0.000121351
19 *1527:RN *1607:I 1.17934e-05
20 *148:25 *1607:I 1.86195e-05
21 *190:14 *1607:I 0
*RES
1 *1292:ZN *1607:I 27.36 
*END

*D_NET *201 0.0125428
*CONN
*I *1622:I I *D gf180mcu_fd_sc_mcu7t5v0__dlyb_1
*I *1621:I I *D gf180mcu_fd_sc_mcu7t5v0__dlyb_1
*I *1293:Z O *D gf180mcu_fd_sc_mcu7t5v0__and2_1
*CAP
1 *1622:I 0
2 *1621:I 0.00132521
3 *1293:Z 0.000781806
4 *201:14 0.00210701
5 *1621:I *1282:A2 9.84908e-05
6 *1621:I *1299:A1 9.98816e-05
7 *1621:I *1442:A2 2.88872e-05
8 *1621:I *1515:CLK 0.000496776
9 *1621:I *1551:CLK 0.00023506
10 *1621:I *1608:I 0
11 *1621:I *1640:I 0.00223635
12 *1621:I *287:27 0.000444513
13 *1621:I *299:35 0
14 *1621:I *308:6 9.85004e-05
15 *1621:I *308:26 0.000424357
16 *1621:I *308:35 0.00193418
17 *1621:I *381:27 0
18 *1621:I *416:20 2.65444e-06
19 *201:14 *1248:I 1.19491e-05
20 *201:14 *1257:I 0
21 *201:14 *1295:A3 0.000360666
22 *201:14 *1301:A2 9.89629e-06
23 *201:14 *1302:A3 0.000147571
24 *201:14 *1395:A1 3.21686e-05
25 *201:14 *1566:CLK 9.65676e-05
26 *201:14 *1577:I 6.43681e-05
27 *201:14 *294:171 1.98195e-05
28 *201:14 *299:35 0
29 *201:14 *415:29 0.000155308
30 *201:14 *420:30 0
31 *1273:A2 *1621:I 0.000167395
32 *1282:A1 *1621:I 4.78286e-05
33 *1282:B2 *1621:I 0
34 *1514:D *1621:I 0
35 *1551:D *1621:I 0.000113947
36 *1551:D *201:14 0.000204404
37 *1552:RN *1621:I 6.57682e-05
38 *1572:I *201:14 3.46409e-05
39 *137:14 *201:14 0.000684008
40 *189:10 *1621:I 0
41 *190:14 *1621:I 1.27836e-05
*RES
1 *1293:Z *201:14 21.15 
2 *201:14 *1621:I 20.97 
3 *201:14 *1622:I 4.5 
*END

*D_NET *202 0.00344693
*CONN
*I *1299:A2 I *D gf180mcu_fd_sc_mcu7t5v0__xor2_1
*I *1294:ZN O *D gf180mcu_fd_sc_mcu7t5v0__nand2_1
*CAP
1 *1299:A2 0.000510165
2 *1294:ZN 0.000510165
3 *1299:A2 *1300:A1 0.000458327
4 *1299:A2 *1300:A3 0.00147355
5 *1299:A2 *299:35 0
6 *1299:A2 *299:48 0
7 *1299:A2 *316:25 1.39839e-05
8 *1299:A2 *316:42 0.000439429
9 *1299:A2 *318:6 2.1573e-06
10 *1299:A2 *318:19 3.91546e-05
*RES
1 *1294:ZN *1299:A2 24.3 
*END

*D_NET *203 0.0059919
*CONN
*I *1296:A2 I *D gf180mcu_fd_sc_mcu7t5v0__nor2_1
*I *1297:A2 I *D gf180mcu_fd_sc_mcu7t5v0__and2_1
*I *1391:A3 I *D gf180mcu_fd_sc_mcu7t5v0__nor3_1
*I *1295:ZN O *D gf180mcu_fd_sc_mcu7t5v0__nand4_1
*CAP
1 *1296:A2 0.000278965
2 *1297:A2 0.000100529
3 *1391:A3 0.000381216
4 *1295:ZN 0.000297099
5 *203:26 0.000463611
6 *1296:A2 *1298:A2 3.87145e-05
7 *1296:A2 *1298:A3 7.82251e-05
8 *1296:A2 *1444:I1 0
9 *1296:A2 *204:10 7.41762e-05
10 *1296:A2 *316:57 5.78854e-06
11 *1296:A2 *418:12 4.64138e-05
12 *1297:A2 *1298:A4 6.4245e-05
13 *1297:A2 *316:57 5.78854e-06
14 *1297:A2 *418:12 1.84476e-05
15 *1391:A3 *1228:I 0.000723459
16 *1391:A3 *1579:I 0
17 *1391:A3 *261:8 3.24315e-05
18 *1391:A3 *421:37 0.000978502
19 *203:26 *1298:A2 1.97308e-05
20 *203:26 *1298:A3 0.000101624
21 *203:26 *1447:I 8.91539e-05
22 *203:26 *319:29 0.000587403
23 *1297:A1 *1297:A2 0.000496766
24 *1391:A1 *203:26 0.000582585
25 *1553:D *1297:A2 0.000365454
26 *1572:I *1391:A3 5.06031e-06
27 *136:19 *203:26 0.00015651
*RES
1 *1295:ZN *1391:A3 13.05 
2 *1391:A3 *203:26 15.93 
3 *203:26 *1297:A2 6.39 
4 *203:26 *1296:A2 15.66 
*END

*D_NET *204 0.00141462
*CONN
*I *1298:A3 I *D gf180mcu_fd_sc_mcu7t5v0__nor4_1
*I *1403:A2 I *D gf180mcu_fd_sc_mcu7t5v0__nor2_1
*I *1296:ZN O *D gf180mcu_fd_sc_mcu7t5v0__nor2_1
*CAP
1 *1298:A3 7.45393e-05
2 *1403:A2 3.47467e-05
3 *1296:ZN 7.24248e-05
4 *204:10 0.000181711
5 *1403:A2 *418:12 0.000215362
6 *204:10 *418:12 1.19491e-05
7 *1296:A1 *204:10 0.000456595
8 *1296:A2 *1298:A3 7.82251e-05
9 *1296:A2 *204:10 7.41762e-05
10 *136:19 *1298:A3 9.61377e-05
11 *136:19 *204:10 1.71254e-05
12 *203:26 *1298:A3 0.000101624
*RES
1 *1296:ZN *204:10 10.62 
2 *204:10 *1403:A2 9.63 
3 *204:10 *1298:A3 9.99 
*END

*D_NET *205 0.000630154
*CONN
*I *1298:A4 I *D gf180mcu_fd_sc_mcu7t5v0__nor4_1
*I *1297:Z O *D gf180mcu_fd_sc_mcu7t5v0__and2_1
*CAP
1 *1298:A4 9.7227e-05
2 *1297:Z 9.7227e-05
3 *1298:A4 *418:12 0.000140012
4 *1297:A2 *1298:A4 6.4245e-05
5 *1553:D *1298:A4 0.000231442
*RES
1 *1297:Z *1298:A4 10.26 
*END

*D_NET *206 0.00202091
*CONN
*I *1300:A3 I *D gf180mcu_fd_sc_mcu7t5v0__nor3_1
*I *1299:Z O *D gf180mcu_fd_sc_mcu7t5v0__xor2_1
*CAP
1 *1300:A3 0.000256557
2 *1299:Z 0.000256557
3 *1300:A3 *1300:A1 3.42509e-05
4 *1299:A2 *1300:A3 0.00147355
*RES
1 *1299:Z *1300:A3 21.87 
*END

*D_NET *207 0.00214279
*CONN
*I *1302:A3 I *D gf180mcu_fd_sc_mcu7t5v0__nor3_1
*I *1301:Z O *D gf180mcu_fd_sc_mcu7t5v0__xor2_1
*CAP
1 *1302:A3 0.000548355
2 *1301:Z 0.000548355
3 *1302:A3 *1248:I 5.1876e-05
4 *1302:A3 *1265:A2 1.19491e-05
5 *1302:A3 *1301:A2 3.01487e-05
6 *1302:A3 *1395:A1 4.93833e-05
7 *1302:A3 *1396:A3 5.13763e-05
8 *1302:A3 *299:35 0.000703779
9 *1302:A3 *415:29 0
10 *1572:I *1302:A3 0
11 *201:14 *1302:A3 0.000147571
*RES
1 *1301:Z *1302:A3 22.86 
*END

*D_NET *208 0.00208232
*CONN
*I *1405:A2 I *D gf180mcu_fd_sc_mcu7t5v0__nand2_1
*I *1411:A1 I *D gf180mcu_fd_sc_mcu7t5v0__nor2_1
*I *1309:A1 I *D gf180mcu_fd_sc_mcu7t5v0__nand2_1
*I *1303:ZN O *D gf180mcu_fd_sc_mcu7t5v0__nor2_1
*CAP
1 *1405:A2 2.39342e-05
2 *1411:A1 5.25795e-05
3 *1309:A1 0.000178451
4 *1303:ZN 0.000107085
5 *208:10 0.000329865
6 *208:8 0.000229854
7 *1309:A1 *1253:I 0
8 *1309:A1 *1309:A2 2.21159e-05
9 *1309:A1 *1337:A2 9.98558e-05
10 *1309:A1 *233:24 2.00891e-05
11 *1405:A2 *1309:A2 9.51606e-05
12 *1405:A2 *1564:CLK 1.20058e-05
13 *1411:A1 *1309:A2 0.000379514
14 *1411:A1 *1337:A2 0.000298448
15 *1411:A1 *213:16 3.55118e-05
16 *1411:A1 *237:29 1.33946e-05
17 *208:8 *1405:A1 0.000122149
18 *208:8 *233:24 5.28553e-05
19 *208:10 *233:24 9.4473e-06
20 *208:10 *339:30 0
*RES
1 *1303:ZN *208:8 9.99 
2 *208:8 *208:10 0.45 
3 *208:10 *1309:A1 9.99 
4 *208:10 *1411:A1 10.17 
5 *208:8 *1405:A2 9.27 
*END

*D_NET *209 0.00599902
*CONN
*I *1340:A2 I *D gf180mcu_fd_sc_mcu7t5v0__nand2_1
*I *1412:A2 I *D gf180mcu_fd_sc_mcu7t5v0__and2_1
*I *1414:A1 I *D gf180mcu_fd_sc_mcu7t5v0__oai21_1
*I *1304:ZN O *D gf180mcu_fd_sc_mcu7t5v0__nor3_1
*CAP
1 *1340:A2 0.000101489
2 *1412:A2 0.000275108
3 *1414:A1 0
4 *1304:ZN 0.000767224
5 *209:16 0.000457078
6 *209:12 0.00105068
7 *1340:A2 *1645:I 0.00033694
8 *1340:A2 *408:21 0.000824027
9 *1412:A2 *1307:A2 3.55118e-05
10 *1412:A2 *1412:A1 0.000436469
11 *1412:A2 *1414:A2 1.07374e-05
12 *1412:A2 *1414:B 4.80371e-05
13 *1412:A2 *408:21 0
14 *209:12 *1415:A1 0.000239154
15 *209:12 *1419:A1 0.000162697
16 *209:12 *237:6 9.85004e-05
17 *209:12 *237:29 0.000663618
18 *209:12 *272:31 0
19 *209:12 *361:10 9.00209e-05
20 *209:16 *1415:A1 0.000205793
21 *209:16 *1419:A1 0.000146388
22 *1559:D *1412:A2 0
23 *1561:D *1412:A2 2.17167e-05
24 *1561:RN *209:12 2.78273e-05
*RES
1 *1304:ZN *209:12 15.21 
2 *209:12 *209:16 6.39 
3 *209:16 *1414:A1 4.5 
4 *209:16 *1412:A2 6.93 
5 *209:12 *1340:A2 11.25 
*END

*D_NET *210 0.0034361
*CONN
*I *1316:B I *D gf180mcu_fd_sc_mcu7t5v0__oai31_1
*I *1417:A1 I *D gf180mcu_fd_sc_mcu7t5v0__nor2_1
*I *1305:Z O *D gf180mcu_fd_sc_mcu7t5v0__or3_1
*CAP
1 *1316:B 0.000435482
2 *1417:A1 0.000301181
3 *1305:Z 6.0167e-05
4 *210:8 0.00079683
5 *1316:B *1251:I 5.92728e-05
6 *1316:B *1305:A3 4.843e-05
7 *1316:B *1453:I 0
8 *1316:B *405:39 0.00012341
9 *1417:A1 *1418:A2 9.20679e-05
10 *1417:A1 *1420:B1 8.01419e-05
11 *1417:A1 *1453:I 0
12 *1417:A1 *1563:CLK 0.00035741
13 *1417:A1 *272:31 0.000216368
14 *1417:A1 *297:25 6.3512e-05
15 *1417:A1 *297:29 2.29071e-05
16 *210:8 *233:18 2.38751e-06
17 *210:8 *412:21 0.000137908
18 *160:12 *1316:B 5.44009e-05
19 *160:12 *1417:A1 0.000426479
20 *160:12 *210:8 2.60524e-05
21 *160:16 *1417:A1 0.00013169
*RES
1 *1305:Z *210:8 9.45 
2 *210:8 *1417:A1 12.6 
3 *210:8 *1316:B 12.6 
*END

*D_NET *211 0.00333094
*CONN
*I *1310:A3 I *D gf180mcu_fd_sc_mcu7t5v0__and4_1
*I *1306:ZN O *D gf180mcu_fd_sc_mcu7t5v0__nor3_1
*CAP
1 *1310:A3 0.000355495
2 *1306:ZN 0.000355495
3 *1310:A3 *1251:I 0.000453188
4 *1310:A3 *1305:A3 0.000152792
5 *1310:A3 *1306:A3 8.49143e-05
6 *1310:A3 *1310:A1 0.000320843
7 *1310:A3 *1313:B 1.4382e-06
8 *1310:A3 *1575:I 0.000193098
9 *1310:A3 *1646:I 6.84043e-05
10 *1310:A3 *218:10 0.000247389
11 *1310:A3 *312:16 0.000300306
12 *1310:A3 *405:39 0.000138056
13 *1310:A3 *412:21 0.00033719
14 *1310:A3 *413:18 0.000286817
15 *1310:A2 *1310:A3 3.55118e-05
*RES
1 *1306:ZN *1310:A3 24.12 
*END

*D_NET *212 0.0078632
*CONN
*I *1409:A1 I *D gf180mcu_fd_sc_mcu7t5v0__oai22_1
*I *1333:A1 I *D gf180mcu_fd_sc_mcu7t5v0__aoi211_1
*I *1307:ZN O *D gf180mcu_fd_sc_mcu7t5v0__nor2_1
*CAP
1 *1409:A1 0.000679629
2 *1333:A1 0
3 *1307:ZN 0.000737939
4 *212:12 0.00141757
5 *1409:A1 *1333:A2 3.12451e-05
6 *1409:A1 *1333:B 1.33093e-05
7 *1409:A1 *1334:A1 9.04462e-05
8 *1409:A1 *1338:C 9.39061e-05
9 *1409:A1 *1408:B1 1.61174e-05
10 *1409:A1 *1626:I 2.14748e-05
11 *1409:A1 *272:31 0.000183662
12 *1409:A1 *312:16 2.89427e-06
13 *1409:A1 *339:30 0.00169406
14 *1409:A1 *339:32 0.000174506
15 *1409:A1 *373:10 0
16 *212:12 *1307:A2 1.07374e-05
17 *212:12 *1334:A1 0.000193341
18 *212:12 *1334:B 9.89629e-06
19 *212:12 *1414:A2 2.8591e-05
20 *212:12 *296:8 0.000236006
21 *212:12 *312:16 0.00183964
22 *212:12 *361:51 0
23 *212:12 *408:21 1.19491e-05
24 *1408:A1 *1409:A1 3.05679e-05
25 *1563:D *1409:A1 0.000345721
*RES
1 *1307:ZN *212:12 12.06 
2 *212:12 *1333:A1 4.5 
3 *212:12 *1409:A1 20.25 
*END

*D_NET *213 0.00794541
*CONN
*I *1309:A2 I *D gf180mcu_fd_sc_mcu7t5v0__nand2_1
*I *1317:A1 I *D gf180mcu_fd_sc_mcu7t5v0__nor2_1
*I *1315:A2 I *D gf180mcu_fd_sc_mcu7t5v0__nor3_1
*I *1310:A4 I *D gf180mcu_fd_sc_mcu7t5v0__and4_1
*I *1308:Z O *D gf180mcu_fd_sc_mcu7t5v0__or3_1
*CAP
1 *1309:A2 0.000198226
2 *1317:A1 0
3 *1315:A2 0.000197157
4 *1310:A4 0
5 *1308:Z 0.00049524
6 *213:33 0.000377332
7 *213:20 0.000598015
8 *213:16 0.00111131
9 *1309:A2 *1337:A2 1.58415e-05
10 *1309:A2 *1564:CLK 3.13756e-05
11 *1315:A2 *1315:A1 0.000307423
12 *1315:A2 *1317:A2 0.000234522
13 *1315:A2 *1328:A2 0.000143853
14 *1315:A2 *1646:I 0
15 *1315:A2 *1665:I 3.08806e-06
16 *1315:A2 *217:16 0.000215362
17 *1315:A2 *220:8 6.16286e-05
18 *213:16 *1564:CLK 2.51372e-05
19 *213:16 *237:29 0.000314476
20 *213:16 *361:22 8.24536e-05
21 *213:16 *409:8 0
22 *213:20 *1252:I 2.70694e-05
23 *213:20 *1418:A2 0.000676119
24 *213:20 *1420:B1 0.000873898
25 *213:20 *1453:I 0.000758709
26 *213:20 *233:18 0.000452648
27 *213:33 *1317:A2 5.5916e-05
28 *213:33 *1328:A2 7.20334e-05
29 *213:33 *1453:I 8.42806e-05
30 *1303:A1 *213:16 0
31 *1309:A1 *1309:A2 2.21159e-05
32 *1405:A2 *1309:A2 9.51606e-05
33 *1411:A1 *1309:A2 0.000379514
34 *1411:A1 *213:16 3.55118e-05
*RES
1 *1308:Z *213:16 16.74 
2 *213:16 *213:20 11.43 
3 *213:20 *1310:A4 9 
4 *213:20 *213:33 6.12 
5 *213:33 *1315:A2 16.2 
6 *213:33 *1317:A1 4.5 
7 *213:16 *1309:A2 6.48 
*END

*D_NET *214 0.00290764
*CONN
*I *1333:B I *D gf180mcu_fd_sc_mcu7t5v0__aoi211_1
*I *1334:A2 I *D gf180mcu_fd_sc_mcu7t5v0__aoi21_1
*I *1338:B I *D gf180mcu_fd_sc_mcu7t5v0__aoi211_1
*I *1309:ZN O *D gf180mcu_fd_sc_mcu7t5v0__nand2_1
*CAP
1 *1333:B 0.000221733
2 *1334:A2 0
3 *1338:B 0.000332539
4 *1309:ZN 0.000102265
5 *214:10 0.000399277
6 *214:8 0.000390736
7 *1333:B *1334:A1 2.16833e-05
8 *1333:B *1334:B 0.000107788
9 *1333:B *1659:I 3.92905e-06
10 *1333:B *361:51 0.000186406
11 *1338:B *1253:I 3.89414e-05
12 *1338:B *1338:C 8.54106e-06
13 *1338:B *1339:A2 0.000169515
14 *1338:B *1418:A2 0
15 *1338:B *233:24 1.11297e-05
16 *1338:B *296:38 2.8591e-05
17 *1338:B *409:21 0.000103075
18 *214:8 *1253:I 4.36384e-06
19 *214:8 *1337:A1 0.000374207
20 *214:8 *233:24 2.54668e-05
21 *214:10 *1253:I 2.73771e-05
22 *214:10 *1337:A1 0.000299714
23 *214:10 *233:24 3.70568e-05
24 *1409:A1 *1333:B 1.33093e-05
*RES
1 *1309:ZN *214:8 10.17 
2 *214:8 *214:10 1.17 
3 *214:10 *1338:B 11.52 
4 *214:10 *1334:A2 9 
5 *214:8 *1333:B 11.07 
*END

*D_NET *215 0.000482123
*CONN
*I *1316:A1 I *D gf180mcu_fd_sc_mcu7t5v0__oai31_1
*I *1310:Z O *D gf180mcu_fd_sc_mcu7t5v0__and4_1
*CAP
1 *1316:A1 0.000108775
2 *1310:Z 0.000108775
3 *1316:A1 *1317:A2 0.000141002
4 *1316:A1 *1453:I 3.01487e-05
5 *1316:A1 *1646:I 9.34219e-05
*RES
1 *1310:Z *1316:A1 10.26 
*END

*D_NET *216 0.00191253
*CONN
*I *1336:A1 I *D gf180mcu_fd_sc_mcu7t5v0__nor2_1
*I *1410:A3 I *D gf180mcu_fd_sc_mcu7t5v0__oai32_1
*I *1312:A3 I *D gf180mcu_fd_sc_mcu7t5v0__nor3_1
*I *1311:ZN O *D gf180mcu_fd_sc_mcu7t5v0__nand2_1
*CAP
1 *1336:A1 0
2 *1410:A3 0.000154517
3 *1312:A3 0.000263726
4 *1311:ZN 0.000172032
5 *216:24 0.000246211
6 *1312:A3 *1311:A1 3.0177e-06
7 *1312:A3 *1335:A1 3.60134e-05
8 *1312:A3 *1413:A1 0
9 *1312:A3 *1421:A2 0.000223407
10 *1312:A3 *1620:I 0.000223407
11 *1312:A3 *217:16 3.21916e-05
12 *216:24 *1336:A2 2.14748e-05
13 *216:24 *237:6 0.000140012
14 *1410:A2 *1410:A3 0.000148576
15 *1410:A2 *216:24 0.000204482
16 *159:6 *1410:A3 0
17 *159:6 *216:24 0
18 *159:12 *1312:A3 4.34597e-05
*RES
1 *1311:ZN *1312:A3 19.8 
2 *1312:A3 *216:24 5.85 
3 *216:24 *1410:A3 5.76 
4 *216:24 *1336:A1 4.5 
*END

*D_NET *217 0.00795405
*CONN
*I *1316:A2 I *D gf180mcu_fd_sc_mcu7t5v0__oai31_1
*I *1317:A2 I *D gf180mcu_fd_sc_mcu7t5v0__nor2_1
*I *1312:ZN O *D gf180mcu_fd_sc_mcu7t5v0__nor3_1
*CAP
1 *1316:A2 0
2 *1317:A2 0.000193337
3 *1312:ZN 0.00108227
4 *217:16 0.00127561
5 *1317:A2 *1315:A1 3.3721e-05
6 *1317:A2 *1328:A2 1.27919e-05
7 *1317:A2 *1453:I 0.000229831
8 *1317:A2 *1646:I 1.77471e-05
9 *217:16 *1311:A1 0
10 *217:16 *1314:A2 0.00130405
11 *217:16 *1335:A1 0.00023711
12 *217:16 *1406:A1 2.06277e-05
13 *217:16 *1406:A2 3.75875e-05
14 *217:16 *1421:A2 1.96673e-05
15 *217:16 *1444:I0 2.63343e-05
16 *217:16 *1562:CLK 0
17 *217:16 *1565:CLK 6.34901e-05
18 *217:16 *1620:I 0
19 *217:16 *1646:I 0
20 *217:16 *220:8 0.000388524
21 *217:16 *311:36 0.00035434
22 *217:16 *405:37 2.65678e-05
23 *1312:A3 *217:16 3.21916e-05
24 *1315:A2 *1317:A2 0.000234522
25 *1315:A2 *217:16 0.000215362
26 *1316:A1 *1317:A2 0.000141002
27 *1562:D *217:16 0.00195145
28 *213:33 *1317:A2 5.5916e-05
*RES
1 *1312:ZN *217:16 26.82 
2 *217:16 *1317:A2 16.02 
3 *217:16 *1316:A2 4.5 
*END

*D_NET *218 0.0046786
*CONN
*I *1315:A3 I *D gf180mcu_fd_sc_mcu7t5v0__nor3_1
*I *1314:A2 I *D gf180mcu_fd_sc_mcu7t5v0__nor2_1
*I *1313:ZN O *D gf180mcu_fd_sc_mcu7t5v0__oai31_1
*CAP
1 *1315:A3 7.59222e-05
2 *1314:A2 0.000142317
3 *1313:ZN 0.000224406
4 *218:10 0.000442645
5 *1314:A2 *1646:I 5.30888e-06
6 *1314:A2 *405:37 0.000513028
7 *1315:A3 *1315:A1 0.00012512
8 *1315:A3 *312:16 0.000268422
9 *218:10 *1313:A3 2.9119e-05
10 *218:10 *1313:B 6.81701e-05
11 *218:10 *1315:A1 5.79557e-05
12 *218:10 *1575:I 1.29004e-05
13 *218:10 *312:16 0.000927409
14 *218:10 *405:39 0.000234433
15 *1310:A3 *218:10 0.000247389
16 *217:16 *1314:A2 0.00130405
*RES
1 *1313:ZN *218:10 12.42 
2 *218:10 *1314:A2 12.51 
3 *218:10 *1315:A3 10.08 
*END

*D_NET *219 0.00689566
*CONN
*I *1406:A1 I *D gf180mcu_fd_sc_mcu7t5v0__and2_1
*I *1620:I I *D gf180mcu_fd_sc_mcu7t5v0__dlyb_1
*I *1314:ZN O *D gf180mcu_fd_sc_mcu7t5v0__nor2_1
*CAP
1 *1406:A1 0.000437783
2 *1620:I 0.000826147
3 *1314:ZN 0
4 *219:6 0.00126393
5 *1406:A1 *1311:A1 1.71254e-05
6 *1406:A1 *1406:A2 1.61174e-05
7 *1406:A1 *1444:I0 8.73645e-05
8 *1406:A1 *1562:CLK 0.000513277
9 *1406:A1 *311:36 3.34193e-05
10 *1406:A1 *405:10 0.00047497
11 *1620:I *1250:I 6.92926e-05
12 *1620:I *1311:A1 0.000781084
13 *1620:I *1421:A2 0.000152223
14 *1620:I *1569:CLK 0.000351999
15 *1620:I *1623:I 1.27919e-05
16 *1620:I *1624:I 0.000436469
17 *1620:I *1631:I 0.00028891
18 *1620:I *311:36 9.53269e-05
19 *1620:I *334:8 0
20 *1620:I *406:36 5.73875e-05
21 *1312:A3 *1620:I 0.000223407
22 *1410:B2 *1620:I 0.000169515
23 *1562:D *1406:A1 8.72603e-05
24 *1562:D *1620:I 0.00047923
25 *217:16 *1406:A1 2.06277e-05
26 *217:16 *1620:I 0
*RES
1 *1314:ZN *219:6 9 
2 *219:6 *1620:I 19.8 
3 *219:6 *1406:A1 14.22 
*END

*D_NET *220 0.00319136
*CONN
*I *1316:A3 I *D gf180mcu_fd_sc_mcu7t5v0__oai31_1
*I *1328:A2 I *D gf180mcu_fd_sc_mcu7t5v0__nor2_1
*I *1315:ZN O *D gf180mcu_fd_sc_mcu7t5v0__nor3_1
*CAP
1 *1316:A3 1.72449e-05
2 *1328:A2 0.000380491
3 *1315:ZN 0.000174694
4 *220:8 0.000572431
5 *1328:A2 *1319:B 6.76694e-05
6 *1328:A2 *1321:A1 0.000116074
7 *1328:A2 *1321:A2 5.30338e-05
8 *1328:A2 *1329:A1 1.60188e-05
9 *1328:A2 *1406:A2 3.61104e-05
10 *1328:A2 *1453:I 5.97457e-06
11 *1328:A2 *1548:CLK 0
12 *1328:A2 *1646:I 0
13 *1328:A2 *1665:I 4.83522e-05
14 *1328:A2 *222:10 0.000436469
15 *220:8 *1406:A2 0.000140232
16 *1315:A2 *1328:A2 0.000143853
17 *1315:A2 *220:8 6.16286e-05
18 *1317:A2 *1328:A2 1.27919e-05
19 *1323:A1 *1328:A2 0.000435073
20 *1563:RN *1328:A2 1.26644e-05
21 *213:33 *1328:A2 7.20334e-05
22 *217:16 *220:8 0.000388524
*RES
1 *1315:ZN *220:8 6.48 
2 *220:8 *1328:A2 9.27 
3 *220:8 *1316:A3 4.77 
*END

*D_NET *221 0.000752893
*CONN
*I *1665:I I *D gf180mcu_fd_sc_mcu7t5v0__clkbuf_1
*I *1316:ZN O *D gf180mcu_fd_sc_mcu7t5v0__oai31_1
*CAP
1 *1665:I 0.000277312
2 *1316:ZN 0.000277312
3 *1665:I *1315:A1 0
4 *1665:I *1320:A1 4.21513e-05
5 *1665:I *1322:B1 0
6 *1665:I *1406:A2 9.85004e-05
7 *1665:I *1548:CLK 6.17613e-06
8 *1665:I *312:16 0
9 *1315:A2 *1665:I 3.08806e-06
10 *1328:A2 *1665:I 4.83522e-05
*RES
1 *1316:ZN *1665:I 19.98 
*END

*D_NET *222 0.00397364
*CONN
*I *1319:A1 I *D gf180mcu_fd_sc_mcu7t5v0__aoi21_1
*I *1326:A2 I *D gf180mcu_fd_sc_mcu7t5v0__oai22_1
*I *1321:A1 I *D gf180mcu_fd_sc_mcu7t5v0__nand2_1
*I *1317:ZN O *D gf180mcu_fd_sc_mcu7t5v0__nor2_1
*CAP
1 *1319:A1 2.94174e-05
2 *1326:A2 0.000204756
3 *1321:A1 0.000153691
4 *1317:ZN 0.000218108
5 *222:23 0.000361776
6 *222:10 0.000499402
7 *1319:A1 *1318:A3 5.30888e-06
8 *1321:A1 *1321:A2 3.55118e-05
9 *1321:A1 *1322:B1 4.83522e-05
10 *1321:A1 *1548:CLK 8.58429e-05
11 *1321:A1 *321:6 0
12 *1326:A2 *1318:A3 0.0003808
13 *1326:A2 *1319:B 9.04462e-05
14 *1326:A2 *1326:A1 2.79072e-05
15 *1326:A2 *1548:CLK 0.000648347
16 *1326:A2 *321:17 9.9595e-05
17 *222:10 *1319:B 0.000101615
18 *222:10 *1329:A1 0
19 *222:10 *1453:I 5.50498e-05
20 *222:10 *1646:I 0
21 *222:10 *227:21 0
22 *222:23 *1319:B 0.000375166
23 *222:23 *1322:B1 0
24 *1328:A2 *1321:A1 0.000116074
25 *1328:A2 *222:10 0.000436469
*RES
1 *1317:ZN *222:10 11.16 
2 *222:10 *1321:A1 10.71 
3 *222:10 *222:23 5.67 
4 *222:23 *1326:A2 7.74 
5 *222:23 *1319:A1 4.77 
*END

*D_NET *223 0.00181944
*CONN
*I *1319:A2 I *D gf180mcu_fd_sc_mcu7t5v0__aoi21_1
*I *1320:A2 I *D gf180mcu_fd_sc_mcu7t5v0__nor2_1
*I *1318:ZN O *D gf180mcu_fd_sc_mcu7t5v0__nand3_1
*CAP
1 *1319:A2 0
2 *1320:A2 0.000115178
3 *1318:ZN 0.000127458
4 *223:6 0.000242636
5 *1320:A2 *1322:A2 1.19491e-05
6 *1320:A2 *1322:B1 0.000317701
7 *1320:A2 *224:8 0
8 *1320:A2 *300:8 0.000119192
9 *1320:A2 *321:6 3.01487e-05
10 *1320:A2 *321:17 0.000365454
11 *223:6 *1318:A2 0.000106536
12 *223:6 *1322:A2 2.37143e-05
13 *223:6 *1324:B 0
14 *223:6 *1325:A1 0
15 *223:6 *321:17 0.000359473
*RES
1 *1318:ZN *223:6 6.03 
2 *223:6 *1320:A2 15.3 
3 *223:6 *1319:A2 4.5 
*END

*D_NET *224 0.00143566
*CONN
*I *1325:A1 I *D gf180mcu_fd_sc_mcu7t5v0__nor2_1
*I *1322:A2 I *D gf180mcu_fd_sc_mcu7t5v0__oai22_1
*I *1319:ZN O *D gf180mcu_fd_sc_mcu7t5v0__aoi21_1
*CAP
1 *1325:A1 0.000183077
2 *1322:A2 0.000213045
3 *1319:ZN 0.000195603
4 *224:8 0.000591725
5 *1322:A2 *300:8 0.000112253
6 *1322:A2 *300:10 4.6613e-06
7 *1325:A1 *1318:A1 2.98938e-05
8 *1325:A1 *1502:I 0
9 *224:8 *1318:A1 6.97399e-05
10 *224:8 *1322:B1 0
11 *224:8 *1548:CLK 0
12 *224:8 *227:21 0
13 *224:8 *227:36 0
14 *1320:A2 *1322:A2 1.19491e-05
15 *1320:A2 *224:8 0
16 *223:6 *1322:A2 2.37143e-05
17 *223:6 *1325:A1 0
*RES
1 *1319:ZN *224:8 10.35 
2 *224:8 *1322:A2 10.71 
3 *224:8 *1325:A1 10.08 
*END

*D_NET *225 0.00218748
*CONN
*I *1321:A2 I *D gf180mcu_fd_sc_mcu7t5v0__nand2_1
*I *1406:A2 I *D gf180mcu_fd_sc_mcu7t5v0__and2_1
*I *1320:ZN O *D gf180mcu_fd_sc_mcu7t5v0__nor2_1
*CAP
1 *1321:A2 5.42713e-05
2 *1406:A2 0.000464376
3 *1320:ZN 0.000348456
4 *225:8 0.000867103
5 *1406:A2 *1229:I 0
6 *1406:A2 *1320:A1 0
7 *1406:A2 *1554:CLK 0
8 *1406:A2 *1562:CLK 7.55765e-06
9 *225:8 *1320:A1 2.86227e-05
10 *1321:A1 *1321:A2 3.55118e-05
11 *1328:A2 *1321:A2 5.30338e-05
12 *1328:A2 *1406:A2 3.61104e-05
13 *1406:A1 *1406:A2 1.61174e-05
14 *1665:I *1406:A2 9.85004e-05
15 *217:16 *1406:A2 3.75875e-05
16 *220:8 *1406:A2 0.000140232
*RES
1 *1320:ZN *225:8 6.3 
2 *225:8 *1406:A2 7.92 
3 *225:8 *1321:A2 5.13 
*END

*D_NET *226 0.00125184
*CONN
*I *1322:B1 I *D gf180mcu_fd_sc_mcu7t5v0__oai22_1
*I *1321:ZN O *D gf180mcu_fd_sc_mcu7t5v0__nand2_1
*CAP
1 *1322:B1 0.000122228
2 *1321:ZN 0.000122228
3 *1322:B1 *1548:CLK 0.00064133
4 *1320:A2 *1322:B1 0.000317701
5 *1321:A1 *1322:B1 4.83522e-05
6 *1665:I *1322:B1 0
7 *222:23 *1322:B1 0
8 *224:8 *1322:B1 0
*RES
1 *1321:ZN *1322:B1 20.16 
*END

*D_NET *227 0.00444568
*CONN
*I *1324:A2 I *D gf180mcu_fd_sc_mcu7t5v0__aoi21_1
*I *1327:A2 I *D gf180mcu_fd_sc_mcu7t5v0__aoi21_1
*I *1326:B1 I *D gf180mcu_fd_sc_mcu7t5v0__oai22_1
*I *1329:A1 I *D gf180mcu_fd_sc_mcu7t5v0__nor2_1
*I *1323:ZN O *D gf180mcu_fd_sc_mcu7t5v0__nor2_1
*CAP
1 *1324:A2 3.44897e-05
2 *1327:A2 0.000125153
3 *1326:B1 3.46693e-05
4 *1329:A1 0.000514729
5 *1323:ZN 3.51177e-05
6 *227:36 0.000298765
7 *227:21 0.000431682
8 *227:8 0.000807738
9 *1326:B1 *1318:A2 0.00022651
10 *1327:A2 *1325:A2 2.84698e-05
11 *1327:A2 *1326:B2 2.36813e-05
12 *1327:A2 *1327:A1 0.000151427
13 *1329:A1 *1318:A3 0
14 *1329:A1 *1328:A1 0
15 *1329:A1 *1329:A2 0.000400528
16 *1329:A1 *1501:I 0
17 *1329:A1 *1646:I 6.1299e-05
18 *1329:A1 *412:8 4.21513e-05
19 *227:8 *1548:CLK 7.003e-06
20 *227:8 *321:25 3.55118e-05
21 *227:21 *1318:A2 9.0531e-06
22 *227:21 *1318:A3 0.000180264
23 *227:21 *1328:A1 0
24 *227:21 *321:25 0.000277903
25 *227:21 *390:8 0
26 *227:36 *1318:A1 5.90118e-05
27 *227:36 *1318:A2 2.90901e-05
28 *227:36 *1325:A2 5.20027e-05
29 *227:36 *1326:B2 1.61174e-05
30 *227:36 *391:12 1.78022e-05
31 *1323:A1 *227:8 0.000164036
32 *1328:A2 *1329:A1 1.60188e-05
33 *1547:D *1329:A1 0.000365454
34 *222:10 *1329:A1 0
35 *222:10 *227:21 0
36 *224:8 *227:21 0
37 *224:8 *227:36 0
*RES
1 *1323:ZN *227:8 9.45 
2 *227:8 *1329:A1 13.86 
3 *227:8 *227:21 2.43 
4 *227:21 *1326:B1 9.63 
5 *227:21 *227:36 6.12 
6 *227:36 *1327:A2 5.67 
7 *227:36 *1324:A2 4.77 
*END

*D_NET *228 0.000589251
*CONN
*I *1325:A2 I *D gf180mcu_fd_sc_mcu7t5v0__nor2_1
*I *1324:ZN O *D gf180mcu_fd_sc_mcu7t5v0__aoi21_1
*CAP
1 *1325:A2 0.000174404
2 *1324:ZN 0.000174404
3 *1325:A2 *1318:A2 0
4 *1325:A2 *1324:B 0.00015997
5 *1325:A2 *1502:I 0
6 *1327:A2 *1325:A2 2.84698e-05
7 *227:36 *1325:A2 5.20027e-05
*RES
1 *1324:ZN *1325:A2 10.62 
*END

*D_NET *229 0.000414494
*CONN
*I *1327:B I *D gf180mcu_fd_sc_mcu7t5v0__aoi21_1
*I *1326:ZN O *D gf180mcu_fd_sc_mcu7t5v0__oai22_1
*CAP
1 *1327:B 0.000162889
2 *1326:ZN 0.000162889
3 *1327:B *1326:A1 0
4 *1327:B *1327:A1 5.50498e-05
5 *1327:B *1548:CLK 3.36658e-05
*RES
1 *1326:ZN *1327:B 10.35 
*END

*D_NET *230 0.00101078
*CONN
*I *1329:A2 I *D gf180mcu_fd_sc_mcu7t5v0__nor2_1
*I *1328:ZN O *D gf180mcu_fd_sc_mcu7t5v0__nor2_1
*CAP
1 *1329:A2 0.000189402
2 *1328:ZN 0.000189402
3 *1329:A2 *1318:A3 0
4 *1329:A2 *1328:A1 0.000231442
5 *1329:A2 *390:23 0
6 *1329:A1 *1329:A2 0.000400528
7 *1547:RN *1329:A2 0
*RES
1 *1328:ZN *1329:A2 11.43 
*END

*D_NET *231 0.00173335
*CONN
*I *1332:A1 I *D gf180mcu_fd_sc_mcu7t5v0__nand2_1
*I *1330:ZN O *D gf180mcu_fd_sc_mcu7t5v0__nor4_1
*CAP
1 *1332:A1 0.000169883
2 *1330:ZN 0.000169883
3 *1332:A1 *1332:A2 1.53213e-05
4 *1332:A1 *398:27 0.000300836
5 *1332:A1 *398:44 0.000524137
6 *144:25 *1332:A1 0.000252453
7 *144:41 *1332:A1 0.000300836
*RES
1 *1330:ZN *1332:A1 11.88 
*END

*D_NET *232 0.00165502
*CONN
*I *1332:A2 I *D gf180mcu_fd_sc_mcu7t5v0__nand2_1
*I *1331:ZN O *D gf180mcu_fd_sc_mcu7t5v0__nor4_1
*CAP
1 *1332:A2 0.000497288
2 *1331:ZN 0.000497288
3 *1332:A2 *1330:A4 0.000381965
4 *1332:A2 *1346:B 5.69319e-05
5 *1332:A2 *311:26 0
6 *1332:A2 *311:36 2.26729e-05
7 *1332:A2 *345:6 1.27919e-05
8 *1332:A2 *345:10 6.71977e-05
9 *1332:A2 *398:27 1.39088e-05
10 *1332:A2 *398:44 8.96599e-05
11 *1332:A1 *1332:A2 1.53213e-05
12 *144:25 *1332:A2 0
*RES
1 *1331:ZN *1332:A2 13.23 
*END

*D_NET *233 0.0162943
*CONN
*I *1417:A2 I *D gf180mcu_fd_sc_mcu7t5v0__nor2_1
*I *1333:A2 I *D gf180mcu_fd_sc_mcu7t5v0__aoi211_1
*I *1338:A2 I *D gf180mcu_fd_sc_mcu7t5v0__aoi211_1
*I *1332:ZN O *D gf180mcu_fd_sc_mcu7t5v0__nand2_1
*CAP
1 *1417:A2 0
2 *1333:A2 0.000130546
3 *1338:A2 0
4 *1332:ZN 0.0024955
5 *233:24 0.000619381
6 *233:18 0.00298434
7 *1333:A2 *1338:C 0.000229402
8 *1333:A2 *1546:CLK 1.20833e-05
9 *1333:A2 *1664:I 0.000128649
10 *1333:A2 *312:16 0.000181989
11 *233:18 *1252:I 0.000127744
12 *233:18 *1303:A2 9.58064e-05
13 *233:18 *1305:A3 6.02974e-05
14 *233:18 *1310:A1 0.000104879
15 *233:18 *1313:A1 6.34901e-05
16 *233:18 *1313:A2 4.03175e-06
17 *233:18 *1313:A3 0
18 *233:18 *1313:B 0.000465829
19 *233:18 *1349:A2 2.09122e-05
20 *233:18 *1418:A2 6.42055e-05
21 *233:18 *1518:CLK 0.000443252
22 *233:18 *1520:CLK 8.47108e-05
23 *233:18 *1547:CLK 0.00069913
24 *233:18 *1623:I 1.17002e-05
25 *233:18 *294:131 2.17208e-05
26 *233:18 *310:22 0.000476461
27 *233:18 *311:36 0.000337168
28 *233:18 *323:6 0.000207912
29 *233:18 *323:12 0.000133936
30 *233:18 *346:12 6.44986e-05
31 *233:18 *411:19 6.22527e-05
32 *233:18 *412:21 7.35175e-05
33 *233:18 *412:23 1.77397e-05
34 *233:24 *1303:A2 8.43025e-06
35 *233:24 *1418:A2 0.00196883
36 *233:24 *1664:I 0.00076373
37 *233:24 *312:16 0.000755695
38 *233:24 *340:17 1.16291e-05
39 *1309:A1 *233:24 2.00891e-05
40 *1310:A2 *233:18 2.40587e-06
41 *1338:B *233:24 1.11297e-05
42 *1409:A1 *1333:A2 3.12451e-05
43 *1520:D *233:18 0.000223398
44 *1562:RN *233:18 0.00143792
45 *144:25 *233:18 3.08083e-05
46 *160:12 *233:18 2.60524e-05
47 *208:8 *233:24 5.28553e-05
48 *208:10 *233:24 9.4473e-06
49 *210:8 *233:18 2.38751e-06
50 *213:20 *233:18 0.000452648
51 *214:8 *233:24 2.54668e-05
52 *214:10 *233:24 3.70568e-05
*RES
1 *1332:ZN *233:18 33.66 
2 *233:18 *233:24 11.88 
3 *233:24 *1338:A2 4.5 
4 *233:24 *1333:A2 14.85 
5 *233:18 *1417:A2 9 
*END

*D_NET *234 0.000554802
*CONN
*I *1334:B I *D gf180mcu_fd_sc_mcu7t5v0__aoi21_1
*I *1333:ZN O *D gf180mcu_fd_sc_mcu7t5v0__aoi211_1
*CAP
1 *1334:B 7.03149e-05
2 *1333:ZN 7.03149e-05
3 *1334:B *1334:A1 0.000283705
4 *1334:B *361:51 1.27836e-05
5 *1333:B *1334:B 0.000107788
6 *212:12 *1334:B 9.89629e-06
*RES
1 *1333:ZN *1334:B 9.99 
*END

*D_NET *235 0.00129208
*CONN
*I *1337:A1 I *D gf180mcu_fd_sc_mcu7t5v0__nor2_1
*I *1334:ZN O *D gf180mcu_fd_sc_mcu7t5v0__aoi21_1
*CAP
1 *1337:A1 0.000190541
2 *1334:ZN 0.000190541
3 *1337:A1 *1253:I 0.000116636
4 *1337:A1 *1337:A2 7.26067e-05
5 *1337:A1 *361:51 4.78286e-05
6 *214:8 *1337:A1 0.000374207
7 *214:10 *1337:A1 0.000299714
*RES
1 *1334:ZN *1337:A1 20.34 
*END

*D_NET *236 0.00078533
*CONN
*I *1336:A2 I *D gf180mcu_fd_sc_mcu7t5v0__nor2_1
*I *1335:Z O *D gf180mcu_fd_sc_mcu7t5v0__xor2_1
*CAP
1 *1336:A2 0.000214989
2 *1335:Z 0.000214989
3 *1336:A2 *237:6 0.000294421
4 *159:6 *1336:A2 3.94564e-05
5 *216:24 *1336:A2 2.14748e-05
*RES
1 *1335:Z *1336:A2 10.8 
*END

*D_NET *237 0.00630684
*CONN
*I *1337:A2 I *D gf180mcu_fd_sc_mcu7t5v0__nor2_1
*I *1411:A2 I *D gf180mcu_fd_sc_mcu7t5v0__nor2_1
*I *1407:A1 I *D gf180mcu_fd_sc_mcu7t5v0__or2_1
*I *1336:ZN O *D gf180mcu_fd_sc_mcu7t5v0__nor2_1
*CAP
1 *1337:A2 0.000344043
2 *1411:A2 0
3 *1407:A1 0
4 *1336:ZN 0.000376549
5 *237:29 0.00122079
6 *237:6 0.0012533
7 *1337:A2 *270:10 0
8 *1337:A2 *361:51 4.33229e-05
9 *237:6 *1410:B1 0
10 *237:6 *1413:A2 0.00015997
11 *237:29 *1308:A3 3.96404e-05
12 *237:29 *1410:B1 2.40587e-06
13 *237:29 *1413:A2 8.05869e-05
14 *237:29 *1420:B2 9.12897e-05
15 *237:29 *272:31 1.31384e-05
16 *237:29 *312:16 8.54906e-05
17 *237:29 *361:10 4.78318e-05
18 *237:29 *361:22 9.62865e-05
19 *237:29 *361:37 5.78854e-06
20 *237:29 *361:51 1.56942e-05
21 *1309:A1 *1337:A2 9.98558e-05
22 *1309:A2 *1337:A2 1.58415e-05
23 *1336:A2 *237:6 0.000294421
24 *1337:A1 *1337:A2 7.26067e-05
25 *1411:A1 *1337:A2 0.000298448
26 *1411:A1 *237:29 1.33946e-05
27 *1560:RN *237:29 0.000209048
28 *1561:RN *237:6 0
29 *1561:RN *237:29 0.000209048
30 *159:6 *237:6 1.4382e-06
31 *209:12 *237:6 9.85004e-05
32 *209:12 *237:29 0.000663618
33 *213:16 *237:29 0.000314476
34 *216:24 *237:6 0.000140012
*RES
1 *1336:ZN *237:6 7.83 
2 *237:6 *1407:A1 4.5 
3 *237:6 *237:29 17.01 
4 *237:29 *1411:A2 4.5 
5 *237:29 *1337:A2 7.74 
*END

*D_NET *238 0.00141871
*CONN
*I *1339:A2 I *D gf180mcu_fd_sc_mcu7t5v0__nor2_1
*I *1338:ZN O *D gf180mcu_fd_sc_mcu7t5v0__aoi211_1
*CAP
1 *1339:A2 0.000245218
2 *1338:ZN 0.000245218
3 *1339:A2 *1231:I 4.74921e-05
4 *1339:A2 *1664:I 0.000199882
5 *1339:A2 *296:38 2.32821e-05
6 *1339:A2 *409:21 0.000106536
7 *1338:B *1339:A2 0.000169515
8 *1339:A1 *1339:A2 1.61174e-05
9 *1545:D *1339:A2 0.000365454
*RES
1 *1338:ZN *1339:A2 12.15 
*END

*D_NET *239 0.0115325
*CONN
*I *1421:A1 I *D gf180mcu_fd_sc_mcu7t5v0__nand2_1
*I *1343:A2 I *D gf180mcu_fd_sc_mcu7t5v0__nor2_1
*I *1341:A2 I *D gf180mcu_fd_sc_mcu7t5v0__nor2_1
*I *1342:A2 I *D gf180mcu_fd_sc_mcu7t5v0__aoi21_1
*I *1344:A2 I *D gf180mcu_fd_sc_mcu7t5v0__aoi21_1
*I *1340:ZN O *D gf180mcu_fd_sc_mcu7t5v0__nand2_1
*CAP
1 *1421:A1 0
2 *1343:A2 0.000416589
3 *1341:A2 0
4 *1342:A2 0.000445782
5 *1344:A2 6.6783e-05
6 *1340:ZN 0.000323058
7 *239:33 0.00123059
8 *239:27 0.0012014
9 *239:16 0.000999807
10 *239:12 0.00125608
11 *1342:A2 *1342:B 0.000427983
12 *1342:A2 *1571:D 2.65444e-06
13 *1342:A2 *303:6 1.79237e-05
14 *1342:A2 *349:43 0
15 *1343:A2 *1458:I 2.422e-05
16 *1344:A2 *1568:CLK 3.97987e-05
17 *239:12 *1355:I1 4.82122e-05
18 *239:12 *1421:A2 0
19 *239:12 *1645:I 9.69726e-05
20 *239:12 *408:12 9.55009e-05
21 *239:16 *1355:I0 0
22 *239:16 *1355:I1 0.000403192
23 *239:16 *1559:CLK 0
24 *239:16 *1568:CLK 0.000173247
25 *239:16 *1570:D 0.000567809
26 *239:16 *1570:CLK 0
27 *239:16 *360:8 0
28 *239:33 *1458:I 0.000216735
29 *239:33 *1568:CLK 8.58429e-05
30 *239:33 *303:6 5.3819e-05
31 *239:33 *303:13 0.000137511
32 *1344:A1 *1343:A2 0.00160993
33 *1544:D *1342:A2 0.000162554
34 *1568:D *239:12 0.000412825
35 *1568:D *239:16 0.00100751
36 *1568:RN *1343:A2 0
37 *1568:RN *239:16 8.12023e-06
38 *1568:RN *239:33 0
*RES
1 *1340:ZN *239:12 16.92 
2 *239:12 *239:16 9.9 
3 *239:16 *1344:A2 5.04 
4 *239:16 *239:27 4.5 
5 *239:27 *239:33 10.62 
6 *239:33 *1342:A2 8.1 
7 *239:33 *1341:A2 4.5 
8 *239:27 *1343:A2 13.59 
9 *239:12 *1421:A1 4.5 
*END

*D_NET *240 0.00086522
*CONN
*I *1342:B I *D gf180mcu_fd_sc_mcu7t5v0__aoi21_1
*I *1341:ZN O *D gf180mcu_fd_sc_mcu7t5v0__nor2_1
*CAP
1 *1342:B 0.000218618
2 *1341:ZN 0.000218618
3 *1342:B *1571:D 0
4 *1342:A2 *1342:B 0.000427983
*RES
1 *1341:ZN *1342:B 10.89 
*END

*D_NET *241 0.00325123
*CONN
*I *1344:B I *D gf180mcu_fd_sc_mcu7t5v0__aoi21_1
*I *1343:ZN O *D gf180mcu_fd_sc_mcu7t5v0__nor2_1
*CAP
1 *1344:B 7.29115e-05
2 *1343:ZN 7.29115e-05
3 *1344:B *1458:I 0.000320262
4 *1344:B *1497:I 0.00124809
5 *1344:A1 *1344:B 0.00153705
*RES
1 *1343:ZN *1344:B 22.05 
*END

*D_NET *242 0.00273277
*CONN
*I *1346:B I *D gf180mcu_fd_sc_mcu7t5v0__oai21_1
*I *1345:ZN O *D gf180mcu_fd_sc_mcu7t5v0__nand2_1
*CAP
1 *1346:B 0.000263535
2 *1345:ZN 0.000263535
3 *1346:B *1330:A4 3.67317e-05
4 *1346:B *1345:A1 5.04049e-05
5 *1346:B *1385:A1 0.000421139
6 *1346:B *1623:I 0.000223401
7 *1346:B *345:10 0.000425752
8 *1346:B *345:35 0.000137914
9 *1346:B *398:27 0.000216245
10 *1332:A2 *1346:B 5.69319e-05
11 *1346:A1 *1346:B 2.1343e-05
12 *1542:D *1346:B 0.000615841
*RES
1 *1345:ZN *1346:B 22.05 
*END

*D_NET *243 0.000270746
*CONN
*I *1348:B I *D gf180mcu_fd_sc_mcu7t5v0__aoi21_1
*I *1347:ZN O *D gf180mcu_fd_sc_mcu7t5v0__nor2_1
*CAP
1 *1348:B 0.000135373
2 *1347:ZN 0.000135373
*RES
1 *1347:ZN *1348:B 9.81 
*END

*D_NET *244 0.00105688
*CONN
*I *1350:B I *D gf180mcu_fd_sc_mcu7t5v0__oai21_1
*I *1349:ZN O *D gf180mcu_fd_sc_mcu7t5v0__nand2_1
*CAP
1 *1350:B 2.09501e-05
2 *1349:ZN 2.09501e-05
3 *1350:B *1623:I 0.000507492
4 *1350:B *1630:I 0.000507492
*RES
1 *1349:ZN *1350:B 10.35 
*END

*D_NET *245 0.0161571
*CONN
*I *1357:S I *D gf180mcu_fd_sc_mcu7t5v0__mux2_2
*I *1358:S I *D gf180mcu_fd_sc_mcu7t5v0__mux2_2
*I *1359:S I *D gf180mcu_fd_sc_mcu7t5v0__mux2_2
*I *1356:ZN O *D gf180mcu_fd_sc_mcu7t5v0__nand3_1
*CAP
1 *1357:S 0.000164764
2 *1358:S 0.00112501
3 *1359:S 0.000468366
4 *1356:ZN 0.00173124
5 *245:24 0.00315985
6 *1357:S *1357:I0 0.000151427
7 *1357:S *1660:I 0
8 *1358:S *1290:A4 0.000696897
9 *1358:S *1358:I0 0.0010393
10 *1358:S *1359:I1 0
11 *1358:S *1374:A2 2.12956e-05
12 *1358:S *1491:I 0.000182072
13 *1358:S *305:20 1.42418e-05
14 *1358:S *347:43 0
15 *1358:S *348:33 0.000149398
16 *1358:S *355:10 0
17 *1358:S *382:8 0.000400625
18 *1359:S *1357:I0 4.96167e-05
19 *1359:S *1660:I 7.71476e-06
20 *1359:S *351:6 0
21 *245:24 *1331:A1 0.000167879
22 *245:24 *1346:A2 7.33918e-05
23 *245:24 *1347:A1 1.71254e-05
24 *245:24 *1347:A2 5.55466e-05
25 *245:24 *1348:A2 0.000113462
26 *245:24 *1352:I0 0.000472484
27 *245:24 *1352:S 0.00148497
28 *245:24 *1356:A1 0.000210882
29 *245:24 *1357:I0 5.18427e-06
30 *245:24 *1596:I 1.38253e-05
31 *245:24 *1623:I 0.00212729
32 *245:24 *1642:I 7.19076e-05
33 *245:24 *1652:I 0.000215037
34 *245:24 *332:16 3.8796e-05
35 *245:24 *342:8 0.000195939
36 *245:24 *351:6 0
37 *245:24 *397:27 4.18699e-05
38 *245:24 *397:39 5.67458e-05
39 *1278:B2 *1358:S 0.000220879
40 *1346:A1 *245:24 0.000195949
41 *1366:A1 *245:24 5.94337e-05
42 *1374:A1 *1358:S 3.42509e-05
43 *1376:A1 *1358:S 0
44 *1524:D *1358:S 0.000707069
45 *1525:D *1358:S 9.96337e-05
46 *1532:RN *1358:S 8.16511e-05
47 *1534:D *1357:S 1.79733e-05
48 *1534:D *1359:S 1.61174e-05
49 *144:41 *245:24 0
*RES
1 *1356:ZN *245:24 32.22 
2 *245:24 *1359:S 6.57 
3 *245:24 *1358:S 25.02 
4 *1359:S *1357:S 10.44 
*END

*D_NET *246 0.00225428
*CONN
*I *1617:I I *D gf180mcu_fd_sc_mcu7t5v0__dlyb_1
*I *1360:ZN O *D gf180mcu_fd_sc_mcu7t5v0__nand3_1
*CAP
1 *1617:I 0.00056617
2 *1360:ZN 0.00056617
3 *1617:I *1387:I1 0
4 *1617:I *1581:I 0.000729213
5 *1617:I *1635:I 0.000122782
6 *1617:I *328:47 7.55765e-06
7 *1617:I *332:16 0.000119182
8 *1541:RN *1617:I 0.000143202
*RES
1 *1360:ZN *1617:I 23.58 
*END

*D_NET *247 0.00117022
*CONN
*I *1362:B I *D gf180mcu_fd_sc_mcu7t5v0__oai21_1
*I *1361:ZN O *D gf180mcu_fd_sc_mcu7t5v0__nand2_1
*CAP
1 *1362:B 0.00016593
2 *1361:ZN 0.00016593
3 *1362:B *1385:A1 0.000251578
4 *1362:B *1519:CLK 4.8565e-05
5 *1362:B *294:65 0.000248939
6 *1542:RN *1362:B 0.000289278
*RES
1 *1361:ZN *1362:B 20.52 
*END

*D_NET *248 0.00265181
*CONN
*I *1364:B I *D gf180mcu_fd_sc_mcu7t5v0__aoi21_1
*I *1363:ZN O *D gf180mcu_fd_sc_mcu7t5v0__nor2_1
*CAP
1 *1364:B 0.000397871
2 *1363:ZN 0.000397871
3 *1364:B *1363:A2 0.000624778
4 *1364:B *1483:I 0.000226494
5 *1364:B *1616:I 0.000636033
6 *1364:B *294:9 6.76017e-05
7 *1364:B *329:16 1.86887e-06
8 *1364:B *386:10 2.75886e-05
9 *1529:SETN *1364:B 0.000201539
10 *1530:D *1364:B 7.01651e-05
*RES
1 *1363:ZN *1364:B 22.95 
*END

*D_NET *249 0.00409493
*CONN
*I *1366:B I *D gf180mcu_fd_sc_mcu7t5v0__oai21_1
*I *1365:ZN O *D gf180mcu_fd_sc_mcu7t5v0__nand2_1
*CAP
1 *1366:B 0.000177255
2 *1365:ZN 0.000177255
3 *1366:B *1387:I1 1.68677e-06
4 *1366:B *1530:CLK 0.000169524
5 *1366:B *1635:I 0.000549159
6 *1366:B *311:26 0.000815786
7 *1366:B *328:47 3.8796e-05
8 *1366:B *330:6 2.31089e-05
9 *1366:B *331:16 0.000823894
10 *1366:B *400:36 0.00131847
*RES
1 *1365:ZN *1366:B 24.21 
*END

*D_NET *250 0.00255318
*CONN
*I *1368:B I *D gf180mcu_fd_sc_mcu7t5v0__aoi21_1
*I *1367:ZN O *D gf180mcu_fd_sc_mcu7t5v0__nor2_1
*CAP
1 *1368:B 0.000388554
2 *1367:ZN 0.000388554
3 *1368:B *1368:A2 8.29487e-05
4 *1368:B *1490:I 0.000382875
5 *1368:B *1528:CLK 0.000433797
6 *1368:B *311:26 5.00642e-05
7 *1368:B *328:6 3.01487e-05
8 *1368:B *328:10 0.000170423
9 *1368:B *342:50 0
10 *1368:B *398:10 7.46112e-05
11 *1366:A1 *1368:B 0.000463466
12 *1528:D *1368:B 8.77402e-05
*RES
1 *1367:ZN *1368:B 23.04 
*END

*D_NET *251 0.00311297
*CONN
*I *1370:B I *D gf180mcu_fd_sc_mcu7t5v0__aoi21_1
*I *1369:ZN O *D gf180mcu_fd_sc_mcu7t5v0__nor2_1
*CAP
1 *1370:B 0.000447058
2 *1369:ZN 0.000447058
3 *1370:B *1369:A1 0.000134901
4 *1370:B *1387:I1 0.000365445
5 *1370:B *1573:I 0.000478149
6 *1370:B *1614:I 0.000422832
7 *1370:B *294:41 0.000283216
8 *1368:A1 *1370:B 0.000176903
9 *1370:A1 *1370:B 0.00035741
*RES
1 *1369:ZN *1370:B 25.56 
*END

*D_NET *252 0.00301772
*CONN
*I *1372:B I *D gf180mcu_fd_sc_mcu7t5v0__aoi21_1
*I *1371:ZN O *D gf180mcu_fd_sc_mcu7t5v0__nor2_1
*CAP
1 *1372:B 0.000353941
2 *1371:ZN 0.000353941
3 *1372:B *1371:A2 0.000937601
4 *1372:B *341:18 0.000262591
5 *1372:B *341:42 0.00104394
6 *1372:B *348:55 3.98088e-05
7 *1372:B *396:14 0
8 *1538:RN *1372:B 2.59007e-05
*RES
1 *1371:ZN *1372:B 24.3 
*END

*D_NET *253 0.00123291
*CONN
*I *1374:B I *D gf180mcu_fd_sc_mcu7t5v0__aoi21_1
*I *1373:ZN O *D gf180mcu_fd_sc_mcu7t5v0__nor2_1
*CAP
1 *1374:B 0.00016159
2 *1373:ZN 0.00016159
3 *1374:B *1373:A1 0.000561378
4 *1374:B *1373:A2 0.000169603
5 *1374:B *327:20 4.6613e-06
6 *1374:B *342:50 0.000174087
*RES
1 *1373:ZN *1374:B 11.07 
*END

*D_NET *254 0.00182537
*CONN
*I *1376:B I *D gf180mcu_fd_sc_mcu7t5v0__aoi21_1
*I *1375:ZN O *D gf180mcu_fd_sc_mcu7t5v0__nor2_1
*CAP
1 *1376:B 0.000100739
2 *1375:ZN 0.000100739
3 *1376:B *1375:A1 0.000294421
4 *1376:B *348:33 0.000303078
5 *1532:RN *1376:B 0.00102639
*RES
1 *1375:ZN *1376:B 11.79 
*END

*D_NET *255 0.00596246
*CONN
*I *1612:I I *D gf180mcu_fd_sc_mcu7t5v0__dlyb_1
*I *1377:Z O *D gf180mcu_fd_sc_mcu7t5v0__and3_1
*CAP
1 *1612:I 0.000986482
2 *1377:Z 0.000986482
3 *1612:I *1343:A1 0.000338657
4 *1612:I *1383:A2 0.00019159
5 *1612:I *1387:I1 0.000372755
6 *1612:I *1388:A1 0.0025164
7 *1612:I *1521:CLK 8.07136e-05
8 *1612:I *1618:I 0.000436478
9 *1612:I *1619:I 1.78052e-05
10 *1612:I *325:10 0
11 *1521:D *1612:I 3.50927e-05
*RES
1 *1377:Z *1612:I 29.97 
*END

*D_NET *256 0.000230848
*CONN
*I *1379:B I *D gf180mcu_fd_sc_mcu7t5v0__aoi21_1
*I *1378:ZN O *D gf180mcu_fd_sc_mcu7t5v0__nor2_1
*CAP
1 *1379:B 0.000115424
2 *1378:ZN 0.000115424
*RES
1 *1378:ZN *1379:B 9.81 
*END

*D_NET *257 0.00136285
*CONN
*I *1381:B I *D gf180mcu_fd_sc_mcu7t5v0__oai21_1
*I *1380:ZN O *D gf180mcu_fd_sc_mcu7t5v0__nand2_1
*CAP
1 *1381:B 0.00035427
2 *1380:ZN 0.00035427
3 *1381:B *1262:A1 0
4 *1381:B *1381:A2 0
5 *1381:B *1473:I 8.64138e-05
6 *1381:B *1474:I 0.000507502
7 *1381:B *325:19 0
8 *1386:A1 *1381:B 4.55978e-05
9 *1520:RN *1381:B 1.47998e-05
*RES
1 *1380:ZN *1381:B 21.24 
*END

*D_NET *258 0.000683514
*CONN
*I *1383:B I *D gf180mcu_fd_sc_mcu7t5v0__oai21_1
*I *1382:ZN O *D gf180mcu_fd_sc_mcu7t5v0__nand2_1
*CAP
1 *1383:B 3.73418e-05
2 *1382:ZN 3.73418e-05
3 *1383:B *1387:I1 7.65425e-05
4 *1383:B *1494:I 0.000362773
5 *1383:B *1619:I 0.000169515
*RES
1 *1382:ZN *1383:B 9.99 
*END

*D_NET *259 0.000926936
*CONN
*I *1386:B I *D gf180mcu_fd_sc_mcu7t5v0__oai21_1
*I *1385:ZN O *D gf180mcu_fd_sc_mcu7t5v0__nand2_1
*CAP
1 *1386:B 2.38327e-05
2 *1385:ZN 2.38327e-05
3 *1386:B *378:25 0.00027004
4 *1386:A1 *1386:B 0.000609231
*RES
1 *1385:ZN *1386:B 19.53 
*END

*D_NET *260 0.000938561
*CONN
*I *1389:B I *D gf180mcu_fd_sc_mcu7t5v0__oai21_1
*I *1388:ZN O *D gf180mcu_fd_sc_mcu7t5v0__nand2_1
*CAP
1 *1389:B 0.000235235
2 *1388:ZN 0.000235235
3 *1389:B *1261:A3 1.0415e-05
4 *1389:B *1388:A1 0.000348345
5 *1389:A1 *1389:B 0.00010933
*RES
1 *1388:ZN *1389:B 11.52 
*END

*D_NET *261 0.00380011
*CONN
*I *1401:A2 I *D gf180mcu_fd_sc_mcu7t5v0__xnor2_1
*I *1404:A3 I *D gf180mcu_fd_sc_mcu7t5v0__nor4_1
*I *1658:I I *D gf180mcu_fd_sc_mcu7t5v0__clkbuf_1
*I *1391:ZN O *D gf180mcu_fd_sc_mcu7t5v0__nor3_1
*CAP
1 *1401:A2 0.000233826
2 *1404:A3 2.956e-05
3 *1658:I 0
4 *1391:ZN 0.000275655
5 *261:19 0.00031187
6 *261:8 0.000324139
7 *1401:A2 *1249:I 0
8 *1401:A2 *1401:A1 3.01487e-05
9 *1401:A2 *1404:A1 3.01487e-05
10 *1401:A2 *1404:A2 1.0415e-05
11 *1401:A2 *1579:I 0.000108102
12 *1401:A2 *418:6 0
13 *1404:A3 *1444:I1 0.000244819
14 *1404:A3 *1650:I 0.00023711
15 *261:8 *1394:A4 0
16 *261:8 *1579:I 0.000330721
17 *261:19 *1402:A1 0.000290734
18 *261:19 *1444:I1 6.51736e-05
19 *261:19 *1446:I 6.22917e-05
20 *261:19 *1579:I 2.08301e-05
21 *261:19 *1650:I 0.000291047
22 *1295:A4 *261:8 0
23 *1391:A2 *261:8 0.000755695
24 *1391:A2 *261:19 9.04462e-05
25 *1391:A3 *261:8 3.24315e-05
26 *1554:D *1401:A2 2.49458e-05
*RES
1 *1391:ZN *261:8 7.74 
2 *261:8 *1658:I 4.5 
3 *261:8 *261:19 5.76 
4 *261:19 *1404:A3 9.63 
5 *261:19 *1401:A2 10.89 
*END

*D_NET *262 0.000881164
*CONN
*I *1399:A2 I *D gf180mcu_fd_sc_mcu7t5v0__xor2_1
*I *1392:ZN O *D gf180mcu_fd_sc_mcu7t5v0__nand2_1
*CAP
1 *1399:A2 0.000214758
2 *1392:ZN 0.000214758
3 *1399:A2 *1392:A2 6.56606e-05
4 *1399:A2 *1400:A3 0.000294421
5 *1399:A2 *1557:CLK 2.67007e-05
6 *1399:A2 *420:16 6.48661e-05
*RES
1 *1392:ZN *1399:A2 10.98 
*END

*D_NET *263 0.00052123
*CONN
*I *1397:A2 I *D gf180mcu_fd_sc_mcu7t5v0__xor2_1
*I *1393:ZN O *D gf180mcu_fd_sc_mcu7t5v0__nand3_1
*CAP
1 *1397:A2 0.00010567
2 *1393:ZN 0.00010567
3 *1397:A2 *1557:CLK 1.96635e-05
4 *1397:A2 *420:16 1.61174e-05
5 *1397:A2 *420:20 0.000183662
6 *1397:A2 *421:21 9.04462e-05
*RES
1 *1393:ZN *1397:A2 10.17 
*END

*D_NET *264 0.00045076
*CONN
*I *1395:A2 I *D gf180mcu_fd_sc_mcu7t5v0__xor2_1
*I *1394:ZN O *D gf180mcu_fd_sc_mcu7t5v0__nand4_1
*CAP
1 *1395:A2 0.000172342
2 *1394:ZN 0.000172342
3 *1395:A2 *1265:A2 4.34121e-06
4 *1395:A2 *1395:A1 3.22122e-05
5 *1395:A2 *316:57 0
6 *1395:A2 *420:30 6.95227e-05
*RES
1 *1394:ZN *1395:A2 10.17 
*END

*D_NET *265 0.0011742
*CONN
*I *1396:A3 I *D gf180mcu_fd_sc_mcu7t5v0__nor3_1
*I *1395:Z O *D gf180mcu_fd_sc_mcu7t5v0__xor2_1
*CAP
1 *1396:A3 0.000242626
2 *1395:Z 0.000242626
3 *1396:A3 *1395:A1 5.50498e-05
4 *1396:A3 *316:42 6.05946e-05
5 *1396:A3 *316:57 6.93035e-05
6 *1396:A3 *318:27 0.000382875
7 *1396:A3 *319:10 6.97472e-05
8 *1396:A3 *415:29 0
9 *1302:A3 *1396:A3 5.13763e-05
10 *1572:I *1396:A3 0
*RES
1 *1395:Z *1396:A3 20.7 
*END

*D_NET *266 0.000982045
*CONN
*I *1398:A3 I *D gf180mcu_fd_sc_mcu7t5v0__nor3_1
*I *1397:Z O *D gf180mcu_fd_sc_mcu7t5v0__xor2_1
*CAP
1 *1398:A3 0.00014283
2 *1397:Z 0.00014283
3 *1398:A3 *315:32 0.000103468
4 *1398:A3 *315:34 0
5 *1398:A3 *319:29 0.000473735
6 *1398:A3 *421:21 0.000119182
*RES
1 *1397:Z *1398:A3 19.98 
*END

*D_NET *267 0.00113769
*CONN
*I *1400:A3 I *D gf180mcu_fd_sc_mcu7t5v0__nor3_1
*I *1399:Z O *D gf180mcu_fd_sc_mcu7t5v0__xor2_1
*CAP
1 *1400:A3 0.000112158
2 *1399:Z 0.000112158
3 *1400:A3 *1446:I 0.000463466
4 *1400:A3 *1557:CLK 6.01893e-05
5 *1400:A3 *419:10 9.5299e-05
6 *1399:A2 *1400:A3 0.000294421
*RES
1 *1399:Z *1400:A3 19.98 
*END

*D_NET *268 0.00187935
*CONN
*I *1402:A3 I *D gf180mcu_fd_sc_mcu7t5v0__nor3_1
*I *1401:ZN O *D gf180mcu_fd_sc_mcu7t5v0__xnor2_1
*CAP
1 *1402:A3 0.000337822
2 *1401:ZN 0.000337822
3 *1402:A3 *1402:A1 0.000499457
4 *1402:A3 *1402:A2 0
5 *1402:A3 *1445:I 0.000538918
6 *1402:A3 *1579:I 6.84043e-05
7 *1555:D *1402:A3 9.6931e-05
*RES
1 *1401:ZN *1402:A3 21.78 
*END

*D_NET *269 0.000903626
*CONN
*I *1404:A4 I *D gf180mcu_fd_sc_mcu7t5v0__nor4_1
*I *1403:ZN O *D gf180mcu_fd_sc_mcu7t5v0__nor2_1
*CAP
1 *1404:A4 0.000136282
2 *1403:ZN 0.000136282
3 *1404:A4 *1249:I 2.98728e-05
4 *1404:A4 *1298:A2 7.55765e-06
5 *1404:A4 *1404:A2 2.99208e-05
6 *1404:A4 *316:57 2.38983e-05
7 *1404:A4 *418:6 0.000433797
8 *1404:A4 *418:12 6.44696e-05
9 *1554:D *1404:A4 4.15457e-05
*RES
1 *1403:ZN *1404:A4 10.98 
*END

*D_NET *270 0.00296531
*CONN
*I *1409:A2 I *D gf180mcu_fd_sc_mcu7t5v0__oai22_1
*I *1408:A2 I *D gf180mcu_fd_sc_mcu7t5v0__oai22_1
*I *1405:ZN O *D gf180mcu_fd_sc_mcu7t5v0__nand2_1
*CAP
1 *1409:A2 0.000263332
2 *1408:A2 0
3 *1405:ZN 0.000430157
4 *270:10 0.000693489
5 *1409:A2 *1626:I 0.000215362
6 *270:10 *1564:CLK 0.00115129
7 *1337:A2 *270:10 0
8 *1408:A1 *1409:A2 2.16372e-05
9 *1408:A1 *270:10 6.9417e-05
10 *1408:B2 *1409:A2 0.000120626
*RES
1 *1405:ZN *270:10 12.78 
2 *270:10 *1408:A2 9 
3 *270:10 *1409:A2 11.16 
*END

*D_NET *271 0.00535091
*CONN
*I *1420:A2 I *D gf180mcu_fd_sc_mcu7t5v0__aoi22_1
*I *1416:A2 I *D gf180mcu_fd_sc_mcu7t5v0__nand2_1
*I *1407:A2 I *D gf180mcu_fd_sc_mcu7t5v0__or2_1
*I *1413:A2 I *D gf180mcu_fd_sc_mcu7t5v0__nand2_1
*I *1406:Z O *D gf180mcu_fd_sc_mcu7t5v0__and2_1
*CAP
1 *1420:A2 0
2 *1416:A2 4.40644e-05
3 *1407:A2 0
4 *1413:A2 0.000111493
5 *1406:Z 0.000378198
6 *271:18 0.000293322
7 *271:12 0.000332746
8 *271:10 0.000485051
9 *1413:A2 *1410:B1 7.20166e-05
10 *1416:A2 *1421:A2 2.93836e-05
11 *1416:A2 *1569:CLK 0.000106536
12 *271:10 *1313:A3 0.000958711
13 *271:10 *1420:A1 0.000295094
14 *271:10 *1574:I 0.000684224
15 *271:10 *312:16 0.000260441
16 *271:12 *1420:A1 3.55118e-05
17 *271:12 *1421:A2 0.000365454
18 *271:12 *1569:CLK 0.000129286
19 *271:12 *272:31 2.84698e-05
20 *271:18 *1413:A1 3.7972e-05
21 *271:18 *1416:A1 1.09982e-05
22 *271:18 *1419:A1 0.000448058
23 *271:18 *1574:I 3.32231e-06
24 *237:6 *1413:A2 0.00015997
25 *237:29 *1413:A2 8.05869e-05
*RES
1 *1406:Z *271:10 19.35 
2 *271:10 *271:12 1.53 
3 *271:12 *271:18 10.53 
4 *271:18 *1413:A2 5.85 
5 *271:18 *1407:A2 4.5 
6 *271:12 *1416:A2 5.04 
7 *271:10 *1420:A2 4.5 
*END

*D_NET *272 0.00880939
*CONN
*I *1408:B1 I *D gf180mcu_fd_sc_mcu7t5v0__oai22_1
*I *1409:B1 I *D gf180mcu_fd_sc_mcu7t5v0__oai22_1
*I *1410:B1 I *D gf180mcu_fd_sc_mcu7t5v0__oai32_1
*I *1407:Z O *D gf180mcu_fd_sc_mcu7t5v0__or2_1
*CAP
1 *1408:B1 9.05944e-05
2 *1409:B1 0
3 *1410:B1 0.000340428
4 *1407:Z 2.87414e-05
5 *272:31 0.000950957
6 *272:6 0.00122953
7 *1408:B1 *1626:I 1.79237e-05
8 *1408:B1 *1663:I 2.18528e-05
9 *1410:B1 *1312:A1 9.85004e-05
10 *1410:B1 *1419:A1 6.06287e-05
11 *1410:B1 *1421:A2 0.00142137
12 *1410:B1 *406:45 0.000895051
13 *272:31 *1418:A2 9.20679e-05
14 *272:31 *1419:A1 1.0415e-05
15 *272:31 *1420:B1 0.000199469
16 *272:31 *1420:B2 0.000161479
17 *272:31 *1421:A2 6.46422e-05
18 *272:31 *1563:CLK 0.00095059
19 *272:31 *1663:I 7.51272e-05
20 *1303:A1 *272:31 0.000868851
21 *1408:A1 *1408:B1 0.000132459
22 *1408:A1 *272:31 1.0415e-05
23 *1408:B2 *1408:B1 0.000148576
24 *1409:A1 *1408:B1 1.61174e-05
25 *1409:A1 *272:31 0.000183662
26 *1409:B2 *272:31 9.55009e-05
27 *1410:B2 *1410:B1 3.22348e-05
28 *1413:A2 *1410:B1 7.20166e-05
29 *1417:A1 *272:31 0.000216368
30 *1562:D *1410:B1 0.000276921
31 *1563:D *272:31 2.89427e-06
32 *209:12 *272:31 0
33 *237:6 *1410:B1 0
34 *237:29 *1410:B1 2.40587e-06
35 *237:29 *272:31 1.31384e-05
36 *271:12 *272:31 2.84698e-05
*RES
1 *1407:Z *272:6 4.77 
2 *272:6 *1410:B1 10.35 
3 *272:6 *272:31 9.81 
4 *272:31 *1409:B1 4.5 
5 *272:31 *1408:B1 5.85 
*END

*D_NET *273 0.00911845
*CONN
*I *1420:B1 I *D gf180mcu_fd_sc_mcu7t5v0__aoi22_1
*I *1418:A1 I *D gf180mcu_fd_sc_mcu7t5v0__oai21_1
*I *1414:A2 I *D gf180mcu_fd_sc_mcu7t5v0__oai21_1
*I *1411:ZN O *D gf180mcu_fd_sc_mcu7t5v0__nor2_1
*CAP
1 *1420:B1 0.00035626
2 *1418:A1 0
3 *1414:A2 0.000325399
4 *1411:ZN 0
5 *273:12 0.000614889
6 *273:6 0.00064575
7 *1414:A2 *1307:A2 0.000100112
8 *1414:A2 *1414:B 1.68677e-06
9 *1414:A2 *1419:A1 0.000167545
10 *1414:A2 *1419:A2 0.00125447
11 *1414:A2 *1561:CLK 1.85811e-05
12 *1414:A2 *1664:I 0.000196518
13 *1414:A2 *312:16 1.19491e-05
14 *1414:A2 *409:14 8.69474e-05
15 *1420:B1 *1418:A2 8.84939e-05
16 *1420:B1 *1420:A1 0.000100105
17 *1420:B1 *1453:I 0.0010194
18 *1420:B1 *1563:CLK 0.000417707
19 *1420:B1 *1569:CLK 2.41288e-05
20 *1420:B1 *337:44 2.08301e-05
21 *1420:B1 *339:8 0.000795826
22 *273:12 *1418:A2 0.000611135
23 *273:12 *1453:I 0.000333052
24 *273:12 *296:14 0.000570706
25 *273:12 *296:38 4.34467e-06
26 *273:12 *409:8 5.92728e-05
27 *273:12 *409:14 8.43855e-05
28 *1412:A2 *1414:A2 1.07374e-05
29 *1417:A1 *1420:B1 8.01419e-05
30 *1561:D *1414:A2 1.61174e-05
31 *212:12 *1414:A2 2.8591e-05
32 *213:20 *1420:B1 0.000873898
33 *272:31 *1420:B1 0.000199469
*RES
1 *1411:ZN *273:6 9 
2 *273:6 *273:12 8.64 
3 *273:12 *1414:A2 9.63 
4 *273:12 *1418:A1 4.5 
5 *273:6 *1420:B1 15.57 
*END

*D_NET *274 0.00338726
*CONN
*I *1415:A1 I *D gf180mcu_fd_sc_mcu7t5v0__nand2_1
*I *1413:ZN O *D gf180mcu_fd_sc_mcu7t5v0__nand2_1
*CAP
1 *1415:A1 0.000490305
2 *1413:ZN 0.000490305
3 *1415:A1 *1412:A1 0.000302284
4 *1415:A1 *1415:A2 7.84385e-05
5 *1415:A1 *1419:A1 0
6 *1415:A1 *1561:CLK 9.55009e-05
7 *1415:A1 *410:8 0.000679484
8 *1415:A1 *410:10 0.00071904
9 *1561:D *1415:A1 8.69576e-05
10 *159:12 *1415:A1 0
11 *209:12 *1415:A1 0.000239154
12 *209:16 *1415:A1 0.000205793
*RES
1 *1413:ZN *1415:A1 24.48 
*END

*D_NET *275 0.000354619
*CONN
*I *1415:A2 I *D gf180mcu_fd_sc_mcu7t5v0__nand2_1
*I *1414:ZN O *D gf180mcu_fd_sc_mcu7t5v0__oai21_1
*CAP
1 *1415:A2 0.000102393
2 *1414:ZN 0.000102393
3 *1415:A2 *1419:A1 7.13936e-05
4 *1415:A1 *1415:A2 7.84385e-05
*RES
1 *1414:ZN *1415:A2 19.17 
*END

*D_NET *276 0.00360558
*CONN
*I *1419:A1 I *D gf180mcu_fd_sc_mcu7t5v0__nand2_1
*I *1416:ZN O *D gf180mcu_fd_sc_mcu7t5v0__nand2_1
*CAP
1 *1419:A1 0.000894949
2 *1416:ZN 0.000894949
3 *1419:A1 *1307:A1 8.32356e-05
4 *1419:A1 *1413:A1 0
5 *1419:A1 *1419:A2 3.55118e-05
6 *1419:A1 *1420:B2 0.000325747
7 *1419:A1 *1421:A2 0.000158788
8 *1419:A1 *1561:CLK 8.52804e-05
9 *1419:A1 *1574:I 2.76794e-05
10 *1419:A1 *408:32 3.23149e-05
11 *1410:B1 *1419:A1 6.06287e-05
12 *1414:A2 *1419:A1 0.000167545
13 *1415:A1 *1419:A1 0
14 *1415:A2 *1419:A1 7.13936e-05
15 *209:12 *1419:A1 0.000162697
16 *209:16 *1419:A1 0.000146388
17 *271:18 *1419:A1 0.000448058
18 *272:31 *1419:A1 1.0415e-05
*RES
1 *1416:ZN *1419:A1 26.73 
*END

*D_NET *277 0.00479678
*CONN
*I *1418:A2 I *D gf180mcu_fd_sc_mcu7t5v0__oai21_1
*I *1417:ZN O *D gf180mcu_fd_sc_mcu7t5v0__nor2_1
*CAP
1 *1418:A2 0.000566151
2 *1417:ZN 0.000566151
3 *1418:A2 *296:14 3.32109e-05
4 *1418:A2 *296:38 2.26729e-05
5 *1418:A2 *409:21 1.56779e-05
6 *1338:B *1418:A2 0
7 *1417:A1 *1418:A2 9.20679e-05
8 *1420:B1 *1418:A2 8.84939e-05
9 *213:20 *1418:A2 0.000676119
10 *233:18 *1418:A2 6.42055e-05
11 *233:24 *1418:A2 0.00196883
12 *272:31 *1418:A2 9.20679e-05
13 *273:12 *1418:A2 0.000611135
*RES
1 *1417:ZN *1418:A2 34.92 
*END

*D_NET *278 0.0019305
*CONN
*I *1419:A2 I *D gf180mcu_fd_sc_mcu7t5v0__nand2_1
*I *1418:ZN O *D gf180mcu_fd_sc_mcu7t5v0__oai21_1
*CAP
1 *1419:A2 0.000179508
2 *1418:ZN 0.000179508
3 *1419:A2 *1561:CLK 5.97457e-06
4 *1419:A2 *296:16 4.16859e-05
5 *1419:A2 *296:38 1.86887e-06
6 *1414:A2 *1419:A2 0.00125447
7 *1419:A1 *1419:A2 3.55118e-05
8 *1560:D *1419:A2 0.000231975
*RES
1 *1418:ZN *1419:A2 12.33 
*END

*D_NET *279 0.00601615
*CONN
*I *1421:A2 I *D gf180mcu_fd_sc_mcu7t5v0__nand2_1
*I *1420:ZN O *D gf180mcu_fd_sc_mcu7t5v0__aoi22_1
*CAP
1 *1421:A2 0.00115472
2 *1420:ZN 0.00115472
3 *1421:A2 *1250:I 0
4 *1421:A2 *1311:A1 0.000106536
5 *1421:A2 *1311:A2 7.01474e-05
6 *1421:A2 *1335:A1 0
7 *1421:A2 *1569:CLK 3.22122e-05
8 *1421:A2 *1624:I 5.14154e-05
9 *1421:A2 *408:12 0.000241004
10 *1312:A3 *1421:A2 0.000223407
11 *1410:B1 *1421:A2 0.00142137
12 *1416:A2 *1421:A2 2.93836e-05
13 *1419:A1 *1421:A2 0.000158788
14 *1559:D *1421:A2 9.98816e-05
15 *1562:D *1421:A2 0.000305141
16 *1567:SETN *1421:A2 0
17 *1568:D *1421:A2 0.000365445
18 *1620:I *1421:A2 0.000152223
19 *217:16 *1421:A2 1.96673e-05
20 *239:12 *1421:A2 0
21 *271:12 *1421:A2 0.000365454
22 *272:31 *1421:A2 6.46422e-05
*RES
1 *1420:ZN *1421:A2 30.51 
*END

*D_NET *280 0.00152507
*CONN
*I *1427:A2 I *D gf180mcu_fd_sc_mcu7t5v0__nand2_1
*I *1423:ZN O *D gf180mcu_fd_sc_mcu7t5v0__nand2_1
*CAP
1 *1427:A2 0.000362017
2 *1423:ZN 0.000362017
3 *1427:A2 *1481:I 0
4 *1280:A1 *1427:A2 6.26468e-05
5 *1287:A2 *1427:A2 8.05869e-05
6 *1427:A1 *1427:A2 1.86887e-06
7 *168:14 *1427:A2 0.000655936
*RES
1 *1423:ZN *1427:A2 12.06 
*END

*D_NET *281 0.00227888
*CONN
*I *1425:A3 I *D gf180mcu_fd_sc_mcu7t5v0__nor3_1
*I *1424:ZN O *D gf180mcu_fd_sc_mcu7t5v0__xnor2_1
*CAP
1 *1425:A3 0.000269221
2 *1424:ZN 0.000269221
3 *1425:A3 *1278:A2 9.04462e-05
4 *1425:A3 *1358:I1 0.000116914
5 *1425:A3 *1424:A1 8.99346e-05
6 *1425:A3 *1509:CLK 2.30182e-05
7 *1425:A3 *1641:I 0.000433797
8 *1425:A3 *383:14 0.000491085
9 *1425:A3 *426:29 0.000404627
10 *1533:D *1425:A3 9.06175e-05
*RES
1 *1424:ZN *1425:A3 21.78 
*END

*D_NET *282 0.00815185
*CONN
*I *1430:A2 I *D gf180mcu_fd_sc_mcu7t5v0__nor2_1
*I *1431:A2 I *D gf180mcu_fd_sc_mcu7t5v0__and2_1
*I *1428:A1 I *D gf180mcu_fd_sc_mcu7t5v0__nand2_1
*I *1426:ZN O *D gf180mcu_fd_sc_mcu7t5v0__nand3_1
*CAP
1 *1430:A2 0.000221985
2 *1431:A2 7.13697e-05
3 *1428:A1 7.17487e-05
4 *1426:ZN 0.000587194
5 *282:21 0.000344965
6 *282:8 0.000710553
7 *1428:A1 *1279:A2 0.000832265
8 *1428:A1 *1428:A2 0.000231443
9 *1430:A2 *1279:A2 0.000295931
10 *1430:A2 *313:27 0.000152113
11 *1431:A2 *306:6 0.000547579
12 *1431:A2 *306:30 0.000218459
13 *1431:A2 *313:27 0.000735889
14 *282:8 *1259:I 3.7082e-05
15 *282:8 *1426:A1 8.49143e-05
16 *282:8 *1510:CLK 4.34751e-05
17 *282:8 *306:6 3.15192e-05
18 *282:8 *335:20 9.39809e-05
19 *282:8 *426:12 2.14664e-05
20 *282:21 *1279:A2 0.000428239
21 *1274:B1 *1428:A1 2.14748e-05
22 *1280:A1 *282:8 3.49634e-05
23 *1280:B *1428:A1 0.00063558
24 *1280:C *282:8 0.000735889
25 *1430:A1 *1430:A2 7.07276e-05
26 *1431:A1 *282:8 4.47148e-05
27 *1511:D *1430:A2 0.000224296
28 *167:10 *1430:A2 8.03944e-05
29 *167:10 *282:21 2.48332e-05
30 *167:31 *1428:A1 0.000376971
31 *167:31 *282:21 0.000123828
32 *168:14 *282:8 1.60098e-05
*RES
1 *1426:ZN *282:8 13.77 
2 *282:8 *1428:A1 12.06 
3 *282:8 *282:21 1.17 
4 *282:21 *1431:A2 11.07 
5 *282:21 *1430:A2 11.79 
*END

*D_NET *283 0.00134972
*CONN
*I *1428:A2 I *D gf180mcu_fd_sc_mcu7t5v0__nand2_1
*I *1427:ZN O *D gf180mcu_fd_sc_mcu7t5v0__nand2_1
*CAP
1 *1428:A2 0.000207501
2 *1427:ZN 0.000207501
3 *1428:A2 *1429:A3 7.11519e-05
4 *1274:B1 *1428:A2 0.000588105
5 *1428:A1 *1428:A2 0.000231443
6 *167:31 *1428:A2 4.40163e-05
*RES
1 *1427:ZN *1428:A2 11.61 
*END

*D_NET *284 0.00417631
*CONN
*I *1429:A3 I *D gf180mcu_fd_sc_mcu7t5v0__nor3_1
*I *1428:ZN O *D gf180mcu_fd_sc_mcu7t5v0__nand2_1
*CAP
1 *1429:A3 0.000515181
2 *1428:ZN 0.000515181
3 *1429:A3 *1242:I 0.000281298
4 *1429:A3 *1638:I 0.00152942
5 *1280:A2 *1429:A3 0.000143583
6 *1287:A2 *1429:A3 0.000784795
7 *1428:A2 *1429:A3 7.11519e-05
8 *167:31 *1429:A3 0.000335707
*RES
1 *1428:ZN *1429:A3 24.75 
*END

*D_NET *285 0.00170964
*CONN
*I *1434:A2 I *D gf180mcu_fd_sc_mcu7t5v0__nor2_1
*I *1432:A3 I *D gf180mcu_fd_sc_mcu7t5v0__nor4_1
*I *1433:A2 I *D gf180mcu_fd_sc_mcu7t5v0__and2_1
*I *1430:ZN O *D gf180mcu_fd_sc_mcu7t5v0__nor2_1
*CAP
1 *1434:A2 3.44897e-05
2 *1432:A3 0.00031405
3 *1433:A2 0.000122517
4 *1430:ZN 0.00018
5 *285:22 0.000406023
6 *1432:A3 *1435:A4 3.22122e-05
7 *1432:A3 *287:10 0
8 *1432:A3 *313:27 0
9 *1433:A2 *1435:A1 0
10 *1433:A2 *1598:I 0.000101615
11 *1433:A2 *313:10 0
12 *1433:A2 *429:18 0.000181774
13 *1430:A1 *1432:A3 0.000336961
14 *1607:I *1433:A2 0
*RES
1 *1430:ZN *1433:A2 19.35 
2 *1430:ZN *285:22 4.95 
3 *285:22 *1432:A3 7.11 
4 *285:22 *1434:A2 4.77 
*END

*D_NET *286 0.000702373
*CONN
*I *1432:A4 I *D gf180mcu_fd_sc_mcu7t5v0__nor4_1
*I *1431:Z O *D gf180mcu_fd_sc_mcu7t5v0__and2_1
*CAP
1 *1432:A4 0.000253576
2 *1431:Z 0.000253576
3 *1432:A4 *1429:A2 1.11402e-05
4 *1432:A4 *1432:A2 0
5 *1432:A4 *313:27 0.000130381
6 *1430:A1 *1432:A4 2.16166e-05
7 *1510:D *1432:A4 3.20838e-05
*RES
1 *1431:Z *1432:A4 10.98 
*END

*D_NET *287 0.00806728
*CONN
*I *1439:A3 I *D gf180mcu_fd_sc_mcu7t5v0__nand3_1
*I *1436:A2 I *D gf180mcu_fd_sc_mcu7t5v0__nand2_1
*I *1437:A2 I *D gf180mcu_fd_sc_mcu7t5v0__xnor2_1
*I *1435:A3 I *D gf180mcu_fd_sc_mcu7t5v0__nor4_1
*I *1433:Z O *D gf180mcu_fd_sc_mcu7t5v0__and2_1
*CAP
1 *1439:A3 7.56458e-05
2 *1436:A2 1.75695e-05
3 *1437:A2 4.83091e-05
4 *1435:A3 0
5 *1433:Z 0.000282782
6 *287:33 0.000732098
7 *287:27 0.00110679
8 *287:10 0.000647708
9 *1436:A2 *1437:A1 0.0001981
10 *1436:A2 *1438:A2 2.8953e-05
11 *1436:A2 *1438:A3 0.000310002
12 *1437:A2 *1437:A1 0.000295732
13 *1437:A2 *1438:A3 0.000101615
14 *1437:A2 *1441:A1 0
15 *1437:A2 *336:17 9.90362e-06
16 *1439:A3 *1604:I 0.000283821
17 *1439:A3 *430:47 0.000747296
18 *287:10 *313:10 3.92905e-06
19 *287:10 *313:27 0.000436469
20 *287:10 *335:12 1.61174e-05
21 *287:10 *335:20 0.000112966
22 *287:27 *1604:I 0.000255088
23 *287:27 *313:10 2.26729e-05
24 *287:27 *335:12 0.000101505
25 *287:27 *430:47 0.000749856
26 *287:33 *1437:A1 5.79792e-06
27 *287:33 *1443:A2 0.00022992
28 *287:33 *1443:A3 0.000436478
29 *287:33 *1606:I 7.82122e-05
30 *287:33 *1640:I 0
31 *287:33 *336:17 4.2353e-05
32 *1432:A3 *287:10 0
33 *1512:D *287:10 0.000128714
34 *1515:D *287:33 2.08301e-05
35 *1607:I *287:27 7.96581e-05
36 *1621:I *287:27 0.000444513
37 *190:14 *287:27 1.58782e-05
*RES
1 *1433:Z *287:10 7.29 
2 *287:10 *1435:A3 4.5 
3 *287:10 *287:27 9.63 
4 *287:27 *287:33 13.95 
5 *287:33 *1437:A2 9.9 
6 *287:33 *1436:A2 9.81 
7 *287:27 *1439:A3 10.89 
*END

*D_NET *288 0.00153619
*CONN
*I *1435:A4 I *D gf180mcu_fd_sc_mcu7t5v0__nor4_1
*I *1434:ZN O *D gf180mcu_fd_sc_mcu7t5v0__nor2_1
*CAP
1 *1435:A4 0.000647158
2 *1434:ZN 0.000647158
3 *1435:A4 *1603:I 2.30981e-05
4 *1432:A3 *1435:A4 3.22122e-05
5 *1512:D *1435:A4 0.000174497
6 *1607:I *1435:A4 1.20708e-05
*RES
1 *1434:ZN *1435:A4 22.5 
*END

*D_NET *289 0.00150619
*CONN
*I *1440:A2 I *D gf180mcu_fd_sc_mcu7t5v0__xor2_1
*I *1436:ZN O *D gf180mcu_fd_sc_mcu7t5v0__nand2_1
*CAP
1 *1440:A2 0.000135259
2 *1436:ZN 0.000135259
3 *1440:A2 *316:25 0
4 *1440:A2 *336:6 0.000335494
5 *1440:A2 *336:17 6.54245e-05
6 *1440:A2 *431:25 0.000834753
*RES
1 *1436:ZN *1440:A2 11.7 
*END

*D_NET *290 0.00126022
*CONN
*I *1438:A3 I *D gf180mcu_fd_sc_mcu7t5v0__nor3_1
*I *1437:ZN O *D gf180mcu_fd_sc_mcu7t5v0__xnor2_1
*CAP
1 *1438:A3 0.000300677
2 *1437:ZN 0.000300677
3 *1438:A3 *1438:A2 0.000158373
4 *1438:A3 *1441:A1 6.81261e-05
5 *1438:A3 *316:8 1.47172e-05
6 *1438:A3 *430:8 6.0354e-06
7 *1436:A2 *1438:A3 0.000310002
8 *1437:A2 *1438:A3 0.000101615
*RES
1 *1437:ZN *1438:A3 20.97 
*END

*D_NET *291 0.00356247
*CONN
*I *1442:A2 I *D gf180mcu_fd_sc_mcu7t5v0__xor2_1
*I *1439:ZN O *D gf180mcu_fd_sc_mcu7t5v0__nand3_1
*CAP
1 *1442:A2 0.000306201
2 *1439:ZN 0.000306201
3 *1442:A2 *1281:A2 1.07374e-05
4 *1442:A2 *1284:B1 0.000320262
5 *1442:A2 *1515:CLK 7.55765e-06
6 *1442:A2 *1640:I 0.000455766
7 *1442:A2 *430:47 0.00172656
8 *1442:A2 *432:8 0.000338254
9 *1442:A2 *432:34 2.31089e-05
10 *1621:I *1442:A2 2.88872e-05
11 *189:10 *1442:A2 3.89314e-05
*RES
1 *1439:ZN *1442:A2 24.12 
*END

*D_NET *292 0.000918729
*CONN
*I *1441:A3 I *D gf180mcu_fd_sc_mcu7t5v0__nor3_1
*I *1440:Z O *D gf180mcu_fd_sc_mcu7t5v0__xor2_1
*CAP
1 *1441:A3 0.000227121
2 *1440:Z 0.000227121
3 *1441:A3 *1441:A2 3.5238e-06
4 *1441:A3 *336:6 0.000391023
5 *1514:D *1441:A3 6.99409e-05
*RES
1 *1440:Z *1441:A3 11.34 
*END

*D_NET *293 0.00217747
*CONN
*I *1443:A3 I *D gf180mcu_fd_sc_mcu7t5v0__nor3_1
*I *1442:Z O *D gf180mcu_fd_sc_mcu7t5v0__xor2_1
*CAP
1 *1443:A3 0.000261358
2 *1442:Z 0.000261358
3 *1443:A3 *1600:I 1.87555e-05
4 *1443:A3 *1606:I 4.29496e-05
5 *1443:A3 *354:53 0
6 *1443:A3 *432:8 0.000252906
7 *1515:D *1443:A3 0.000903661
8 *287:33 *1443:A3 0.000436478
*RES
1 *1442:Z *1443:A3 22.14 
*END

*D_NET *294 0.0426185
*CONN
*I *1578:I I *D gf180mcu_fd_sc_mcu7t5v0__clkbuf_8
*I *1586:I I *D gf180mcu_fd_sc_mcu7t5v0__clkbuf_8
*I *1579:I I *D gf180mcu_fd_sc_mcu7t5v0__clkbuf_8
*I *1577:I I *D gf180mcu_fd_sc_mcu7t5v0__clkbuf_8
*I *1576:I I *D gf180mcu_fd_sc_mcu7t5v0__clkbuf_8
*I *1575:I I *D gf180mcu_fd_sc_mcu7t5v0__clkbuf_8
*I *1574:I I *D gf180mcu_fd_sc_mcu7t5v0__clkbuf_8
*I *1588:I I *D gf180mcu_fd_sc_mcu7t5v0__clkbuf_8
*I *1587:I I *D gf180mcu_fd_sc_mcu7t5v0__clkbuf_8
*I *1585:I I *D gf180mcu_fd_sc_mcu7t5v0__clkbuf_8
*I *1582:I I *D gf180mcu_fd_sc_mcu7t5v0__clkbuf_8
*I *1581:I I *D gf180mcu_fd_sc_mcu7t5v0__clkbuf_8
*I *1580:I I *D gf180mcu_fd_sc_mcu7t5v0__clkbuf_8
*I *1573:I I *D gf180mcu_fd_sc_mcu7t5v0__clkbuf_8
*I *1584:I I *D gf180mcu_fd_sc_mcu7t5v0__clkbuf_8
*I *1583:I I *D gf180mcu_fd_sc_mcu7t5v0__clkbuf_8
*I *1572:Z O *D gf180mcu_fd_sc_mcu7t5v0__clkbuf_16
*CAP
1 *1578:I 0.00040205
2 *1586:I 0.000229698
3 *1579:I 0.00176577
4 *1577:I 7.72581e-05
5 *1576:I 0
6 *1575:I 0.000333506
7 *1574:I 0.000480268
8 *1588:I 0
9 *1587:I 0.000872275
10 *1585:I 0.000566459
11 *1582:I 0
12 *1581:I 0.000901293
13 *1580:I 0
14 *1573:I 0.000591472
15 *1584:I 7.53979e-05
16 *1583:I 0
17 *1572:Z 0
18 *294:171 0.00172446
19 *294:161 0.00072823
20 *294:131 0.00148647
21 *294:115 0.000938503
22 *294:99 0.00166483
23 *294:97 0.00129443
24 *294:65 0.00137421
25 *294:63 0.000809676
26 *294:41 0.000646798
27 *294:19 0.00093887
28 *294:9 0.00179556
29 *294:7 0.00201455
30 *294:5 0.00146072
31 *1573:I *1330:A4 5.32531e-05
32 *1573:I *1492:I 0.00124212
33 *1573:I *341:18 4.4029e-05
34 *1573:I *351:12 0.000190246
35 *1573:I *397:12 0.00043862
36 *1574:I *1313:A1 0.00016201
37 *1574:I *1313:A2 7.21742e-05
38 *1574:I *1416:A1 0
39 *1574:I *1420:A1 1.89233e-05
40 *1574:I *1420:B2 0.000111961
41 *1574:I *1624:I 0
42 *1574:I *312:16 8.05203e-05
43 *1575:I *1313:A3 6.06703e-05
44 *1575:I *1313:B 0
45 *1575:I *1624:I 7.6776e-05
46 *1575:I *1646:I 0.000186093
47 *1578:I *1503:I 6.45039e-05
48 *1578:I *1549:CLK 0
49 *1578:I *301:10 0
50 *1579:I *1257:I 8.39063e-06
51 *1579:I *1401:A1 1.84476e-05
52 *1579:I *1402:A1 0.000138389
53 *1579:I *1404:A1 3.12451e-05
54 *1579:I *1503:I 0
55 *1579:I *1555:CLK 3.38767e-05
56 *1579:I *301:10 0
57 *1579:I *316:57 4.03393e-05
58 *1579:I *319:40 0.000280375
59 *1579:I *418:12 0
60 *1579:I *423:14 5.79059e-06
61 *1581:I *1232:I 0
62 *1581:I *1356:A1 0
63 *1581:I *1385:A1 5.05815e-05
64 *1581:I *1635:I 0
65 *1581:I *328:47 1.18076e-06
66 *1584:I *335:26 0.000190974
67 *1585:I *1361:A1 0.000147366
68 *1585:I *1385:A1 6.36148e-05
69 *1585:I *329:10 1.37669e-05
70 *1585:I *354:29 0.000135145
71 *1585:I *389:8 8.92847e-05
72 *1586:I *1236:I 7.18351e-05
73 *1586:I *1600:I 0.000232025
74 *1586:I *354:23 7.60863e-05
75 *1586:I *354:53 1.9878e-05
76 *1586:I *389:8 1.05495e-05
77 *1586:I *432:14 4.14374e-05
78 *1587:I *1631:I 0
79 *1587:I *1645:I 2.13898e-05
80 *1587:I *360:25 0
81 *1587:I *363:52 0.000949754
82 *1587:I *406:10 2.37216e-05
83 *1587:I *406:12 0
84 *1587:I *406:36 0
85 *294:7 *1380:A1 8.32937e-06
86 *294:7 *1385:A1 0.000181989
87 *294:7 *1385:A2 0.000158326
88 *294:7 *1386:A2 0
89 *294:7 *1389:A2 9.82827e-05
90 *294:7 *1616:I 0.000116964
91 *294:7 *307:6 1.52379e-05
92 *294:7 *364:13 0.000217592
93 *294:9 *1363:A1 4.07628e-05
94 *294:9 *1363:A2 5.91751e-06
95 *294:9 *1483:I 0.000374414
96 *294:9 *1599:I 5.68658e-06
97 *294:9 *1616:I 0.000530345
98 *294:9 *307:6 7.30427e-05
99 *294:19 *1369:A2 0
100 *294:19 *1482:I 1.26484e-05
101 *294:19 *1597:I 0
102 *294:19 *1637:I 2.57083e-05
103 *294:19 *305:10 0.000131284
104 *294:19 *335:26 0.00012755
105 *294:19 *347:43 0.00019279
106 *294:19 *384:10 6.0477e-05
107 *294:19 *384:19 9.78114e-05
108 *294:41 *1369:A1 6.25027e-05
109 *294:41 *1492:I 0.000129087
110 *294:65 *1361:A1 4.24724e-05
111 *294:65 *1361:A2 0.000120027
112 *294:65 *1385:A1 0.00030657
113 *294:65 *307:19 0
114 *294:65 *328:47 6.10032e-05
115 *294:97 *1387:I0 2.67007e-05
116 *294:97 *364:13 0.000477304
117 *294:97 *376:14 0.000118791
118 *294:99 *1261:A2 0
119 *294:99 *298:10 0.000255544
120 *294:99 *298:14 0.000546677
121 *294:99 *359:26 5.15084e-05
122 *294:99 *363:52 5.61409e-05
123 *294:115 *1646:I 0.000437486
124 *294:115 *311:36 0.000434478
125 *294:115 *363:52 0.000236737
126 *294:131 *1313:A2 1.63123e-05
127 *294:131 *1313:A3 4.25784e-05
128 *294:131 *1624:I 0.000175785
129 *294:131 *1646:I 0.000476203
130 *294:131 *311:36 0.000103429
131 *294:161 *1261:A2 0
132 *294:161 *298:10 0.000135676
133 *294:161 *418:12 1.03727e-05
134 *294:171 *1566:D 0.000122672
135 *294:171 *418:12 2.8591e-05
136 *294:171 *423:14 9.91104e-05
137 *1263:A1 *294:7 0.000141868
138 *1263:A1 *294:97 8.03115e-05
139 *1270:A1 *294:161 4.17866e-05
140 *1278:A1 *294:19 7.76334e-05
141 *1279:B2 *294:19 0.000102923
142 *1280:B *1584:I 0.000109073
143 *1280:B *294:19 1.05495e-05
144 *1281:A1 *1586:I 2.94866e-05
145 *1281:B2 *1586:I 5.96565e-05
146 *1293:A2 *1577:I 0.000126485
147 *1297:A1 *1579:I 6.11574e-05
148 *1297:A1 *294:171 0
149 *1310:A3 *1575:I 0.000193098
150 *1342:A1 *1581:I 3.53225e-05
151 *1360:A1 *1581:I 5.61609e-05
152 *1362:B *294:65 0.000248939
153 *1364:B *294:9 6.76017e-05
154 *1368:A1 *1573:I 0
155 *1370:A1 *294:19 0
156 *1370:B *1573:I 0.000478149
157 *1370:B *294:41 0.000283216
158 *1372:A1 *294:19 3.32e-05
159 *1379:A1 *1585:I 0
160 *1391:A2 *1579:I 0.00010398
161 *1391:A3 *1579:I 0
162 *1401:A2 *1579:I 0.000108102
163 *1402:A3 *1579:I 6.84043e-05
164 *1419:A1 *1574:I 2.76794e-05
165 *1517:RN *294:161 0.000165741
166 *1518:D *1587:I 6.98034e-05
167 *1518:D *294:99 0.000367515
168 *1519:D *294:7 0
169 *1521:RN *294:7 2.95272e-05
170 *1527:D *294:9 0
171 *1527:D *294:19 0
172 *1528:RN *294:9 4.48299e-05
173 *1531:D *294:7 4.85384e-06
174 *1541:RN *1581:I 3.08806e-06
175 *1542:D *1581:I 0.000671129
176 *1542:RN *294:7 0
177 *1549:D *1578:I 0
178 *1549:RN *1578:I 0.000283961
179 *1572:I *1579:I 0.000259349
180 *1572:I *294:161 3.08015e-05
181 *1572:I *294:171 0.000299855
182 *1617:I *1581:I 0.000729213
183 *141:25 *1581:I 5.01255e-05
184 *143:8 *294:7 8.91504e-05
185 *149:8 *294:19 0
186 *150:6 *294:19 9.78755e-05
187 *154:6 *294:7 0
188 *154:23 *294:7 0
189 *201:14 *1577:I 6.43681e-05
190 *201:14 *294:171 1.98195e-05
191 *218:10 *1575:I 1.29004e-05
192 *233:18 *294:131 2.17208e-05
193 *261:8 *1579:I 0.000330721
194 *261:19 *1579:I 2.08301e-05
195 *271:10 *1574:I 0.000684224
196 *271:18 *1574:I 3.32231e-06
*RES
1 *1572:Z *294:5 4.5 
2 *294:5 *294:7 9.09 
3 *294:7 *294:9 7.65 
4 *294:9 *294:19 12.24 
5 *294:19 *1583:I 9 
6 *294:19 *1584:I 10.17 
7 *294:9 *294:41 6.03 
8 *294:41 *1573:I 17.64 
9 *294:41 *1580:I 9 
10 *294:7 *294:63 4.5 
11 *294:63 *294:65 5.13 
12 *294:65 *1581:I 17.37 
13 *294:65 *1582:I 9 
14 *294:63 *1585:I 12.69 
15 *294:5 *294:97 7.83 
16 *294:97 *294:99 6.93 
17 *294:99 *1587:I 16.02 
18 *294:99 *294:115 8.73 
19 *294:115 *1588:I 4.5 
20 *294:115 *294:131 6.21 
21 *294:131 *1574:I 18.99 
22 *294:131 *1575:I 7.65 
23 *294:97 *294:161 8.64 
24 *294:161 *1576:I 4.5 
25 *294:161 *294:171 3.24 
26 *294:171 *1577:I 14.31 
27 *294:171 *1579:I 15.93 
28 *1585:I *1586:I 20.97 
29 *1579:I *1578:I 21.6 
*END

*D_NET *295 0.00598949
*CONN
*I *1538:CLK I *D gf180mcu_fd_sc_mcu7t5v0__dffrnq_1
*I *1536:CLK I *D gf180mcu_fd_sc_mcu7t5v0__dffrnq_1
*I *1537:CLK I *D gf180mcu_fd_sc_mcu7t5v0__dffrnq_1
*I *1589:I I *D gf180mcu_fd_sc_mcu7t5v0__clkbuf_2
*I *1532:CLK I *D gf180mcu_fd_sc_mcu7t5v0__dffrnq_1
*I *1573:Z O *D gf180mcu_fd_sc_mcu7t5v0__clkbuf_8
*CAP
1 *1538:CLK 0
2 *1536:CLK 0.000206266
3 *1537:CLK 0.000514618
4 *1589:I 7.25613e-05
5 *1532:CLK 0.00065401
6 *1573:Z 0.00079516
7 *295:22 0.000808664
8 *295:20 0.000427751
9 *295:18 0.00014115
10 *1532:CLK *1357:I0 0
11 *1532:CLK *1652:I 0
12 *1536:CLK *1352:S 0.000507502
13 *1536:CLK *1492:I 0.000181774
14 *1536:CLK *1652:I 0.000215897
15 *1536:CLK *331:20 0
16 *1537:CLK *1353:I0 0
17 *1537:CLK *1353:I1 0.000102476
18 *1537:CLK *1353:S 0
19 *1537:CLK *1371:A1 6.28596e-05
20 *1589:I *1492:I 5.62762e-05
21 *295:22 *1492:I 0.000317207
22 *1532:D *1532:CLK 2.65444e-06
23 *1536:D *1589:I 0
24 *1536:D *295:22 0
25 *1537:D *1532:CLK 5.3819e-05
26 *1537:D *1537:CLK 0.00037349
27 *1537:RN *1532:CLK 7.71655e-05
28 *1538:D *1532:CLK 1.11996e-05
29 *1538:D *295:18 0.000406991
*RES
1 *1573:Z *1532:CLK 13.95 
2 *1573:Z *295:18 5.67 
3 *295:18 *295:20 4.5 
4 *295:20 *295:22 2.07 
5 *295:22 *1589:I 9.45 
6 *295:22 *1537:CLK 13.14 
7 *295:20 *1536:CLK 11.52 
8 *295:18 *1538:CLK 4.5 
*END

*D_NET *296 0.0102488
*CONN
*I *1601:I I *D gf180mcu_fd_sc_mcu7t5v0__clkbuf_2
*I *1545:CLK I *D gf180mcu_fd_sc_mcu7t5v0__dffsnq_1
*I *1546:CLK I *D gf180mcu_fd_sc_mcu7t5v0__dffrnq_1
*I *1561:CLK I *D gf180mcu_fd_sc_mcu7t5v0__dffrnq_1
*I *1560:CLK I *D gf180mcu_fd_sc_mcu7t5v0__dffrnq_1
*I *1574:Z O *D gf180mcu_fd_sc_mcu7t5v0__clkbuf_8
*CAP
1 *1601:I 0
2 *1545:CLK 0
3 *1546:CLK 0.00068448
4 *1561:CLK 0.000565987
5 *1560:CLK 0
6 *1574:Z 0.000427609
7 *296:38 0.00132719
8 *296:16 0.000711003
9 *296:14 0.00104853
10 *296:8 0.000688416
11 *1546:CLK *1338:C 0
12 *1546:CLK *1659:I 0.00193686
13 *1546:CLK *361:51 0
14 *1546:CLK *373:10 0.000101406
15 *296:8 *1308:A1 0.000248121
16 *296:8 *1308:A2 8.11962e-05
17 *296:8 *361:22 9.04571e-06
18 *296:8 *408:21 9.84908e-05
19 *296:14 *409:14 0.000111446
20 *296:38 *409:21 0
21 sda_out *1561:CLK 8.56312e-05
22 *1333:A2 *1546:CLK 1.20833e-05
23 *1338:B *296:38 2.8591e-05
24 *1339:A2 *296:38 2.32821e-05
25 *1414:A2 *1561:CLK 1.85811e-05
26 *1415:A1 *1561:CLK 9.55009e-05
27 *1418:A2 *296:14 3.32109e-05
28 *1418:A2 *296:38 2.26729e-05
29 *1419:A1 *1561:CLK 8.52804e-05
30 *1419:A2 *1561:CLK 5.97457e-06
31 *1419:A2 *296:16 4.16859e-05
32 *1419:A2 *296:38 1.86887e-06
33 *1545:D *296:38 5.97457e-06
34 *1546:D *1546:CLK 0.000209254
35 *1560:D *1561:CLK 0.000698179
36 *1561:D *1561:CLK 3.02306e-05
37 *212:12 *296:8 0.000236006
38 *273:12 *296:14 0.000570706
39 *273:12 *296:38 4.34467e-06
*RES
1 *1574:Z *296:8 8.64 
2 *296:8 *296:14 11.61 
3 *296:14 *296:16 0.99 
4 *296:16 *1560:CLK 4.5 
5 *296:16 *1561:CLK 10.26 
6 *296:14 *296:38 4.5 
7 *296:38 *1546:CLK 20.88 
8 *296:38 *1545:CLK 4.5 
9 *296:8 *1601:I 4.5 
*END

*D_NET *297 0.0157513
*CONN
*I *1547:CLK I *D gf180mcu_fd_sc_mcu7t5v0__dffrnq_1
*I *1563:CLK I *D gf180mcu_fd_sc_mcu7t5v0__dffrnq_1
*I *1564:CLK I *D gf180mcu_fd_sc_mcu7t5v0__dffrnq_1
*I *1602:I I *D gf180mcu_fd_sc_mcu7t5v0__clkbuf_2
*I *1569:CLK I *D gf180mcu_fd_sc_mcu7t5v0__dffsnq_1
*I *1575:Z O *D gf180mcu_fd_sc_mcu7t5v0__clkbuf_8
*CAP
1 *1547:CLK 0.000695045
2 *1563:CLK 0.000201774
3 *1564:CLK 0.000642975
4 *1602:I 0
5 *1569:CLK 0.000672528
6 *1575:Z 0.000695045
7 *297:29 0.000807252
8 *297:25 0.000522944
9 *297:4 0.000829421
10 *1547:CLK *1625:I 0.000486059
11 *1547:CLK *1646:I 0
12 *1547:CLK *340:17 0.000161479
13 *1547:CLK *412:21 0.000136809
14 *1547:CLK *413:12 6.57682e-05
15 *1547:CLK *413:18 8.13963e-05
16 *1563:CLK *339:8 5.02239e-05
17 *1563:CLK *339:30 0.000330269
18 *1564:CLK *1663:I 0.00183368
19 *1569:CLK *1306:A3 0.000216245
20 *1569:CLK *1413:A1 6.71974e-05
21 *1569:CLK *1416:A1 6.02974e-05
22 *1569:CLK *1420:A1 5.56945e-06
23 *1569:CLK *1623:I 0.000368116
24 *1569:CLK *1624:I 0.00087484
25 *1569:CLK *337:19 0
26 *1569:CLK *337:44 0.000259821
27 *1569:CLK *411:12 0.00033719
28 *1569:CLK *412:23 6.07332e-05
29 *1569:CLK *413:18 0.000417138
30 *297:25 *1453:I 4.08547e-05
31 *297:25 *337:44 6.2979e-05
32 *297:25 *413:18 3.97987e-05
33 *297:29 *1304:A1 1.23523e-05
34 *297:29 *1453:I 6.82386e-05
35 *297:29 *312:16 0
36 *1303:A1 *1564:CLK 0.000200629
37 *1309:A2 *1564:CLK 3.13756e-05
38 *1310:A2 *1547:CLK 0
39 *1405:A2 *1564:CLK 1.20058e-05
40 *1410:B2 *1569:CLK 5.36351e-05
41 *1416:A2 *1569:CLK 0.000106536
42 *1417:A1 *1563:CLK 0.00035741
43 *1417:A1 *297:25 6.3512e-05
44 *1417:A1 *297:29 2.29071e-05
45 *1420:B1 *1563:CLK 0.000417707
46 *1420:B1 *1569:CLK 2.41288e-05
47 *1421:A2 *1569:CLK 3.22122e-05
48 *1620:I *1569:CLK 0.000351999
49 *160:16 *297:29 1.78107e-05
50 *213:16 *1564:CLK 2.51372e-05
51 *233:18 *1547:CLK 0.00069913
52 *270:10 *1564:CLK 0.00115129
53 *271:12 *1569:CLK 0.000129286
54 *272:31 *1563:CLK 0.00095059
*RES
1 *1575:Z *297:4 4.5 
2 *297:4 *1569:CLK 13.95 
3 *297:4 *297:25 5.76 
4 *297:25 *297:29 5.85 
5 *297:29 *1602:I 4.5 
6 *297:29 *1564:CLK 12.15 
7 *297:25 *1563:CLK 12.87 
8 *1575:Z *1547:CLK 15.57 
*END

*D_NET *298 0.00843547
*CONN
*I *1521:CLK I *D gf180mcu_fd_sc_mcu7t5v0__dffrnq_1
*I *1591:I I *D gf180mcu_fd_sc_mcu7t5v0__clkbuf_2
*I *1553:CLK I *D gf180mcu_fd_sc_mcu7t5v0__dffrnq_1
*I *1565:CLK I *D gf180mcu_fd_sc_mcu7t5v0__dffrnq_1
*I *1517:CLK I *D gf180mcu_fd_sc_mcu7t5v0__dffrnq_1
*I *1576:Z O *D gf180mcu_fd_sc_mcu7t5v0__clkbuf_8
*CAP
1 *1521:CLK 0.000439148
2 *1591:I 0
3 *1553:CLK 3.45125e-05
4 *1565:CLK 0.000387399
5 *1517:CLK 0.000552874
6 *1576:Z 0.000211425
7 *298:25 0.000752161
8 *298:14 0.000665847
9 *298:10 0.000433296
10 *1517:CLK *1387:I1 0
11 *1517:CLK *359:26 0.000435315
12 *1521:CLK *1383:A2 0.000294421
13 *1521:CLK *1387:I1 0.000145185
14 *1521:CLK *1610:I 0
15 *1521:CLK *323:38 0.00104783
16 *1521:CLK *325:10 0
17 *1521:CLK *359:26 9.85004e-05
18 *1553:CLK *405:10 0.000106536
19 *1565:CLK *1646:I 4.68143e-05
20 *1565:CLK *405:10 0
21 *298:10 *1257:I 0
22 *298:10 *364:13 3.98088e-05
23 *298:14 *1257:I 0
24 *298:25 *1452:I 0.000416643
25 *298:25 *359:26 0.000436478
26 *298:25 *359:33 0.000480025
27 *298:25 *405:10 4.55112e-05
28 *1270:C *298:10 3.98088e-05
29 *1517:D *1521:CLK 8.35196e-05
30 *1518:D *1517:CLK 0.000121576
31 *1518:D *1521:CLK 1.43511e-05
32 *1521:D *1521:CLK 5.97457e-06
33 *1562:D *1565:CLK 1.84079e-05
34 *1569:SETN *298:25 0
35 *1612:I *1521:CLK 8.07136e-05
36 *217:16 *1565:CLK 6.34901e-05
37 *294:99 *298:10 0.000255544
38 *294:99 *298:14 0.000546677
39 *294:161 *298:10 0.000135676
*RES
1 *1576:Z *298:10 11.52 
2 *298:10 *298:14 7.47 
3 *298:14 *1517:CLK 6.12 
4 *298:14 *298:25 4.05 
5 *298:25 *1565:CLK 7.47 
6 *298:25 *1553:CLK 5.04 
7 *298:10 *1591:I 9 
8 *1517:CLK *1521:CLK 14.13 
*END

*D_NET *299 0.00962196
*CONN
*I *1558:CLK I *D gf180mcu_fd_sc_mcu7t5v0__dffrnq_1
*I *1552:CLK I *D gf180mcu_fd_sc_mcu7t5v0__dffrnq_1
*I *1551:CLK I *D gf180mcu_fd_sc_mcu7t5v0__dffrnq_1
*I *1592:I I *D gf180mcu_fd_sc_mcu7t5v0__clkbuf_2
*I *1566:CLK I *D gf180mcu_fd_sc_mcu7t5v0__dffrnq_1
*I *1577:Z O *D gf180mcu_fd_sc_mcu7t5v0__clkbuf_8
*CAP
1 *1558:CLK 0.000107341
2 *1552:CLK 0.000147929
3 *1551:CLK 5.11173e-05
4 *1592:I 0
5 *1566:CLK 0.000294529
6 *1577:Z 0.000400487
7 *299:48 0.000964597
8 *299:35 0.00110294
9 *299:6 0.000352525
10 *1551:CLK *416:20 1.17652e-05
11 *1552:CLK *365:23 0.000121308
12 *1558:CLK *1448:I 0.000142831
13 *1558:CLK *365:23 1.33545e-05
14 *1566:CLK *1265:A2 7.20436e-05
15 *1566:CLK *1295:A3 8.75034e-05
16 *1566:CLK *415:29 0.000508111
17 *1566:CLK *420:30 0.000169524
18 *299:6 *1265:A2 0.000171159
19 *299:6 *420:30 0.000388781
20 *299:35 *1265:A2 1.27919e-05
21 *299:35 *1301:A2 7.65604e-05
22 *299:35 *416:28 7.77106e-05
23 *299:48 *1294:A2 8.60058e-05
24 *299:48 *1300:A1 0
25 *299:48 *1301:A2 0.000122753
26 *299:48 *415:12 0.000102089
27 *1299:A2 *299:35 0
28 *1299:A2 *299:48 0
29 *1302:A3 *299:35 0.000703779
30 *1551:RN *1552:CLK 1.98047e-05
31 *1551:RN *1558:CLK 2.97177e-05
32 *1552:D *1552:CLK 0.000176065
33 *1609:I *1552:CLK 0.00119511
34 *1609:I *1558:CLK 0.000766842
35 *1621:I *1551:CLK 0.00023506
36 *1621:I *299:35 0
37 *137:14 *299:35 0.000178723
38 *157:12 *1551:CLK 0
39 *157:12 *299:35 0.000634542
40 *201:14 *1566:CLK 9.65676e-05
41 *201:14 *299:35 0
*RES
1 *1577:Z *299:6 5.67 
2 *299:6 *1566:CLK 16.38 
3 *299:6 *1592:I 4.5 
4 *1577:Z *299:35 13.5 
5 *299:35 *1551:CLK 9.63 
6 *299:35 *299:48 9.81 
7 *299:48 *1552:CLK 7.65 
8 *299:48 *1558:CLK 6.57 
*END

*D_NET *300 0.0075694
*CONN
*I *1562:CLK I *D gf180mcu_fd_sc_mcu7t5v0__dffrnq_1
*I *1548:CLK I *D gf180mcu_fd_sc_mcu7t5v0__dffrnq_1
*I *1550:CLK I *D gf180mcu_fd_sc_mcu7t5v0__dffrnq_1
*I *1593:I I *D gf180mcu_fd_sc_mcu7t5v0__clkbuf_2
*I *1554:CLK I *D gf180mcu_fd_sc_mcu7t5v0__dffrnq_1
*I *1578:Z O *D gf180mcu_fd_sc_mcu7t5v0__clkbuf_8
*CAP
1 *1562:CLK 0.000230545
2 *1548:CLK 0.000813718
3 *1550:CLK 0
4 *1593:I 0
5 *1554:CLK 0.000485953
6 *1578:Z 0.000160658
7 *300:12 0.000386567
8 *300:10 0.000220951
9 *300:8 0.00106417
10 *1548:CLK *1318:A2 5.30888e-06
11 *1548:CLK *1318:A3 4.59168e-05
12 *1548:CLK *1319:B 0.000126165
13 *1548:CLK *1320:A1 0.000135666
14 *1548:CLK *1327:A1 0
15 *1548:CLK *321:6 6.50197e-06
16 *1548:CLK *321:17 2.23145e-05
17 *1548:CLK *321:25 2.37143e-05
18 *1548:CLK *390:23 4.80547e-05
19 *1548:CLK *393:10 0
20 *1554:CLK *312:16 0.000400988
21 *1554:CLK *393:10 1.36885e-05
22 *1562:CLK *1444:I1 0
23 *1562:CLK *312:16 3.13878e-05
24 *300:8 *321:6 1.39839e-05
25 *300:10 *1320:A1 2.26729e-05
26 *300:10 *321:6 9.07674e-05
27 *300:12 *1229:I 4.80547e-05
28 *300:12 *1320:A1 3.08015e-05
29 *1320:A2 *300:8 0.000119192
30 *1321:A1 *1548:CLK 8.58429e-05
31 *1322:A1 *1554:CLK 0.000111961
32 *1322:A1 *300:10 0.00037349
33 *1322:A1 *300:12 0.000354738
34 *1322:A2 *300:8 0.000112253
35 *1322:A2 *300:10 4.6613e-06
36 *1322:B1 *1548:CLK 0.00064133
37 *1323:A1 *1548:CLK 0
38 *1326:A2 *1548:CLK 0.000648347
39 *1327:B *1548:CLK 3.36658e-05
40 *1328:A2 *1548:CLK 0
41 *1406:A1 *1562:CLK 0.000513277
42 *1406:A2 *1554:CLK 0
43 *1406:A2 *1562:CLK 7.55765e-06
44 *1547:RN *1548:CLK 0.000121356
45 *1548:D *1548:CLK 0
46 *1665:I *1548:CLK 6.17613e-06
47 *217:16 *1562:CLK 0
48 *224:8 *1548:CLK 0
49 *227:8 *1548:CLK 7.003e-06
*RES
1 *1578:Z *300:8 6.12 
2 *300:8 *300:10 1.35 
3 *300:10 *300:12 1.35 
4 *300:12 *1554:CLK 16.02 
5 *300:12 *1593:I 4.5 
6 *300:10 *1550:CLK 4.5 
7 *300:8 *1548:CLK 21.6 
8 *1554:CLK *1562:CLK 11.34 
*END

*D_NET *301 0.00541001
*CONN
*I *1556:CLK I *D gf180mcu_fd_sc_mcu7t5v0__dffrnq_1
*I *1557:CLK I *D gf180mcu_fd_sc_mcu7t5v0__dffrnq_1
*I *1549:CLK I *D gf180mcu_fd_sc_mcu7t5v0__dffrnq_1
*I *1594:I I *D gf180mcu_fd_sc_mcu7t5v0__clkbuf_2
*I *1555:CLK I *D gf180mcu_fd_sc_mcu7t5v0__dffrnq_1
*I *1579:Z O *D gf180mcu_fd_sc_mcu7t5v0__clkbuf_8
*CAP
1 *1556:CLK 0
2 *1557:CLK 0.00036238
3 *1549:CLK 0.000408157
4 *1594:I 0
5 *1555:CLK 0.000225002
6 *1579:Z 0.000584841
7 *301:48 0.000947221
8 *301:10 0.000577291
9 *301:4 0.000760446
10 *1555:CLK *1445:I 9.7773e-05
11 *1555:CLK *1503:I 0.000240548
12 *1555:CLK *367:47 0.000417707
13 *1557:CLK *1392:A2 9.9891e-06
14 *1557:CLK *1400:A2 9.34089e-05
15 *1557:CLK *419:10 1.39839e-05
16 *1557:CLK *421:21 1.86887e-06
17 *301:10 *1445:I 0.000224708
18 *301:48 *1402:A2 0
19 *301:48 *419:10 0.000133728
20 *1397:A2 *1557:CLK 1.96635e-05
21 *1399:A2 *1557:CLK 2.67007e-05
22 *1400:A3 *1557:CLK 6.01893e-05
23 *1555:RN *301:48 0.000142831
24 *1556:D *1557:CLK 2.76913e-05
25 *1578:I *1549:CLK 0
26 *1578:I *301:10 0
27 *1579:I *1555:CLK 3.38767e-05
28 *1579:I *301:10 0
*RES
1 *1579:Z *301:4 4.5 
2 *301:4 *301:10 7.56 
3 *301:10 *1555:CLK 11.52 
4 *301:10 *1594:I 9 
5 *301:4 *1549:CLK 7.2 
6 *1579:Z *301:48 9.27 
7 *301:48 *1557:CLK 7.11 
8 *301:48 *1556:CLK 4.5 
*END

*D_NET *302 0.00630429
*CONN
*I *1534:CLK I *D gf180mcu_fd_sc_mcu7t5v0__dffrnq_1
*I *1526:CLK I *D gf180mcu_fd_sc_mcu7t5v0__dffrnq_1
*I *1590:I I *D gf180mcu_fd_sc_mcu7t5v0__clkbuf_2
*I *1524:CLK I *D gf180mcu_fd_sc_mcu7t5v0__dffrnq_1
*I *1528:CLK I *D gf180mcu_fd_sc_mcu7t5v0__dffrnq_1
*I *1580:Z O *D gf180mcu_fd_sc_mcu7t5v0__clkbuf_8
*CAP
1 *1534:CLK 0.00031662
2 *1526:CLK 0
3 *1590:I 0
4 *1524:CLK 0.000488328
5 *1528:CLK 0.00023996
6 *1580:Z 8.0476e-05
7 *302:27 0.000376631
8 *302:19 0.00050991
9 *302:6 0.000625424
10 *1524:CLK *348:16 0.00042775
11 *1524:CLK *351:6 7.01767e-05
12 *1524:CLK *396:14 3.55118e-05
13 *1528:CLK *1387:I1 0
14 *1528:CLK *345:56 0.000196944
15 *1528:CLK *397:12 0.000114608
16 *1534:CLK *311:26 0.000155129
17 *1534:CLK *351:6 0.000230896
18 *302:19 *1369:A1 0.000153272
19 *302:19 *1387:I1 0
20 *302:19 *326:8 0.00055835
21 *302:19 *341:12 4.7901e-05
22 *302:19 *345:56 0.000106529
23 *302:19 *397:12 3.69577e-05
24 *302:27 *326:8 0.000125658
25 *302:27 *345:56 8.33495e-05
26 *302:27 *370:10 0.00016337
27 *302:27 *396:14 0.000726739
28 *1368:B *1528:CLK 0.000433797
*RES
1 *1580:Z *302:6 5.13 
2 *302:6 *1528:CLK 7.2 
3 *302:6 *302:19 3.06 
4 *302:19 *302:27 11.88 
5 *302:27 *1524:CLK 6.48 
6 *302:27 *1590:I 4.5 
7 *302:19 *1526:CLK 4.5 
8 *1524:CLK *1534:CLK 11.88 
*END

*D_NET *303 0.00535948
*CONN
*I *1595:I I *D gf180mcu_fd_sc_mcu7t5v0__clkbuf_2
*I *1571:CLK I *D gf180mcu_fd_sc_mcu7t5v0__dffsnq_1
*I *1543:CLK I *D gf180mcu_fd_sc_mcu7t5v0__dffrnq_1
*I *1568:CLK I *D gf180mcu_fd_sc_mcu7t5v0__dffrnq_1
*I *1544:CLK I *D gf180mcu_fd_sc_mcu7t5v0__dffrnq_1
*I *1581:Z O *D gf180mcu_fd_sc_mcu7t5v0__clkbuf_8
*CAP
1 *1595:I 0
2 *1571:CLK 0.000489542
3 *1543:CLK 0
4 *1568:CLK 0.000246043
5 *1544:CLK 0
6 *1581:Z 0.000387397
7 *303:34 0.00077071
8 *303:13 0.000560071
9 *303:6 0.000420257
10 *1568:CLK *1458:I 2.31089e-05
11 *1571:CLK *1461:I 6.17613e-06
12 *1571:CLK *1490:I 0.000299714
13 *1571:CLK *1629:I 0
14 *1571:CLK *349:8 0.000204492
15 *1571:CLK *395:10 0.000500384
16 *303:13 *349:43 0
17 *303:34 *1341:A1 9.85004e-05
18 *303:34 *1629:I 0
19 *303:34 *1634:I 7.96333e-06
20 *303:34 *349:8 0.000176088
21 *303:34 *349:43 0.000226312
22 *1342:A2 *303:6 1.79237e-05
23 *1344:A2 *1568:CLK 3.97987e-05
24 *1543:D *1568:CLK 8.003e-05
25 *1543:D *303:13 1.61174e-05
26 *1544:D *303:6 0.000121356
27 *1544:D *303:13 1.07374e-05
28 *1568:RN *1568:CLK 0.00015997
29 *1571:SETN *1571:CLK 2.9238e-05
30 *1656:I *1571:CLK 1.71254e-05
31 *239:16 *1568:CLK 0.000173247
32 *239:33 *1568:CLK 8.58429e-05
33 *239:33 *303:6 5.3819e-05
34 *239:33 *303:13 0.000137511
*RES
1 *1581:Z *303:6 5.67 
2 *303:6 *1544:CLK 4.5 
3 *303:6 *303:13 2.61 
4 *303:13 *1568:CLK 7.38 
5 *303:13 *1543:CLK 4.5 
6 *1581:Z *303:34 7.29 
7 *303:34 *1571:CLK 18.36 
8 *303:34 *1595:I 4.5 
*END

*D_NET *304 0.00858843
*CONN
*I *1542:CLK I *D gf180mcu_fd_sc_mcu7t5v0__dffrnq_1
*I *1596:I I *D gf180mcu_fd_sc_mcu7t5v0__clkbuf_2
*I *1541:CLK I *D gf180mcu_fd_sc_mcu7t5v0__dffrnq_1
*I *1539:CLK I *D gf180mcu_fd_sc_mcu7t5v0__dffrnq_1
*I *1529:CLK I *D gf180mcu_fd_sc_mcu7t5v0__dffsnq_1
*I *1582:Z O *D gf180mcu_fd_sc_mcu7t5v0__clkbuf_8
*CAP
1 *1542:CLK 8.70783e-05
2 *1596:I 0.000228523
3 *1541:CLK 6.64966e-05
4 *1539:CLK 0.000480003
5 *1529:CLK 4.89422e-05
6 *1582:Z 0.000212427
7 *304:23 0.000713056
8 *304:19 0.000543516
9 *304:8 0.000322728
10 *1529:CLK *1330:A4 0.000131379
11 *1529:CLK *397:39 0.000356005
12 *1539:CLK *1354:S 7.191e-07
13 *1539:CLK *1629:I 1.32722e-05
14 *1539:CLK *1652:I 0
15 *1539:CLK *349:23 9.68439e-05
16 *1542:CLK *311:26 0.000882939
17 *1542:CLK *332:16 0.000707348
18 *1596:I *1346:A2 0.000478014
19 *1596:I *1652:I 0.000212356
20 *304:8 *1330:A4 0.000696458
21 *304:8 *397:39 0.000256598
22 *304:19 *1634:I 0.000202081
23 *304:19 *1635:I 9.23597e-05
24 *304:19 *332:16 9.47816e-05
25 *304:23 *1348:A2 1.37601e-05
26 *304:23 *1495:I 1.49477e-05
27 *304:23 *1623:I 0
28 *304:23 *1634:I 0.000380665
29 *1346:A1 *1596:I 0.000101516
30 *1360:A1 *1596:I 8.69576e-05
31 *1539:D *1539:CLK 7.191e-07
32 *1541:RN *1539:CLK 0.000230236
33 *1541:RN *1541:CLK 6.34901e-05
34 *1542:D *1596:I 4.83522e-05
35 *1544:RN *1539:CLK 2.54405e-05
36 *1544:RN *1541:CLK 6.15268e-05
37 *144:41 *304:19 0.000454129
38 *144:41 *304:23 0.000168945
39 *245:24 *1596:I 1.38253e-05
*RES
1 *1582:Z *304:8 6.66 
2 *304:8 *1529:CLK 5.49 
3 *304:8 *304:19 6.57 
4 *304:19 *304:23 6.75 
5 *304:23 *1539:CLK 8.01 
6 *304:23 *1541:CLK 5.22 
7 *304:19 *1596:I 11.97 
8 *1582:Z *1542:CLK 11.43 
*END

*D_NET *305 0.00958728
*CONN
*I *1509:CLK I *D gf180mcu_fd_sc_mcu7t5v0__dffrnq_1
*I *1597:I I *D gf180mcu_fd_sc_mcu7t5v0__clkbuf_2
*I *1527:CLK I *D gf180mcu_fd_sc_mcu7t5v0__dffrnq_1
*I *1525:CLK I *D gf180mcu_fd_sc_mcu7t5v0__dffrnq_1
*I *1533:CLK I *D gf180mcu_fd_sc_mcu7t5v0__dffrnq_1
*I *1583:Z O *D gf180mcu_fd_sc_mcu7t5v0__clkbuf_8
*CAP
1 *1509:CLK 0.00037417
2 *1597:I 0.000355761
3 *1527:CLK 7.99666e-05
4 *1525:CLK 0
5 *1533:CLK 0.000263472
6 *1583:Z 0.0011827
7 *305:20 0.000834355
8 *305:10 0.00110362
9 *1509:CLK *1278:A2 0.000176818
10 *1509:CLK *1637:I 0.000281442
11 *1527:CLK *1613:I 5.36351e-05
12 *1527:CLK *327:20 0.000428433
13 *1533:CLK *1375:A2 0
14 *1533:CLK *371:6 1.3634e-05
15 *1597:I *1369:A2 4.97417e-05
16 *305:10 *384:10 0
17 *305:20 *1375:A2 0
18 *305:20 *1613:I 7.77173e-05
19 *305:20 *326:41 0
20 *305:20 *327:20 0.000834606
21 *305:20 *370:10 7.6187e-05
22 *1278:A1 *1509:CLK 0.000904526
23 *1279:B2 *305:10 1.91657e-05
24 *1292:B1 *1509:CLK 8.38421e-05
25 *1292:B1 *1597:I 0
26 *1358:S *305:20 1.42418e-05
27 *1372:A1 *1597:I 2.38064e-05
28 *1372:A1 *305:10 9.21109e-05
29 *1425:A3 *1509:CLK 2.30182e-05
30 *1524:RN *1533:CLK 0.000814543
31 *1524:RN *305:20 0.000362298
32 *1533:D *1509:CLK 0.000822957
33 *1534:RN *1533:CLK 6.81593e-05
34 *150:6 *1597:I 4.1068e-05
35 *294:19 *1597:I 0
36 *294:19 *305:10 0.000131284
*RES
1 *1583:Z *305:10 17.01 
2 *305:10 *305:20 14.31 
3 *305:20 *1533:CLK 7.11 
4 *305:20 *1525:CLK 4.5 
5 *305:10 *1527:CLK 5.67 
6 *1583:Z *1597:I 11.07 
7 *1583:Z *1509:CLK 14.31 
*END

*D_NET *306 0.00752329
*CONN
*I *1512:CLK I *D gf180mcu_fd_sc_mcu7t5v0__dffrnq_1
*I *1598:I I *D gf180mcu_fd_sc_mcu7t5v0__clkbuf_2
*I *1511:CLK I *D gf180mcu_fd_sc_mcu7t5v0__dffrnq_1
*I *1508:CLK I *D gf180mcu_fd_sc_mcu7t5v0__dffrnq_1
*I *1510:CLK I *D gf180mcu_fd_sc_mcu7t5v0__dffrnq_1
*I *1584:Z O *D gf180mcu_fd_sc_mcu7t5v0__clkbuf_8
*CAP
1 *1512:CLK 4.33054e-05
2 *1598:I 0.000162063
3 *1511:CLK 0
4 *1508:CLK 0.000349946
5 *1510:CLK 0.000222415
6 *1584:Z 0
7 *306:37 0.000262335
8 *306:30 0.000149483
9 *306:6 0.000779748
10 *306:4 0.000299904
11 *1508:CLK *1279:B1 0.000104534
12 *1508:CLK *1481:I 9.85004e-05
13 *1508:CLK *313:35 0.00027593
14 *1508:CLK *426:29 0.000120083
15 *1508:CLK *427:12 5.44679e-05
16 *1508:CLK *427:14 1.66633e-05
17 *1510:CLK *426:12 9.04462e-05
18 *1512:CLK *313:27 0.000496776
19 *1512:CLK *335:20 0.000205482
20 *1598:I *1240:I 6.05618e-05
21 *1598:I *1435:A1 0
22 *1598:I *429:18 0.000229402
23 *306:6 *313:27 6.89262e-05
24 *306:30 *313:27 6.46041e-05
25 *306:30 *335:20 0.000319181
26 *306:37 *313:27 0.000496766
27 *306:37 *335:20 0.000188364
28 *1276:A2 *1598:I 7.77106e-05
29 *1280:A1 *1508:CLK 0.000597041
30 *1431:A1 *306:6 0.000547579
31 *1431:A2 *306:6 0.000547579
32 *1431:A2 *306:30 0.000218459
33 *1433:A2 *1598:I 0.000101615
34 *1508:RN *1510:CLK 4.54996e-05
35 *1510:D *1510:CLK 1.04649e-05
36 *1510:D *306:6 6.79182e-06
37 *1607:I *1598:I 0
38 *182:12 *1598:I 0.000135666
39 *282:8 *1510:CLK 4.34751e-05
40 *282:8 *306:6 3.15192e-05
*RES
1 *1584:Z *306:4 4.5 
2 *306:4 *306:6 2.61 
3 *306:6 *1510:CLK 6.03 
4 *306:6 *1508:CLK 17.64 
5 *306:4 *306:30 1.44 
6 *306:30 *1511:CLK 4.5 
7 *306:30 *306:37 1.35 
8 *306:37 *1598:I 15.57 
9 *306:37 *1512:CLK 5.85 
*END

*D_NET *307 0.0079064
*CONN
*I *1523:CLK I *D gf180mcu_fd_sc_mcu7t5v0__dffrnq_1
*I *1531:CLK I *D gf180mcu_fd_sc_mcu7t5v0__dffsnq_1
*I *1519:CLK I *D gf180mcu_fd_sc_mcu7t5v0__dffrnq_1
*I *1530:CLK I *D gf180mcu_fd_sc_mcu7t5v0__dffrnq_1
*I *1599:I I *D gf180mcu_fd_sc_mcu7t5v0__clkbuf_2
*I *1585:Z O *D gf180mcu_fd_sc_mcu7t5v0__clkbuf_8
*CAP
1 *1523:CLK 0.000213361
2 *1531:CLK 0
3 *1519:CLK 0.000674279
4 *1530:CLK 0.000304086
5 *1599:I 0.000167606
6 *1585:Z 0.00036037
7 *307:23 0.00110462
8 *307:19 0.000229957
9 *307:6 0.000418321
10 *1519:CLK *1365:A1 9.04462e-05
11 *1519:CLK *1387:I1 0
12 *1519:CLK *1618:I 0.000129307
13 *1519:CLK *1635:I 9.54396e-05
14 *1519:CLK *325:10 0.00013069
15 *1519:CLK *329:16 0
16 *1523:CLK *1473:I 0.000187635
17 *1523:CLK *1474:I 1.2227e-05
18 *1523:CLK *325:23 0.000436469
19 *1523:CLK *354:29 7.21026e-05
20 *1530:CLK *1365:A1 0.000150016
21 *1530:CLK *329:16 0
22 *1530:CLK *330:6 4.64756e-05
23 *1599:I *1363:A1 0.000102735
24 *1599:I *1380:A1 7.21866e-05
25 *1599:I *1483:I 0.000170208
26 *307:6 *1380:A1 0.000225342
27 *307:19 *1361:A1 0.000262124
28 *307:19 *1361:A2 4.78068e-05
29 *307:19 *1474:I 0.000166798
30 *307:19 *350:19 0.000627694
31 *307:23 *1361:A2 0.000166364
32 *307:23 *1496:I 0.000309984
33 *307:23 *328:47 0.000164228
34 *307:23 *350:19 0.000101624
35 *307:23 *400:36 8.06207e-05
36 *1362:B *1519:CLK 4.8565e-05
37 *1366:B *1530:CLK 0.000169524
38 *1529:SETN *1530:CLK 0.000142831
39 *1530:D *1530:CLK 0
40 *1531:SETN *1523:CLK 8.33579e-05
41 *1542:RN *1519:CLK 4.70417e-05
42 *294:7 *307:6 1.52379e-05
43 *294:9 *1599:I 5.68658e-06
44 *294:9 *307:6 7.30427e-05
45 *294:65 *307:19 0
*RES
1 *1585:Z *307:6 6.03 
2 *307:6 *1599:I 6.12 
3 *307:6 *307:19 6.57 
4 *307:19 *307:23 6.39 
5 *307:23 *1530:CLK 7.38 
6 *307:23 *1519:CLK 9.99 
7 *307:19 *1531:CLK 9 
8 *1585:Z *1523:CLK 11.43 
*END

*D_NET *308 0.00860326
*CONN
*I *1514:CLK I *D gf180mcu_fd_sc_mcu7t5v0__dffrnq_1
*I *1522:CLK I *D gf180mcu_fd_sc_mcu7t5v0__dffrnq_1
*I *1513:CLK I *D gf180mcu_fd_sc_mcu7t5v0__dffrnq_1
*I *1600:I I *D gf180mcu_fd_sc_mcu7t5v0__clkbuf_2
*I *1515:CLK I *D gf180mcu_fd_sc_mcu7t5v0__dffrnq_1
*I *1586:Z O *D gf180mcu_fd_sc_mcu7t5v0__clkbuf_8
*CAP
1 *1514:CLK 0
2 *1522:CLK 0.000431357
3 *1513:CLK 0
4 *1600:I 0.000364201
5 *1515:CLK 0.000119878
6 *1586:Z 0
7 *308:35 0.000736419
8 *308:26 0.000413028
9 *308:6 0.000500912
10 *308:4 0.000124799
11 *1515:CLK *1281:A2 0
12 *1522:CLK *1262:A1 4.78286e-05
13 *1522:CLK *1265:A1 0.000656427
14 *1522:CLK *1648:I 1.73092e-05
15 *1522:CLK *1649:I 4.17866e-05
16 *1522:CLK *380:8 0.000196071
17 *1600:I *354:53 0.000290478
18 *1600:I *432:8 0
19 *1600:I *432:14 0
20 *308:6 *1281:A2 0
21 *308:26 *1281:A2 0
22 *308:26 *356:8 1.17725e-05
23 *308:35 *1476:I 0.000107953
24 *308:35 *356:8 8.53768e-05
25 *308:35 *381:10 0.000223407
26 *308:35 *381:27 2.40587e-06
27 *1273:A3 *1522:CLK 0.000325383
28 *1381:A1 *1522:CLK 0.000486049
29 *1442:A2 *1515:CLK 7.55765e-06
30 *1443:A3 *1600:I 1.87555e-05
31 *1522:RN *308:35 0.000109215
32 *1586:I *1600:I 0.000232025
33 *1609:I *1522:CLK 4.79098e-05
34 *1621:I *1515:CLK 0.000496776
35 *1621:I *308:6 9.85004e-05
36 *1621:I *308:26 0.000424357
37 *1621:I *308:35 0.00193418
38 *155:25 *1522:CLK 5.11428e-05
*RES
1 *1586:Z *308:4 4.5 
2 *308:4 *308:6 0.27 
3 *308:6 *1515:CLK 5.85 
4 *308:6 *1600:I 17.19 
5 *308:4 *308:26 1.17 
6 *308:26 *1513:CLK 4.5 
7 *308:26 *308:35 5.4 
8 *308:35 *1522:CLK 19.44 
9 *308:35 *1514:CLK 4.5 
*END

*D_NET *309 0.00447715
*CONN
*I *1567:CLK I *D gf180mcu_fd_sc_mcu7t5v0__dffsnq_1
*I *1559:CLK I *D gf180mcu_fd_sc_mcu7t5v0__dffrnq_1
*I *1570:CLK I *D gf180mcu_fd_sc_mcu7t5v0__dffsnq_1
*I *1535:CLK I *D gf180mcu_fd_sc_mcu7t5v0__dffrnq_1
*I *1587:Z O *D gf180mcu_fd_sc_mcu7t5v0__clkbuf_8
*CAP
1 *1567:CLK 0.000119322
2 *1559:CLK 0.000715833
3 *1570:CLK 0.000435742
4 *1535:CLK 0.000107592
5 *1587:Z 0
6 *309:19 0.00151536
7 *309:6 0.000572818
8 *309:4 0.000220767
9 *1535:CLK *1645:I 4.34856e-06
10 *1535:CLK *360:25 0
11 *1559:CLK *1355:I1 0
12 *1567:CLK *1645:I 2.5688e-05
13 *1570:CLK *1355:I0 0.000164306
14 *1570:CLK *1355:I1 0
15 *309:6 *1645:I 2.26314e-05
16 *309:19 *1355:I0 0
17 *309:19 *1355:S 0.000285829
18 *1559:D *1559:CLK 0
19 *1568:D *1535:CLK 4.14988e-05
20 *1568:D *1567:CLK 0.000151281
21 *1568:D *309:6 9.41422e-05
22 *239:16 *1559:CLK 0
23 *239:16 *1570:CLK 0
*RES
1 *1587:Z *309:4 4.5 
2 *309:4 *309:6 0.99 
3 *309:6 *1535:CLK 5.13 
4 *309:6 *309:19 11.79 
5 *309:19 *1570:CLK 7.65 
6 *309:19 *1559:CLK 9.09 
7 *309:4 *1567:CLK 5.67 
*END

*D_NET *310 0.00738069
*CONN
*I *1516:CLK I *D gf180mcu_fd_sc_mcu7t5v0__dffsnq_1
*I *1540:CLK I *D gf180mcu_fd_sc_mcu7t5v0__dffrnq_1
*I *1520:CLK I *D gf180mcu_fd_sc_mcu7t5v0__dffrnq_1
*I *1518:CLK I *D gf180mcu_fd_sc_mcu7t5v0__dffsnq_1
*I *1588:Z O *D gf180mcu_fd_sc_mcu7t5v0__clkbuf_8
*CAP
1 *1516:CLK 0.000265332
2 *1540:CLK 0
3 *1520:CLK 0.000301952
4 *1518:CLK 0.000869834
5 *1588:Z 0.000348724
6 *310:35 0.000778786
7 *310:22 0.00133652
8 *1516:CLK *1355:I0 8.59925e-05
9 *1516:CLK *1390:I1 0.0001185
10 *1516:CLK *1489:I 8.12856e-06
11 *1516:CLK *1644:I 0
12 *1516:CLK *334:27 8.64536e-05
13 *1518:CLK *1569:D 0.000192205
14 *1518:CLK *1623:I 3.00327e-05
15 *1518:CLK *346:12 8.52804e-05
16 *1520:CLK *311:36 0.000101516
17 *1520:CLK *324:20 0.000174129
18 *1520:CLK *324:26 3.97987e-05
19 *310:22 *311:36 7.59575e-05
20 *310:22 *324:20 0.000390446
21 *310:35 *1390:S 0
22 *310:35 *1619:I 7.95552e-06
23 *310:35 *1643:I 0
24 *310:35 *323:12 0.000593822
25 *310:35 *334:31 9.56225e-05
26 *1516:D *1516:CLK 0.000365445
27 *1520:D *1520:CLK 7.71821e-06
28 *1562:RN *1518:CLK 1.61174e-05
29 *233:18 *1518:CLK 0.000443252
30 *233:18 *1520:CLK 8.47108e-05
31 *233:18 *310:22 0.000476461
*RES
1 *1588:Z *1518:CLK 13.14 
2 *1518:CLK *310:22 9.9 
3 *310:22 *1520:CLK 7.11 
4 *310:22 *310:35 12.87 
5 *310:35 *1540:CLK 4.5 
6 *310:35 *1516:CLK 7.11 
*END

*D_NET *311 0.0241689
*CONN
*I *1444:I0 I *D gf180mcu_fd_sc_mcu7t5v0__mux2_2
*I *1565:D I *D gf180mcu_fd_sc_mcu7t5v0__dffrnq_1
*I *1654:Z O *D gf180mcu_fd_sc_mcu7t5v0__dlyb_1
*CAP
1 *1444:I0 0.000902993
2 *1565:D 0
3 *1654:Z 0.00292793
4 *311:36 0.0022231
5 *311:26 0.00424804
6 *1444:I0 *1260:I 5.30888e-06
7 *1444:I0 *1444:I1 1.86887e-06
8 *1444:I0 *1452:I 0
9 *1444:I0 *405:10 0
10 *311:26 *1345:A2 0.000496776
11 *311:26 *1357:I1 0.000212475
12 *311:26 *1490:I 1.58709e-05
13 *311:26 *1636:I 8.93743e-05
14 *311:26 *1653:I 0
15 *311:26 *1660:I 0
16 *311:26 *328:6 2.76434e-05
17 *311:26 *328:32 5.43866e-06
18 *311:26 *328:47 0
19 *311:26 *331:16 0.00165281
20 *311:26 *332:16 0.000361875
21 *311:26 *345:6 2.31089e-05
22 *311:26 *345:10 7.72112e-05
23 *311:26 *345:56 0.00259843
24 *311:26 *348:16 0.000341192
25 *311:26 *348:55 0.000141732
26 *311:26 *351:6 0
27 *311:26 *358:14 0.00101227
28 *311:36 *1235:I 0
29 *311:36 *1384:I0 0.00042307
30 *311:36 *1610:I 0
31 *311:36 *324:20 0.00197573
32 *311:36 *324:26 9.04462e-05
33 *311:36 *359:10 0.000112822
34 *311:36 *359:14 0
35 *311:36 *363:52 1.18828e-05
36 *311:36 *399:8 0
37 cap_ctrl[0] *311:26 1.0415e-05
38 *1332:A2 *311:26 0
39 *1332:A2 *311:36 2.26729e-05
40 *1366:B *311:26 0.000815786
41 *1368:B *311:26 5.00642e-05
42 *1406:A1 *1444:I0 8.73645e-05
43 *1406:A1 *311:36 3.34193e-05
44 *1516:SETN *311:36 0.000362773
45 *1520:CLK *311:36 0.000101516
46 *1526:D *311:26 9.04539e-05
47 *1532:RN *311:26 0
48 *1534:CLK *311:26 0.000155129
49 *1538:RN *311:26 3.12857e-05
50 *1540:RN *311:26 7.29735e-05
51 *1540:RN *311:36 0
52 *1542:CLK *311:26 0.000882939
53 *1553:D *1444:I0 0
54 *1562:D *1444:I0 9.93993e-06
55 *1620:I *311:36 9.53269e-05
56 *29:8 *1444:I0 3.57113e-05
57 *217:16 *1444:I0 2.63343e-05
58 *217:16 *311:36 0.00035434
59 *233:18 *311:36 0.000337168
60 *294:115 *311:36 0.000434478
61 *294:131 *311:36 0.000103429
62 *310:22 *311:36 7.59575e-05
*RES
1 *1654:Z *311:26 44.19 
2 *311:26 *311:36 19.98 
3 *311:36 *1565:D 9 
4 *311:36 *1444:I0 15.66 
*END

*D_NET *312 0.0189145
*CONN
*I *1659:I I *D gf180mcu_fd_sc_mcu7t5v0__dlyb_1
*I *1444:Z O *D gf180mcu_fd_sc_mcu7t5v0__mux2_2
*CAP
1 *1659:I 0.00302391
2 *1444:Z 0.00192314
3 *312:16 0.00494704
4 *1659:I *1231:I 0.000119192
5 *1659:I *1664:I 0.000119952
6 *1659:I *361:51 0
7 *312:16 *1304:A1 7.07604e-05
8 *312:16 *1304:A3 0.000158097
9 *312:16 *1305:A3 1.7368e-05
10 *312:16 *1307:A1 6.79362e-05
11 *312:16 *1313:A3 0.000399601
12 *312:16 *1315:A1 5.96002e-05
13 *312:16 *1420:A1 0.000139025
14 *312:16 *1420:B2 0
15 *312:16 *1664:I 0.000483879
16 *312:16 *361:22 0.000147078
17 *312:16 *408:32 3.6437e-05
18 *1310:A3 *312:16 0.000300306
19 *1315:A3 *312:16 0.000268422
20 *1333:A2 *312:16 0.000181989
21 *1333:B *1659:I 3.92905e-06
22 *1339:A1 *1659:I 0
23 *1409:A1 *312:16 2.89427e-06
24 *1414:A2 *312:16 1.19491e-05
25 *1546:CLK *1659:I 0.00193686
26 *1554:D *312:16 8.06865e-05
27 *1554:CLK *312:16 0.000400988
28 *1562:CLK *312:16 3.13878e-05
29 *1574:I *312:16 8.05203e-05
30 *1665:I *312:16 0
31 *160:12 *312:16 1.86195e-05
32 *160:16 *312:16 1.42823e-05
33 *212:12 *312:16 0.00183964
34 *218:10 *312:16 0.000927409
35 *233:24 *312:16 0.000755695
36 *237:29 *312:16 8.54906e-05
37 *271:10 *312:16 0.000260441
38 *297:29 *312:16 0
*RES
1 *1444:Z *312:16 35.37 
2 *312:16 *1659:I 26.82 
*END

*D_NET *313 0.0145331
*CONN
*I *1432:A1 I *D gf180mcu_fd_sc_mcu7t5v0__nor4_1
*I *1429:A1 I *D gf180mcu_fd_sc_mcu7t5v0__nor3_1
*I *1425:A1 I *D gf180mcu_fd_sc_mcu7t5v0__nor3_1
*I *1422:A2 I *D gf180mcu_fd_sc_mcu7t5v0__nor3_1
*I *1435:A1 I *D gf180mcu_fd_sc_mcu7t5v0__nor4_1
*I *1603:Z O *D gf180mcu_fd_sc_mcu7t5v0__dlyb_1
*CAP
1 *1432:A1 0.000347219
2 *1429:A1 3.44587e-05
3 *1425:A1 3.33846e-05
4 *1422:A2 0.000279226
5 *1435:A1 0.000157393
6 *1603:Z 0.000123842
7 *313:53 0.000612574
8 *313:35 0.000824675
9 *313:27 0.00115177
10 *313:10 0.00069004
11 *1422:A2 *1422:A3 0.00143148
12 *1422:A2 *1481:I 0.000153685
13 *1422:A2 *352:30 7.01651e-05
14 *1422:A2 *357:8 3.08083e-05
15 *1425:A1 *1279:B1 0.000290753
16 *1425:A1 *1422:A3 0.000384429
17 *1432:A1 *1242:I 8.38872e-05
18 *1432:A1 *1429:A2 4.12003e-05
19 *1432:A1 *1432:A2 0.000169524
20 *1432:A1 *1638:I 9.65744e-06
21 *1435:A1 *429:29 0.000415035
22 *313:27 *335:20 1.23607e-05
23 *313:35 *1242:I 0.000494523
24 *313:35 *1279:B1 0.000467603
25 *313:35 *357:8 0.000666091
26 *313:35 *426:29 1.63813e-05
27 *313:53 *1242:I 0.000240762
28 *1280:A1 *313:35 0.000214923
29 *1283:A1 *1435:A1 0.000180811
30 *1430:A1 *313:27 0
31 *1430:A2 *313:27 0.000152113
32 *1431:A2 *313:27 0.000735889
33 *1432:A3 *313:27 0
34 *1432:A4 *313:27 0.000130381
35 *1433:A2 *1435:A1 0
36 *1433:A2 *313:10 0
37 *1508:CLK *313:35 0.00027593
38 *1510:D *1429:A1 7.80701e-06
39 *1510:D *1432:A1 0
40 *1510:D *313:27 5.15527e-05
41 *1511:D *313:27 2.0567e-05
42 *1512:D *313:10 0.000346684
43 *1512:CLK *313:27 0.000496776
44 *1598:I *1435:A1 0
45 *1607:I *1435:A1 0.000364888
46 *1607:I *313:10 0.000717767
47 *151:10 *1432:A1 9.12775e-05
48 *168:14 *313:35 0.000419426
49 *287:10 *313:10 3.92905e-06
50 *287:10 *313:27 0.000436469
51 *287:27 *313:10 2.26729e-05
52 *306:6 *313:27 6.89262e-05
53 *306:30 *313:27 6.46041e-05
54 *306:37 *313:27 0.000496766
*RES
1 *1603:Z *313:10 11.16 
2 *313:10 *1435:A1 11.16 
3 *313:10 *313:27 14.85 
4 *313:27 *313:35 11.61 
5 *313:35 *1422:A2 8.82 
6 *313:35 *1425:A1 5.67 
7 *313:27 *313:53 1.71 
8 *313:53 *1429:A1 9.27 
9 *313:53 *1432:A1 11.79 
*END

*D_NET *314 0.00281439
*CONN
*I *1438:A1 I *D gf180mcu_fd_sc_mcu7t5v0__nor3_1
*I *1443:A1 I *D gf180mcu_fd_sc_mcu7t5v0__nor3_1
*I *1604:Z O *D gf180mcu_fd_sc_mcu7t5v0__dlyb_1
*CAP
1 *1438:A1 0.00040018
2 *1443:A1 1.9484e-05
3 *1604:Z 0.000244705
4 *314:6 0.000664369
5 *1438:A1 *1438:A2 0
6 *1438:A1 *1439:A1 6.78911e-05
7 *1438:A1 *1468:I 0
8 *1438:A1 *1606:I 0.000758156
9 *1443:A1 *1606:I 4.83522e-05
10 *314:6 *1439:A1 0.000132868
11 *314:6 *1606:I 0.000433655
12 *1513:D *1438:A1 4.47283e-05
*RES
1 *1604:Z *314:6 7.29 
2 *314:6 *1443:A1 4.77 
3 *314:6 *1438:A1 8.19 
*END

*D_NET *315 0.00918285
*CONN
*I *1400:A2 I *D gf180mcu_fd_sc_mcu7t5v0__nor3_1
*I *1398:A2 I *D gf180mcu_fd_sc_mcu7t5v0__nor3_1
*I *1396:A2 I *D gf180mcu_fd_sc_mcu7t5v0__nor3_1
*I *1402:A2 I *D gf180mcu_fd_sc_mcu7t5v0__nor3_1
*I *1298:A2 I *D gf180mcu_fd_sc_mcu7t5v0__nor4_1
*I *1605:Z O *D gf180mcu_fd_sc_mcu7t5v0__dlyb_1
*CAP
1 *1400:A2 0.000112118
2 *1398:A2 0
3 *1396:A2 0.000514602
4 *1402:A2 0.00047361
5 *1298:A2 0.000401285
6 *1605:Z 0
7 *315:34 0.00064932
8 *315:32 0.000428864
9 *315:19 0.000796548
10 *315:6 0.000542195
11 *1298:A2 *1402:A1 0
12 *1298:A2 *1444:I1 0
13 *1298:A2 *1446:I 0
14 *1298:A2 *316:57 0.000294421
15 *1298:A2 *319:29 0.000127885
16 *1298:A2 *320:10 0
17 *1298:A2 *418:12 1.69023e-06
18 *1396:A2 *1447:I 0.000726739
19 *1396:A2 *1608:I 2.95601e-05
20 *1396:A2 *319:29 0.000415551
21 *1396:A2 *421:8 0
22 *1400:A2 *1400:A1 0.000205482
23 *1402:A2 *1394:A4 0.000570481
24 *1402:A2 *1402:A1 0.000172257
25 *1402:A2 *419:25 0.000450538
26 *1402:A2 *419:27 7.10237e-05
27 *1402:A2 *419:29 0.000436478
28 *1402:A2 *420:16 2.93938e-05
29 *315:19 *319:29 8.81734e-05
30 *315:19 *320:10 0
31 *315:32 *1392:A1 0
32 *315:32 *1397:A1 0.000164219
33 *315:32 *319:29 7.39784e-05
34 *315:32 *421:8 0.000635403
35 *315:34 *421:21 0
36 *1296:A2 *1298:A2 3.87145e-05
37 *1398:A3 *315:32 0.000103468
38 *1398:A3 *315:34 0
39 *1402:A3 *1402:A2 0
40 *1404:A4 *1298:A2 7.55765e-06
41 *1555:RN *1402:A2 0
42 *1557:D *1400:A2 9.04462e-05
43 *1557:D *315:34 0.000417707
44 *1557:CLK *1400:A2 9.34089e-05
45 *203:26 *1298:A2 1.97308e-05
46 *301:48 *1402:A2 0
*RES
1 *1605:Z *315:6 9 
2 *315:6 *1298:A2 12.06 
3 *315:6 *315:19 1.35 
4 *315:19 *1402:A2 13.95 
5 *315:19 *315:32 7.11 
6 *315:32 *315:34 1.17 
7 *315:34 *1396:A2 17.64 
8 *315:34 *1398:A2 4.5 
9 *315:32 *1400:A2 6.03 
*END

*D_NET *316 0.0141236
*CONN
*I *1404:A2 I *D gf180mcu_fd_sc_mcu7t5v0__nor4_1
*I *1605:I I *D gf180mcu_fd_sc_mcu7t5v0__dlyb_1
*I *1302:A2 I *D gf180mcu_fd_sc_mcu7t5v0__nor3_1
*I *1300:A2 I *D gf180mcu_fd_sc_mcu7t5v0__nor3_1
*I *1441:A1 I *D gf180mcu_fd_sc_mcu7t5v0__nor3_1
*I *1606:Z O *D gf180mcu_fd_sc_mcu7t5v0__dlyb_1
*CAP
1 *1404:A2 0.000150167
2 *1605:I 0
3 *1302:A2 0
4 *1300:A2 0
5 *1441:A1 0.000376921
6 *1606:Z 0.000110567
7 *316:57 0.000951556
8 *316:42 0.00146956
9 *316:25 0.00153267
10 *316:8 0.00135199
11 *1404:A2 *1404:A1 4.6613e-06
12 *1404:A2 *319:40 9.07674e-05
13 *1441:A1 *1440:A1 0
14 *1441:A1 *431:10 0
15 *316:8 *431:10 0
16 *316:25 *1468:I 0.000133728
17 *316:25 *1606:I 1.03727e-05
18 *316:25 *336:6 0
19 *316:25 *365:23 0.00070224
20 *316:25 *431:10 0
21 *316:25 *431:25 0
22 *316:42 *1448:I 7.99897e-05
23 *316:42 *318:19 0
24 *316:42 *318:27 0.000601522
25 *316:42 *319:10 1.1402e-05
26 *316:42 *365:23 0.000457927
27 *316:42 *415:29 0.000433797
28 *316:57 *1257:I 0
29 *316:57 *1395:A1 0
30 *316:57 *1447:I 0.00238475
31 *316:57 *1608:I 1.23715e-05
32 *316:57 *318:27 3.97987e-05
33 *316:57 *318:36 0.000264917
34 *316:57 *319:40 0.000283725
35 *1296:A2 *316:57 5.78854e-06
36 *1297:A1 *316:57 6.06287e-05
37 *1297:A2 *316:57 5.78854e-06
38 *1298:A2 *316:57 0.000294421
39 *1299:A2 *316:25 1.39839e-05
40 *1299:A2 *316:42 0.000439429
41 *1395:A2 *316:57 0
42 *1396:A3 *316:42 6.05946e-05
43 *1396:A3 *316:57 6.93035e-05
44 *1401:A2 *1404:A2 1.0415e-05
45 *1404:A4 *1404:A2 2.99208e-05
46 *1404:A4 *316:57 2.38983e-05
47 *1437:A2 *1441:A1 0
48 *1438:A3 *1441:A1 6.81261e-05
49 *1438:A3 *316:8 1.47172e-05
50 *1440:A2 *316:25 0
51 *1514:RN *316:25 0.00022444
52 *1554:D *1404:A2 6.91924e-05
53 *1557:D *316:57 3.01487e-05
54 *1558:D *316:42 2.18242e-05
55 *1558:RN *316:42 0.000551919
56 *1572:I *316:42 0
57 *1572:I *316:57 0.000633364
58 *1579:I *316:57 4.03393e-05
59 *1609:I *316:25 0
60 *1609:I *316:42 0
*RES
1 *1606:Z *316:8 9.81 
2 *316:8 *1441:A1 11.61 
3 *316:8 *316:25 11.79 
4 *316:25 *1300:A2 4.5 
5 *316:25 *316:42 17.46 
6 *316:42 *1302:A2 4.5 
7 *316:42 *316:57 19.35 
8 *316:57 *1605:I 4.5 
9 *316:57 *1404:A2 5.94 
*END

*D_NET *317 0.00538121
*CONN
*I *1606:I I *D gf180mcu_fd_sc_mcu7t5v0__dlyb_1
*I *1604:I I *D gf180mcu_fd_sc_mcu7t5v0__dlyb_1
*I *1603:I I *D gf180mcu_fd_sc_mcu7t5v0__dlyb_1
*I *1607:Z O *D gf180mcu_fd_sc_mcu7t5v0__dlyb_1
*CAP
1 *1606:I 0.000628428
2 *1604:I 9.00416e-05
3 *1603:I 0.000202771
4 *1607:Z 0
5 *317:13 0.000928829
6 *317:4 0.000413131
7 *1606:I *1443:A2 8.69505e-05
8 *1606:I *1468:I 0
9 *1606:I *431:25 0.000945927
10 *317:13 *1439:A1 0
11 *1435:A4 *1603:I 2.30981e-05
12 *1438:A1 *1606:I 0.000758156
13 *1439:A3 *1604:I 0.000283821
14 *1443:A1 *1606:I 4.83522e-05
15 *1443:A3 *1606:I 4.29496e-05
16 *1515:D *1606:I 0.000151427
17 *1607:I *1603:I 0
18 *1607:I *317:13 0
19 *287:27 *1604:I 0.000255088
20 *287:33 *1606:I 7.82122e-05
21 *314:6 *1606:I 0.000433655
22 *316:25 *1606:I 1.03727e-05
*RES
1 *1607:Z *317:4 4.5 
2 *317:4 *1603:I 5.85 
3 *317:4 *317:13 1.35 
4 *317:13 *1604:I 14.85 
5 *317:13 *1606:I 11.79 
*END

*D_NET *318 0.007032
*CONN
*I *1396:A1 I *D gf180mcu_fd_sc_mcu7t5v0__nor3_1
*I *1400:A1 I *D gf180mcu_fd_sc_mcu7t5v0__nor3_1
*I *1398:A1 I *D gf180mcu_fd_sc_mcu7t5v0__nor3_1
*I *1302:A1 I *D gf180mcu_fd_sc_mcu7t5v0__nor3_1
*I *1300:A1 I *D gf180mcu_fd_sc_mcu7t5v0__nor3_1
*I *1608:Z O *D gf180mcu_fd_sc_mcu7t5v0__dlyb_1
*CAP
1 *1396:A1 0
2 *1400:A1 0.000255574
3 *1398:A1 0
4 *1302:A1 0
5 *1300:A1 0.000222077
6 *1608:Z 3.71694e-05
7 *318:36 0.000432732
8 *318:27 0.000228075
9 *318:19 0.000662957
10 *318:6 0.000871287
11 *1400:A1 *319:29 9.3226e-06
12 *318:6 *336:6 3.98088e-05
13 *318:19 *1608:I 0
14 *318:19 *336:6 0.000366234
15 *318:27 *1608:I 9.04462e-05
16 *318:27 *319:10 3.53257e-05
17 *318:36 *1608:I 0.000294431
18 *318:36 *319:29 0.000521561
19 *1299:A2 *1300:A1 0.000458327
20 *1299:A2 *318:6 2.1573e-06
21 *1299:A2 *318:19 3.91546e-05
22 *1300:A3 *1300:A1 3.42509e-05
23 *1396:A3 *318:27 0.000382875
24 *1400:A2 *1400:A1 0.000205482
25 *1557:D *1400:A1 0.000488731
26 *1557:D *318:36 1.39839e-05
27 *1558:D *318:19 0.000433797
28 *299:48 *1300:A1 0
29 *316:42 *318:19 0
30 *316:42 *318:27 0.000601522
31 *316:57 *318:27 3.97987e-05
32 *316:57 *318:36 0.000264917
*RES
1 *1608:Z *318:6 4.77 
2 *318:6 *1300:A1 15.57 
3 *318:6 *318:19 4.95 
4 *318:19 *318:27 10.8 
5 *318:27 *1302:A1 4.5 
6 *318:27 *318:36 2.7 
7 *318:36 *1398:A1 4.5 
8 *318:36 *1400:A1 7.11 
9 *318:19 *1396:A1 4.5 
*END

*D_NET *319 0.0158137
*CONN
*I *1404:A1 I *D gf180mcu_fd_sc_mcu7t5v0__nor4_1
*I *1402:A1 I *D gf180mcu_fd_sc_mcu7t5v0__nor3_1
*I *1444:I1 I *D gf180mcu_fd_sc_mcu7t5v0__mux2_2
*I *1298:A1 I *D gf180mcu_fd_sc_mcu7t5v0__nor4_1
*I *1608:I I *D gf180mcu_fd_sc_mcu7t5v0__dlyb_1
*I *1609:Z O *D gf180mcu_fd_sc_mcu7t5v0__dlyb_1
*CAP
1 *1404:A1 2.57084e-05
2 *1402:A1 0.000571951
3 *1444:I1 0.00067695
4 *1298:A1 0
5 *1608:I 0.000839107
6 *1609:Z 0.000106136
7 *319:42 0.0012489
8 *319:40 0.000249341
9 *319:29 0.000820288
10 *319:10 0.0015419
11 *1402:A1 *1401:A1 0
12 *1402:A1 *1446:I 4.73908e-05
13 *1402:A1 *320:10 9.85004e-05
14 *1402:A1 *420:14 1.18076e-06
15 *1444:I1 *1650:I 0.000165941
16 *1608:I *1395:A1 0
17 *1608:I *336:6 0.000146193
18 *319:29 *1447:I 0.000381215
19 *319:29 *421:8 1.94402e-05
20 *319:29 *421:37 0.00071904
21 *1296:A2 *1444:I1 0
22 *1298:A2 *1402:A1 0
23 *1298:A2 *1444:I1 0
24 *1298:A2 *319:29 0.000127885
25 *1391:A2 *1402:A1 0.000417717
26 *1396:A2 *1608:I 2.95601e-05
27 *1396:A2 *319:29 0.000415551
28 *1396:A3 *319:10 6.97472e-05
29 *1398:A3 *319:29 0.000473735
30 *1400:A1 *319:29 9.3226e-06
31 *1401:A2 *1404:A1 3.01487e-05
32 *1402:A2 *1402:A1 0.000172257
33 *1402:A3 *1402:A1 0.000499457
34 *1404:A2 *1404:A1 4.6613e-06
35 *1404:A2 *319:40 9.07674e-05
36 *1404:A3 *1444:I1 0.000244819
37 *1444:I0 *1444:I1 1.86887e-06
38 *1444:S *1444:I1 0.000247379
39 *1551:D *1608:I 0.000191041
40 *1554:D *1444:I1 0.000194418
41 *1554:RN *1444:I1 0.000705715
42 *1555:D *1402:A1 0.00116765
43 *1555:RN *1402:A1 3.73774e-06
44 *1558:RN *1608:I 4.78178e-05
45 *1562:CLK *1444:I1 0
46 *1572:I *319:10 0.000204547
47 *1579:I *1402:A1 0.000138389
48 *1579:I *1404:A1 3.12451e-05
49 *1579:I *319:40 0.000280375
50 *1621:I *1608:I 0
51 *29:8 *1444:I1 0
52 *203:26 *319:29 0.000587403
53 *261:19 *1402:A1 0.000290734
54 *261:19 *1444:I1 6.51736e-05
55 *315:19 *319:29 8.81734e-05
56 *315:32 *319:29 7.39784e-05
57 *316:42 *319:10 1.1402e-05
58 *316:57 *1608:I 1.23715e-05
59 *316:57 *319:40 0.000283725
60 *318:19 *1608:I 0
61 *318:27 *1608:I 9.04462e-05
62 *318:27 *319:10 3.53257e-05
63 *318:36 *1608:I 0.000294431
64 *318:36 *319:29 0.000521561
*RES
1 *1609:Z *319:10 15.21 
2 *319:10 *1608:I 10.89 
3 *319:10 *319:29 17.64 
4 *319:29 *1298:A1 4.5 
5 *319:29 *319:40 2.61 
6 *319:40 *319:42 4.5 
7 *319:42 *1444:I1 15.84 
8 *319:42 *1402:A1 25.02 
9 *319:40 *1404:A1 4.77 
*END

*D_NET *320 0.00325564
*CONN
*I *1392:A2 I *D gf180mcu_fd_sc_mcu7t5v0__nand2_1
*I *1393:A3 I *D gf180mcu_fd_sc_mcu7t5v0__nand3_1
*I *1394:A4 I *D gf180mcu_fd_sc_mcu7t5v0__nand4_1
*I *1658:Z O *D gf180mcu_fd_sc_mcu7t5v0__clkbuf_1
*CAP
1 *1392:A2 0.000146614
2 *1393:A3 0
3 *1394:A4 0.000273424
4 *1658:Z 0.000117275
5 *320:12 0.000273424
6 *320:10 0.000263889
7 *1392:A2 *1392:A1 0.000302284
8 *1392:A2 *1446:I 0.000427492
9 *1392:A2 *420:16 1.92099e-05
10 *1394:A4 *419:29 0.000153289
11 *1394:A4 *421:37 2.89427e-06
12 *320:10 *1446:I 0.000531209
13 *1298:A2 *320:10 0
14 *1391:A2 *1394:A4 0
15 *1399:A2 *1392:A2 6.56606e-05
16 *1402:A1 *320:10 9.85004e-05
17 *1402:A2 *1394:A4 0.000570481
18 *1557:CLK *1392:A2 9.9891e-06
19 *261:8 *1394:A4 0
20 *315:19 *320:10 0
*RES
1 *1658:Z *320:10 10.62 
2 *320:10 *320:12 4.5 
3 *320:12 *1394:A4 7.11 
4 *320:12 *1393:A3 4.5 
5 *320:10 *1392:A2 10.89 
*END

*D_NET *321 0.00453505
*CONN
*I *1326:A1 I *D gf180mcu_fd_sc_mcu7t5v0__oai22_1
*I *1323:A2 I *D gf180mcu_fd_sc_mcu7t5v0__nor2_1
*I *1319:B I *D gf180mcu_fd_sc_mcu7t5v0__aoi21_1
*I *1322:B2 I *D gf180mcu_fd_sc_mcu7t5v0__oai22_1
*I *1665:Z O *D gf180mcu_fd_sc_mcu7t5v0__clkbuf_1
*CAP
1 *1326:A1 0.000100846
2 *1323:A2 0
3 *1319:B 0.000170665
4 *1322:B2 0
5 *1665:Z 0.000140108
6 *321:25 0.000337388
7 *321:17 0.000484022
8 *321:6 0.000356562
9 *1326:A1 *1318:A2 0.000409976
10 *1326:A1 *1318:A3 5.36846e-05
11 *321:6 *1320:A1 0.000223398
12 *321:17 *1318:A2 3.97987e-05
13 *321:17 *1318:A3 3.97987e-05
14 *1320:A2 *321:6 3.01487e-05
15 *1320:A2 *321:17 0.000365454
16 *1321:A1 *321:6 0
17 *1323:A1 *1319:B 1.61174e-05
18 *1323:A1 *321:25 4.83522e-05
19 *1326:A2 *1319:B 9.04462e-05
20 *1326:A2 *1326:A1 2.79072e-05
21 *1326:A2 *321:17 9.9595e-05
22 *1327:B *1326:A1 0
23 *1328:A2 *1319:B 6.76694e-05
24 *1548:CLK *1319:B 0.000126165
25 *1548:CLK *321:6 6.50197e-06
26 *1548:CLK *321:17 2.23145e-05
27 *1548:CLK *321:25 2.37143e-05
28 *222:10 *1319:B 0.000101615
29 *222:23 *1319:B 0.000375166
30 *223:6 *321:17 0.000359473
31 *227:8 *321:25 3.55118e-05
32 *227:21 *321:25 0.000277903
33 *300:8 *321:6 1.39839e-05
34 *300:10 *321:6 9.07674e-05
*RES
1 *1665:Z *321:6 5.85 
2 *321:6 *1322:B2 4.5 
3 *321:6 *321:17 2.97 
4 *321:17 *321:25 11.16 
5 *321:25 *1319:B 15.75 
6 *321:25 *1323:A2 4.5 
7 *321:17 *1326:A1 6.03 
*END

*D_NET *322 0.00942828
*CONN
*I *1653:I I *D gf180mcu_fd_sc_mcu7t5v0__dlyb_1
*I *1655:Z O *D gf180mcu_fd_sc_mcu7t5v0__dlyb_1
*CAP
1 *1653:I 0.00178349
2 *1655:Z 0.00178349
3 *1653:I *1243:I 7.23429e-05
4 *1653:I *1357:I1 0.00136336
5 *1653:I *1359:I0 0.000195269
6 *1653:I *1359:I1 0
7 *1653:I *1375:A1 5.31432e-05
8 *1653:I *1641:I 2.1578e-05
9 *1653:I *1662:I 0
10 *1653:I *342:50 8.03577e-05
11 *1653:I *347:14 0.000281888
12 *1653:I *347:34 0.000362184
13 *1653:I *347:43 1.32662e-05
14 *1374:A1 *1653:I 5.78854e-06
15 *1524:RN *1653:I 0.000380315
16 *1525:RN *1653:I 0.000948609
17 *1526:RN *1653:I 0.00133231
18 *1533:D *1653:I 0.000744726
19 *1534:D *1653:I 6.17613e-06
20 *311:26 *1653:I 0
*RES
1 *1655:Z *1653:I 38.97 
*END

*D_NET *323 0.00824103
*CONN
*I *1390:S I *D gf180mcu_fd_sc_mcu7t5v0__mux2_2
*I *1387:S I *D gf180mcu_fd_sc_mcu7t5v0__mux2_2
*I *1388:A2 I *D gf180mcu_fd_sc_mcu7t5v0__nand2_1
*I *1383:A2 I *D gf180mcu_fd_sc_mcu7t5v0__oai21_1
*I *1382:A2 I *D gf180mcu_fd_sc_mcu7t5v0__nand2_1
*I *1610:Z O *D gf180mcu_fd_sc_mcu7t5v0__dlyb_1
*CAP
1 *1390:S 6.96238e-05
2 *1387:S 0
3 *1388:A2 1.68771e-05
4 *1383:A2 5.43536e-05
5 *1382:A2 0
6 *1610:Z 0.00019412
7 *323:38 0.000212908
8 *323:21 0.000530901
9 *323:12 0.00080962
10 *323:6 0.000792847
11 *1388:A2 *1387:I0 0.000390584
12 *1388:A2 *1651:I 0.000528649
13 *1388:A2 *374:19 6.05946e-05
14 *1390:S *1643:I 0.000309993
15 *323:6 *1623:I 4.67357e-05
16 *323:6 *346:12 0.000622581
17 *323:12 *1494:I 0
18 *323:12 *1619:I 0.000304787
19 *323:12 *1623:I 0.000143051
20 *323:12 *359:10 0
21 *323:21 *1494:I 0
22 *323:21 *1619:I 3.678e-05
23 *323:21 *324:26 0
24 *323:38 *1388:A1 0
25 *323:38 *1611:I 0.000515537
26 *323:38 *325:10 0
27 *1383:A1 *323:21 3.45237e-05
28 *1383:A1 *323:38 1.78175e-05
29 *1517:D *323:38 7.86261e-05
30 *1521:CLK *1383:A2 0.000294421
31 *1521:CLK *323:38 0.00104783
32 *1612:I *1383:A2 0.00019159
33 *233:18 *323:6 0.000207912
34 *233:18 *323:12 0.000133936
35 *310:35 *1390:S 0
36 *310:35 *323:12 0.000593822
*RES
1 *1610:Z *323:6 6.93 
2 *323:6 *323:12 9.72 
3 *323:12 *1382:A2 9 
4 *323:12 *323:21 1.71 
5 *323:21 *1383:A2 10.08 
6 *323:21 *323:38 7.74 
7 *323:38 *1388:A2 14.85 
8 *323:38 *1387:S 4.5 
9 *323:6 *1390:S 14.31 
*END

*D_NET *324 0.00988074
*CONN
*I *1384:S I *D gf180mcu_fd_sc_mcu7t5v0__mux2_2
*I *1385:A2 I *D gf180mcu_fd_sc_mcu7t5v0__nand2_1
*I *1389:A2 I *D gf180mcu_fd_sc_mcu7t5v0__oai21_1
*I *1386:A2 I *D gf180mcu_fd_sc_mcu7t5v0__oai21_1
*I *1610:I I *D gf180mcu_fd_sc_mcu7t5v0__dlyb_1
*I *1611:Z O *D gf180mcu_fd_sc_mcu7t5v0__dlyb_1
*CAP
1 *1384:S 0
2 *1385:A2 0.000206896
3 *1389:A2 0.000162966
4 *1386:A2 0.000162513
5 *1610:I 0.000712402
6 *1611:Z 0.00044745
7 *324:37 0.000411672
8 *324:26 0.000551725
9 *324:20 0.000612354
10 *1385:A2 *1245:I 4.34121e-06
11 *1385:A2 *378:25 7.00009e-05
12 *1386:A2 *1388:A1 0.000100101
13 *1389:A2 *1388:A1 0
14 *1610:I *1387:I1 5.09656e-05
15 *1610:I *1494:I 0.000240538
16 *1610:I *359:10 0
17 *1610:I *359:14 0.000296172
18 *324:26 *1384:I0 0.000282055
19 *324:26 *1619:I 9.83962e-05
20 *324:26 *378:25 3.60189e-05
21 *324:37 *378:25 9.91262e-05
22 *1383:A1 *1385:A2 0.00016201
23 *1383:A1 *324:26 0.000504483
24 *1383:A1 *324:37 0.000206807
25 *1516:SETN *1610:I 0.000139586
26 *1518:D *1610:I 0.000109215
27 *1520:D *324:26 8.54106e-06
28 *1520:CLK *324:20 0.000174129
29 *1520:CLK *324:26 3.97987e-05
30 *1521:D *324:26 0.000593822
31 *1521:CLK *1610:I 0
32 *144:8 *324:26 0.000653857
33 *154:6 *1385:A2 2.95601e-05
34 *294:7 *1385:A2 0.000158326
35 *294:7 *1386:A2 0
36 *294:7 *1389:A2 9.82827e-05
37 *310:22 *324:20 0.000390446
38 *311:36 *1610:I 0
39 *311:36 *324:20 0.00197573
40 *311:36 *324:26 9.04462e-05
41 *323:21 *324:26 0
*RES
1 *1611:Z *1610:I 13.68 
2 *1610:I *324:20 9.81 
3 *324:20 *324:26 10.62 
4 *324:26 *1386:A2 10.17 
5 *324:26 *324:37 1.17 
6 *324:37 *1389:A2 10.17 
7 *324:37 *1385:A2 11.16 
8 *324:20 *1384:S 4.5 
*END

*D_NET *325 0.00818962
*CONN
*I *1611:I I *D gf180mcu_fd_sc_mcu7t5v0__dlyb_1
*I *1381:A2 I *D gf180mcu_fd_sc_mcu7t5v0__oai21_1
*I *1379:A2 I *D gf180mcu_fd_sc_mcu7t5v0__aoi21_1
*I *1378:A2 I *D gf180mcu_fd_sc_mcu7t5v0__nor2_1
*I *1380:A2 I *D gf180mcu_fd_sc_mcu7t5v0__nand2_1
*I *1612:Z O *D gf180mcu_fd_sc_mcu7t5v0__dlyb_1
*CAP
1 *1611:I 0.000269713
2 *1381:A2 0.000376293
3 *1379:A2 0
4 *1378:A2 0.000269505
5 *1380:A2 0
6 *1612:Z 0
7 *325:23 0.000354107
8 *325:19 0.00075721
9 *325:10 0.00123243
10 *325:4 0.00120583
11 *1378:A2 *354:29 9.20321e-05
12 *1378:A2 *354:53 4.08007e-05
13 *1381:A2 *1378:A1 6.84426e-06
14 *1611:I *1388:A1 0
15 *325:10 *1234:I 0.000390584
16 *325:10 *1388:A1 0.00176017
17 *325:10 *1618:I 0
18 *1379:A1 *1378:A2 0.000255088
19 *1379:A1 *325:10 0
20 *1379:A1 *325:19 0
21 *1381:B *1381:A2 0
22 *1381:B *325:19 0
23 *1383:A1 *1611:I 0
24 *1517:D *1611:I 0
25 *1519:D *325:10 0
26 *1519:CLK *325:10 0.00013069
27 *1521:D *325:10 3.24315e-05
28 *1521:CLK *325:10 0
29 *1523:D *1381:A2 7.191e-07
30 *1523:D *325:23 6.317e-05
31 *1523:CLK *325:23 0.000436469
32 *1612:I *325:10 0
33 *143:10 *325:10 0
34 *143:12 *325:10 0
35 *323:38 *1611:I 0.000515537
36 *323:38 *325:10 0
*RES
1 *1612:Z *325:4 4.5 
2 *325:4 *325:10 13.5 
3 *325:10 *1380:A2 9 
4 *325:10 *325:19 1.71 
5 *325:19 *325:23 5.67 
6 *325:23 *1378:A2 15.84 
7 *325:23 *1379:A2 4.5 
8 *325:19 *1381:A2 12.24 
9 *325:4 *1611:I 16.02 
*END

*D_NET *326 0.0143469
*CONN
*I *1376:A2 I *D gf180mcu_fd_sc_mcu7t5v0__aoi21_1
*I *1375:A2 I *D gf180mcu_fd_sc_mcu7t5v0__nor2_1
*I *1369:A2 I *D gf180mcu_fd_sc_mcu7t5v0__nor2_1
*I *1372:A2 I *D gf180mcu_fd_sc_mcu7t5v0__aoi21_1
*I *1371:A2 I *D gf180mcu_fd_sc_mcu7t5v0__nor2_1
*I *1613:Z O *D gf180mcu_fd_sc_mcu7t5v0__dlyb_1
*CAP
1 *1376:A2 3.44897e-05
2 *1375:A2 0.000284507
3 *1369:A2 0.000280333
4 *1372:A2 0
5 *1371:A2 0.000212662
6 *1613:Z 0
7 *326:41 0.000730647
8 *326:10 0.000261334
9 *326:8 0.000580699
10 *326:4 0.000663345
11 *1369:A2 *1369:A1 0.000197599
12 *1369:A2 *341:12 3.55431e-05
13 *1371:A2 *341:12 6.85018e-05
14 *1375:A2 *1488:I 1.0415e-05
15 *1375:A2 *347:14 3.30832e-05
16 *1375:A2 *348:33 0.000252854
17 *326:8 *341:12 0.000158788
18 *326:8 *345:56 2.76434e-05
19 *326:8 *396:14 0
20 *326:10 *341:12 0.000217308
21 *326:41 *345:56 0
22 *326:41 *348:33 5.57178e-05
23 *1279:B2 *1369:A2 0.000151165
24 *1292:B1 *1369:A2 3.73774e-06
25 *1370:A1 *1369:A2 0.0022788
26 *1372:A1 *1369:A2 0.002365
27 *1372:A1 *1371:A2 0.000182206
28 *1372:A1 *326:10 0.000471642
29 *1372:B *1371:A2 0.000937601
30 *1376:A1 *1375:A2 0.000365454
31 *1524:D *326:41 9.30128e-05
32 *1526:D *326:8 0.00023506
33 *1527:RN *1369:A2 4.20744e-05
34 *1533:CLK *1375:A2 0
35 *1534:RN *1375:A2 1.6462e-05
36 *1538:RN *1371:A2 0.00236547
37 *1597:I *1369:A2 4.97417e-05
38 *294:19 *1369:A2 0
39 *302:19 *326:8 0.00055835
40 *302:27 *326:8 0.000125658
41 *305:20 *1375:A2 0
42 *305:20 *326:41 0
*RES
1 *1613:Z *326:4 4.5 
2 *326:4 *326:8 7.47 
3 *326:8 *326:10 1.35 
4 *326:10 *1371:A2 15.57 
5 *326:10 *1372:A2 9 
6 *326:8 *1369:A2 17.46 
7 *326:4 *326:41 2.7 
8 *326:41 *1375:A2 7.38 
9 *326:41 *1376:A2 4.77 
*END

*D_NET *327 0.00493933
*CONN
*I *1374:A2 I *D gf180mcu_fd_sc_mcu7t5v0__aoi21_1
*I *1373:A2 I *D gf180mcu_fd_sc_mcu7t5v0__nor2_1
*I *1370:A2 I *D gf180mcu_fd_sc_mcu7t5v0__aoi21_1
*I *1614:Z O *D gf180mcu_fd_sc_mcu7t5v0__dlyb_1
*CAP
1 *1374:A2 0.000177309
2 *1373:A2 0.0002791
3 *1370:A2 9.49304e-05
4 *1614:Z 0.000776042
5 *327:20 0.00113752
6 *1370:A2 *330:10 2.30981e-05
7 *1374:A2 *1290:A4 9.63432e-05
8 *1374:A2 *382:8 0.000404734
9 *327:20 *1613:I 2.37415e-05
10 *327:20 *330:10 0
11 *327:20 *342:50 0.000429877
12 *1358:S *1374:A2 2.12956e-05
13 *1374:B *1373:A2 0.000169603
14 *1374:B *327:20 4.6613e-06
15 *1524:RN *1373:A2 3.80346e-05
16 *1527:CLK *327:20 0.000428433
17 *305:20 *327:20 0.000834606
*RES
1 *1614:Z *1370:A2 9.72 
2 *1614:Z *327:20 10.89 
3 *327:20 *1373:A2 6.57 
4 *327:20 *1374:A2 15.03 
*END

*D_NET *328 0.00609647
*CONN
*I *1361:A2 I *D gf180mcu_fd_sc_mcu7t5v0__nand2_1
*I *1365:A2 I *D gf180mcu_fd_sc_mcu7t5v0__nand2_1
*I *1368:A2 I *D gf180mcu_fd_sc_mcu7t5v0__aoi21_1
*I *1366:A2 I *D gf180mcu_fd_sc_mcu7t5v0__oai21_1
*I *1367:A2 I *D gf180mcu_fd_sc_mcu7t5v0__nor2_1
*I *1615:Z O *D gf180mcu_fd_sc_mcu7t5v0__dlyb_1
*CAP
1 *1361:A2 0.00025074
2 *1365:A2 0
3 *1368:A2 0.00026331
4 *1366:A2 0
5 *1367:A2 5.11649e-05
6 *1615:Z 4.71093e-05
7 *328:47 0.000756272
8 *328:32 0.000932278
9 *328:10 0.000329584
10 *328:6 0.000488963
11 *1361:A2 *1361:A1 0.000155486
12 *1361:A2 *1616:I 3.22348e-05
13 *1367:A2 *1330:A4 3.97987e-05
14 *1367:A2 *1347:A1 6.30259e-05
15 *1367:A2 *398:27 3.22122e-05
16 *1368:A2 *1387:I1 0.00020928
17 *328:10 *1347:A1 1.17934e-05
18 *328:10 *332:16 0
19 *328:10 *342:50 0
20 *328:10 *400:36 0
21 *328:47 *1387:I1 0.000132742
22 *328:47 *1635:I 0.000593822
23 *328:47 *332:16 1.03751e-05
24 *328:47 *400:36 5.59795e-06
25 *1366:A1 *1367:A2 0.000109332
26 *1366:A1 *328:10 6.85018e-05
27 *1366:B *328:47 3.8796e-05
28 *1368:B *1368:A2 8.29487e-05
29 *1368:B *328:6 3.01487e-05
30 *1368:B *328:10 0.000170423
31 *1528:D *1368:A2 0.000362773
32 *1531:D *1361:A2 0.00022651
33 *1581:I *328:47 1.18076e-06
34 *1617:I *328:47 7.55765e-06
35 *294:65 *1361:A2 0.000120027
36 *294:65 *328:47 6.10032e-05
37 *307:19 *1361:A2 4.78068e-05
38 *307:23 *1361:A2 0.000166364
39 *307:23 *328:47 0.000164228
40 *311:26 *328:6 2.76434e-05
41 *311:26 *328:32 5.43866e-06
42 *311:26 *328:47 0
*RES
1 *1615:Z *328:6 5.13 
2 *328:6 *328:10 6.75 
3 *328:10 *1367:A2 9.9 
4 *328:10 *1366:A2 9 
5 *328:6 *328:32 0.9 
6 *328:32 *1368:A2 7.74 
7 *328:32 *328:47 9.18 
8 *328:47 *1365:A2 9 
9 *328:47 *1361:A2 11.97 
*END

*D_NET *329 0.00754144
*CONN
*I *1362:A2 I *D gf180mcu_fd_sc_mcu7t5v0__oai21_1
*I *1364:A2 I *D gf180mcu_fd_sc_mcu7t5v0__aoi21_1
*I *1363:A2 I *D gf180mcu_fd_sc_mcu7t5v0__nor2_1
*I *1616:Z O *D gf180mcu_fd_sc_mcu7t5v0__dlyb_1
*CAP
1 *1362:A2 1.89056e-05
2 *1364:A2 0
3 *1363:A2 0.00035838
4 *1616:Z 0.000123234
5 *329:16 0.000814133
6 *329:10 0.000597892
7 *1363:A2 *1363:A1 0.0013309
8 *1363:A2 *1483:I 0.000248359
9 *1363:A2 *387:12 6.23927e-05
10 *329:10 *1385:A1 0.000326769
11 *329:16 *1365:A1 4.00895e-05
12 *329:16 *1616:I 2.09362e-05
13 *329:16 *350:8 0.000618666
14 *1364:A1 *1363:A2 0.000789353
15 *1364:B *1363:A2 0.000624778
16 *1364:B *329:16 1.86887e-06
17 *1379:A1 *329:10 0.000270991
18 *1519:CLK *329:16 0
19 *1530:CLK *329:16 0
20 *1531:D *1362:A2 9.04462e-05
21 *1531:D *329:16 0.000136523
22 *1542:RN *1362:A2 1.23607e-05
23 *1542:RN *329:16 0.000308038
24 *1585:I *329:10 1.37669e-05
25 *143:10 *329:10 0.000726748
26 *294:9 *1363:A2 5.91751e-06
*RES
1 *1616:Z *329:10 16.11 
2 *329:10 *329:16 4.41 
3 *329:16 *1363:A2 19.62 
4 *329:16 *1364:A2 4.5 
5 *329:10 *1362:A2 4.77 
*END

*D_NET *330 0.00924396
*CONN
*I *1616:I I *D gf180mcu_fd_sc_mcu7t5v0__dlyb_1
*I *1615:I I *D gf180mcu_fd_sc_mcu7t5v0__dlyb_1
*I *1614:I I *D gf180mcu_fd_sc_mcu7t5v0__dlyb_1
*I *1613:I I *D gf180mcu_fd_sc_mcu7t5v0__dlyb_1
*I *1617:Z O *D gf180mcu_fd_sc_mcu7t5v0__dlyb_1
*CAP
1 *1616:I 0.000820752
2 *1615:I 0
3 *1614:I 0.00102941
4 *1613:I 0.000548529
5 *1617:Z 0.000175222
6 *330:10 0.0010922
7 *330:6 0.000510238
8 *1613:I *1387:I1 5.23429e-06
9 *1613:I *1627:I 9.04462e-05
10 *1613:I *396:14 0.000134951
11 *1614:I *342:50 1.85805e-05
12 *1616:I *1361:A1 0.000223407
13 *1616:I *342:50 0
14 *1616:I *347:43 0
15 *1616:I *350:8 3.73774e-06
16 *330:6 *1387:I1 0.000201668
17 *330:10 *1387:I1 0.000270494
18 *330:10 *342:50 0
19 *1361:A2 *1616:I 3.22348e-05
20 *1364:B *1616:I 0.000636033
21 *1366:B *330:6 2.31089e-05
22 *1368:A1 *1614:I 4.86572e-05
23 *1370:A1 *1613:I 0.000209583
24 *1370:A1 *330:10 0.000234115
25 *1370:A2 *330:10 2.30981e-05
26 *1370:B *1614:I 0.000422832
27 *1527:D *1614:I 0.00032999
28 *1527:CLK *1613:I 5.36351e-05
29 *1528:RN *1614:I 0.000119951
30 *1528:RN *1616:I 0.000127736
31 *1529:SETN *330:6 0.000444513
32 *1529:SETN *330:10 0.000444513
33 *1530:CLK *330:6 4.64756e-05
34 *1531:D *1616:I 0.000152904
35 *294:7 *1616:I 0.000116964
36 *294:9 *1616:I 0.000530345
37 *305:20 *1613:I 7.77173e-05
38 *327:20 *1613:I 2.37415e-05
39 *327:20 *330:10 0
40 *329:16 *1616:I 2.09362e-05
*RES
1 *1617:Z *330:6 6.75 
2 *330:6 *330:10 3.6 
3 *330:10 *1613:I 8.91 
4 *330:10 *1614:I 16.74 
5 *330:6 *1615:I 4.5 
6 *1614:I *1616:I 16.92 
*END

*D_NET *331 0.0164485
*CONN
*I *1345:A2 I *D gf180mcu_fd_sc_mcu7t5v0__nand2_1
*I *1351:S I *D gf180mcu_fd_sc_mcu7t5v0__mux2_2
*I *1352:S I *D gf180mcu_fd_sc_mcu7t5v0__mux2_2
*I *1354:S I *D gf180mcu_fd_sc_mcu7t5v0__mux2_2
*I *1353:S I *D gf180mcu_fd_sc_mcu7t5v0__mux2_2
*I *1618:Z O *D gf180mcu_fd_sc_mcu7t5v0__dlyb_1
*CAP
1 *1345:A2 2.79629e-05
2 *1351:S 1.24169e-05
3 *1352:S 0.000219765
4 *1354:S 0.000201172
5 *1353:S 0.000483726
6 *1618:Z 0.000124223
7 *331:20 0.000910405
8 *331:18 0.000757772
9 *331:16 0.000810939
10 *331:10 0.000638209
11 *1345:A2 *1345:A1 0.000398285
12 *1345:A2 *345:10 3.22348e-05
13 *1351:S *1330:A4 9.84908e-05
14 *1351:S *1490:I 3.97987e-05
15 *1352:S *1652:I 0.000212793
16 *1353:S *1353:I0 0.000365445
17 *1353:S *1353:I1 0.000471292
18 *1353:S *1354:I1 5.22248e-06
19 *1353:S *1492:I 0.000302466
20 *1353:S *349:23 0
21 *1354:S *1353:I1 4.15093e-05
22 *331:10 *1385:A1 0.000319765
23 *331:16 *1345:A1 0.00101428
24 *331:16 *1490:I 1.91431e-05
25 *331:16 *342:50 6.98563e-05
26 *331:16 *345:35 0.000461269
27 *331:16 *397:12 3.32456e-05
28 *331:16 *400:8 9.30289e-05
29 *331:18 *1352:I0 1.58979e-05
30 *331:18 *1492:I 0
31 *331:18 *342:50 0.000100547
32 *331:18 *397:12 3.58376e-05
33 *331:20 *1353:I1 1.47998e-05
34 *331:20 *1492:I 0
35 *331:20 *342:10 0.000106439
36 *1366:B *331:16 0.000823894
37 *1536:D *1353:S 0.000522192
38 *1536:D *331:20 0.000828322
39 *1536:CLK *1352:S 0.000507502
40 *1536:CLK *331:20 0
41 *1537:CLK *1353:S 0
42 *1539:D *331:18 0.00023711
43 *1539:D *331:20 0.000455757
44 *1539:RN *331:16 0.000231442
45 *1539:CLK *1354:S 7.191e-07
46 *143:12 *331:10 0.000768787
47 *245:24 *1352:S 0.00148497
48 *311:26 *1345:A2 0.000496776
49 *311:26 *331:16 0.00165281
*RES
1 *1618:Z *331:10 15.57 
2 *331:10 *331:16 12.96 
3 *331:16 *331:18 2.43 
4 *331:18 *331:20 3.33 
5 *331:20 *1353:S 14.4 
6 *331:20 *1354:S 10.17 
7 *331:18 *1352:S 13.05 
8 *331:16 *1351:S 9.27 
9 *331:10 *1345:A2 5.85 
*END

*D_NET *332 0.00671455
*CONN
*I *1346:A2 I *D gf180mcu_fd_sc_mcu7t5v0__oai21_1
*I *1347:A2 I *D gf180mcu_fd_sc_mcu7t5v0__nor2_1
*I *1348:A2 I *D gf180mcu_fd_sc_mcu7t5v0__aoi21_1
*I *1619:Z O *D gf180mcu_fd_sc_mcu7t5v0__dlyb_1
*CAP
1 *1346:A2 0.000197401
2 *1347:A2 6.80567e-06
3 *1348:A2 0.000209908
4 *1619:Z 0.00104185
5 *332:18 0.000255943
6 *332:16 0.00127848
7 *1346:A2 *1652:I 3.60989e-06
8 *1348:A2 *1623:I 8.27731e-05
9 *332:16 *1347:A1 7.1545e-05
10 *332:16 *1387:I1 0
11 *332:16 *1635:I 2.67326e-05
12 *332:16 *400:12 0.000301253
13 *332:16 *400:36 0.000321911
14 *1540:RN *332:16 0.000319529
15 *1542:D *332:16 5.3725e-05
16 *1542:CLK *332:16 0.000707348
17 *1596:I *1346:A2 0.000478014
18 *1617:I *332:16 0.000119182
19 *144:41 *1346:A2 1.29736e-05
20 *144:41 *1348:A2 3.53326e-05
21 *144:41 *332:16 0.000428239
22 *245:24 *1346:A2 7.33918e-05
23 *245:24 *1347:A2 5.55466e-05
24 *245:24 *1348:A2 0.000113462
25 *245:24 *332:16 3.8796e-05
26 *304:19 *332:16 9.47816e-05
27 *304:23 *1348:A2 1.37601e-05
28 *311:26 *332:16 0.000361875
29 *328:10 *332:16 0
30 *328:47 *332:16 1.03751e-05
*RES
1 *1619:Z *332:16 19.53 
2 *332:16 *332:18 0.27 
3 *332:18 *1348:A2 10.8 
4 *332:18 *1347:A2 9.45 
5 *332:16 *1346:A2 10.71 
*END

*D_NET *333 0.000792873
*CONN
*I *1571:D I *D gf180mcu_fd_sc_mcu7t5v0__dffsnq_1
*I *1656:Z O *D gf180mcu_fd_sc_mcu7t5v0__dlyb_1
*CAP
1 *1571:D 0.000371078
2 *1656:Z 0.000371078
3 *1571:D *395:10 0
4 *1342:A2 *1571:D 2.65444e-06
5 *1342:B *1571:D 0
6 *1656:I *1571:D 4.8063e-05
*RES
1 *1656:Z *1571:D 11.7 
*END

*D_NET *334 0.0131471
*CONN
*I *1618:I I *D gf180mcu_fd_sc_mcu7t5v0__dlyb_1
*I *1350:A2 I *D gf180mcu_fd_sc_mcu7t5v0__oai21_1
*I *1619:I I *D gf180mcu_fd_sc_mcu7t5v0__dlyb_1
*I *1349:A2 I *D gf180mcu_fd_sc_mcu7t5v0__nand2_1
*I *1355:S I *D gf180mcu_fd_sc_mcu7t5v0__mux2_2
*I *1620:Z O *D gf180mcu_fd_sc_mcu7t5v0__dlyb_1
*CAP
1 *1618:I 0.000276787
2 *1350:A2 0
3 *1619:I 0.000799361
4 *1349:A2 6.88822e-05
5 *1355:S 0.000491385
6 *1620:Z 0.000136848
7 *334:31 0.000763514
8 *334:27 0.000906589
9 *334:8 0.00136276
10 *1349:A2 *1384:I1 0.000365445
11 *1349:A2 *1623:I 0.000108991
12 *1355:S *1355:I0 0
13 *1355:S *1645:I 0.000620939
14 *1355:S *1651:I 0
15 *1355:S *363:52 0.000267803
16 *1618:I *1387:I1 7.34276e-05
17 *1619:I *1384:I0 0
18 *1619:I *1387:I1 0.00102907
19 *1619:I *1494:I 0.000361621
20 *334:8 *406:10 0.000476555
21 *334:27 *1355:I0 4.89937e-05
22 *334:27 *1390:I0 0.000109569
23 *334:27 *1390:I1 6.29769e-05
24 *334:27 *1630:I 0.000243412
25 *334:27 *1631:I 5.53103e-05
26 *334:27 *1651:I 0
27 *334:27 *1652:I 4.80547e-05
28 *334:27 *363:52 0.000299004
29 *1350:A1 *1619:I 2.36954e-05
30 *1350:A1 *334:31 0.000209401
31 *1356:A2 *334:31 0
32 *1383:B *1619:I 0.000169515
33 *1516:D *334:27 0.000166843
34 *1516:CLK *334:27 8.64536e-05
35 *1519:CLK *1618:I 0.000129307
36 *1535:D *1355:S 0.000598962
37 *1535:RN *334:8 3.01487e-05
38 *1535:RN *334:27 0
39 *1540:D *334:27 0.00035741
40 *1612:I *1618:I 0.000436478
41 *1612:I *1619:I 1.78052e-05
42 *1620:I *334:8 0
43 *144:8 *1619:I 0.00059669
44 *144:25 *1349:A2 0.000496776
45 *233:18 *1349:A2 2.09122e-05
46 *309:19 *1355:S 0.000285829
47 *310:35 *1619:I 7.95552e-06
48 *310:35 *334:31 9.56225e-05
49 *323:12 *1619:I 0.000304787
50 *323:21 *1619:I 3.678e-05
51 *324:26 *1619:I 9.83962e-05
52 *325:10 *1618:I 0
*RES
1 *1620:Z *334:8 10.35 
2 *334:8 *1355:S 14.31 
3 *334:8 *334:27 11.7 
4 *334:27 *334:31 6.21 
5 *334:31 *1349:A2 10.71 
6 *334:31 *1619:I 26.01 
7 *334:27 *1350:A2 4.5 
8 *1619:I *1618:I 11.88 
*END

*D_NET *335 0.0127064
*CONN
*I *1435:A2 I *D gf180mcu_fd_sc_mcu7t5v0__nor4_1
*I *1432:A2 I *D gf180mcu_fd_sc_mcu7t5v0__nor4_1
*I *1429:A2 I *D gf180mcu_fd_sc_mcu7t5v0__nor3_1
*I *1422:A3 I *D gf180mcu_fd_sc_mcu7t5v0__nor3_1
*I *1425:A2 I *D gf180mcu_fd_sc_mcu7t5v0__nor3_1
*I *1621:Z O *D gf180mcu_fd_sc_mcu7t5v0__dlyb_1
*CAP
1 *1435:A2 0
2 *1432:A2 7.25286e-05
3 *1429:A2 0.000139289
4 *1422:A3 0.000403138
5 *1425:A2 0
6 *1621:Z 0.000172901
7 *335:44 0.000380571
8 *335:26 0.000936231
9 *335:20 0.00111707
10 *335:12 0.000588121
11 *1422:A3 *1279:B1 2.93938e-05
12 *1422:A3 *1290:A4 3.23408e-05
13 *1422:A3 *1637:I 0.000160044
14 *1422:A3 *352:30 5.79792e-06
15 *1432:A2 *1638:I 0.000121032
16 *335:12 *1285:B1 0.000372606
17 *335:12 *429:29 0.000177167
18 *335:20 *1240:I 0.000226494
19 *335:20 *429:18 9.04462e-05
20 *335:20 *429:29 0.000955367
21 *335:26 *1279:B1 0.000161713
22 *335:26 *1290:A2 9.04462e-05
23 *335:26 *1290:A4 0.000105299
24 *335:26 *1481:I 0.000213904
25 *335:26 *1637:I 8.05909e-05
26 *335:26 *1638:I 0.000598729
27 *335:26 *357:10 0.000113639
28 *335:26 *357:27 0.000147441
29 *335:44 *1638:I 0.000297415
30 *1276:A2 *335:20 0
31 *1280:B *335:26 6.84426e-06
32 *1280:C *335:20 2.50036e-05
33 *1282:A1 *335:12 2.48332e-05
34 *1422:A2 *1422:A3 0.00143148
35 *1425:A1 *1422:A3 0.000384429
36 *1431:A1 *335:20 0.000240548
37 *1432:A1 *1429:A2 4.12003e-05
38 *1432:A1 *1432:A2 0.000169524
39 *1432:A4 *1429:A2 1.11402e-05
40 *1432:A4 *1432:A2 0
41 *1509:D *1422:A3 0.000342416
42 *1510:D *1429:A2 4.45729e-05
43 *1512:CLK *335:20 0.000205482
44 *1584:I *335:26 0.000190974
45 *167:8 *1432:A2 6.23828e-05
46 *167:10 *1432:A2 2.70125e-05
47 *167:10 *335:44 0.000186245
48 *167:31 *335:26 0.000197484
49 *167:31 *335:44 8.68398e-06
50 *182:12 *335:20 1.51e-05
51 *190:14 *335:12 0.0003293
52 *282:8 *335:20 9.39809e-05
53 *287:10 *335:12 1.61174e-05
54 *287:10 *335:20 0.000112966
55 *287:27 *335:12 0.000101505
56 *294:19 *335:26 0.00012755
57 *306:30 *335:20 0.000319181
58 *306:37 *335:20 0.000188364
59 *313:27 *335:20 1.23607e-05
*RES
1 *1621:Z *335:12 16.02 
2 *335:12 *335:20 10.35 
3 *335:20 *335:26 11.34 
4 *335:26 *1425:A2 4.5 
5 *335:26 *1422:A3 10.53 
6 *335:20 *335:44 2.07 
7 *335:44 *1429:A2 9.99 
8 *335:44 *1432:A2 10.26 
9 *335:12 *1435:A2 4.5 
*END

*D_NET *336 0.00856475
*CONN
*I *1294:A2 I *D gf180mcu_fd_sc_mcu7t5v0__nand2_1
*I *1301:A2 I *D gf180mcu_fd_sc_mcu7t5v0__xor2_1
*I *1438:A2 I *D gf180mcu_fd_sc_mcu7t5v0__nor3_1
*I *1443:A2 I *D gf180mcu_fd_sc_mcu7t5v0__nor3_1
*I *1441:A2 I *D gf180mcu_fd_sc_mcu7t5v0__nor3_1
*I *1622:Z O *D gf180mcu_fd_sc_mcu7t5v0__dlyb_1
*CAP
1 *1294:A2 0.000237669
2 *1301:A2 0.000365518
3 *1438:A2 0.000294262
4 *1443:A2 0.000205249
5 *1441:A2 0.000123131
6 *1622:Z 0
7 *336:43 0.000603187
8 *336:17 0.00064905
9 *336:6 0.00138896
10 *336:4 0.00111629
11 *1294:A2 *1448:I 2.36813e-05
12 *1294:A2 *365:23 3.55118e-05
13 *1294:A2 *415:12 4.34691e-05
14 *1294:A2 *415:29 0.000215448
15 *1301:A2 *415:29 0.000197484
16 *1438:A2 *1437:A1 9.39061e-05
17 *1438:A2 *1468:I 3.97987e-05
18 *1438:A2 *430:8 3.55431e-05
19 *1438:A2 *430:14 0.000301607
20 *1438:A2 *431:29 1.52191e-05
21 *1441:A2 *1640:I 0
22 *1443:A2 *430:14 0.00015547
23 *1443:A2 *431:25 1.23715e-05
24 *336:17 *430:14 8.49208e-05
25 *336:17 *431:25 4.78302e-05
26 *1302:A3 *1301:A2 3.01487e-05
27 *1436:A2 *1438:A2 2.8953e-05
28 *1437:A2 *336:17 9.90362e-06
29 *1438:A1 *1438:A2 0
30 *1438:A3 *1438:A2 0.000158373
31 *1440:A2 *336:6 0.000335494
32 *1440:A2 *336:17 6.54245e-05
33 *1441:A3 *1441:A2 3.5238e-06
34 *1441:A3 *336:6 0.000391023
35 *1513:D *1438:A2 1.07374e-05
36 *1514:D *336:6 3.65543e-05
37 *1552:RN *336:6 0
38 *1558:D *1294:A2 2.36152e-06
39 *1606:I *1443:A2 8.69505e-05
40 *1608:I *336:6 0.000146193
41 *201:14 *1301:A2 9.89629e-06
42 *287:33 *1443:A2 0.00022992
43 *287:33 *336:17 4.2353e-05
44 *299:35 *1301:A2 7.65604e-05
45 *299:48 *1294:A2 8.60058e-05
46 *299:48 *1301:A2 0.000122753
47 *316:25 *336:6 0
48 *318:6 *336:6 3.98088e-05
49 *318:19 *336:6 0.000366234
*RES
1 *1622:Z *336:4 4.5 
2 *336:4 *336:6 9.63 
3 *336:6 *1441:A2 5.22 
4 *336:6 *336:17 1.35 
5 *336:17 *1443:A2 6.48 
6 *336:17 *1438:A2 16.47 
7 *336:4 *336:43 4.5 
8 *336:43 *1301:A2 12.42 
9 *336:43 *1294:A2 11.34 
*END

*D_NET *337 0.0095439
*CONN
*I *1311:A2 I *D gf180mcu_fd_sc_mcu7t5v0__nand2_1
*I *1252:I I *D gf180mcu_fd_sc_mcu7t5v0__clkinv_1
*I *1303:A2 I *D gf180mcu_fd_sc_mcu7t5v0__nor2_1
*I *1304:A3 I *D gf180mcu_fd_sc_mcu7t5v0__nor3_1
*I *1569:D I *D gf180mcu_fd_sc_mcu7t5v0__dffsnq_1
*I *1623:Z O *D gf180mcu_fd_sc_mcu7t5v0__dlyb_1
*CAP
1 *1311:A2 4.13332e-05
2 *1252:I 0.000263951
3 *1303:A2 0.000108195
4 *1304:A3 4.62897e-05
5 *1569:D 0.000230127
6 *1623:Z 0
7 *337:44 0.000740305
8 *337:25 0.00102923
9 *337:19 0.000915828
10 *337:4 0.000489842
11 *1252:I *340:17 0.000254217
12 *1252:I *412:8 0
13 *1303:A2 *340:17 0.000217317
14 *1304:A3 *1304:A1 0.000307432
15 *1311:A2 *1311:A1 3.55118e-05
16 *1311:A2 *1624:I 0.000215777
17 *1569:D *1623:I 2.78989e-05
18 *1569:D *411:12 0
19 *337:19 *1311:A1 7.00009e-05
20 *337:19 *1413:A1 0.00017514
21 *337:19 *1416:A1 1.63935e-05
22 *337:19 *1624:I 0.00069288
23 *337:19 *411:12 8.12856e-06
24 *337:19 *411:19 5.36435e-05
25 *337:44 *339:8 0.000506251
26 *337:44 *339:30 0.000140022
27 *337:44 *413:18 0.000194147
28 *1410:B2 *1569:D 0.000896347
29 *1410:B2 *337:19 4.0497e-05
30 *1420:B1 *337:44 2.08301e-05
31 *1421:A2 *1311:A2 7.01474e-05
32 *1518:CLK *1569:D 0.000192205
33 *1562:RN *1569:D 9.99635e-05
34 *1562:RN *337:19 0.000685085
35 *1569:CLK *337:19 0
36 *1569:CLK *337:44 0.000259821
37 *160:16 *1304:A3 1.90142e-05
38 *213:20 *1252:I 2.70694e-05
39 *233:18 *1252:I 0.000127744
40 *233:18 *1303:A2 9.58064e-05
41 *233:24 *1303:A2 8.43025e-06
42 *297:25 *337:44 6.2979e-05
43 *312:16 *1304:A3 0.000158097
*RES
1 *1623:Z *337:4 4.5 
2 *337:4 *1569:D 7.92 
3 *337:4 *337:19 8.46 
4 *337:19 *337:25 12.15 
5 *337:25 *1304:A3 9.99 
6 *337:25 *337:44 13.05 
7 *337:44 *1303:A2 10.35 
8 *337:44 *1252:I 11.79 
9 *337:19 *1311:A2 9.63 
*END

*D_NET *338 0.00211061
*CONN
*I *1305:A3 I *D gf180mcu_fd_sc_mcu7t5v0__or3_1
*I *1313:B I *D gf180mcu_fd_sc_mcu7t5v0__oai31_1
*I *1624:Z O *D gf180mcu_fd_sc_mcu7t5v0__dlyb_1
*CAP
1 *1305:A3 0.000128597
2 *1313:B 0.000133566
3 *1624:Z 8.0476e-05
4 *338:6 0.000342639
5 *1305:A3 *1251:I 0.000164219
6 *1305:A3 *1310:A1 8.68281e-06
7 *1313:B *1310:A1 2.89427e-06
8 *1310:A3 *1305:A3 0.000152792
9 *1310:A3 *1313:B 1.4382e-06
10 *1316:B *1305:A3 4.843e-05
11 *1575:I *1313:B 0
12 *160:12 *1305:A3 0.00043521
13 *218:10 *1313:B 6.81701e-05
14 *233:18 *1305:A3 6.02974e-05
15 *233:18 *1313:B 0.000465829
16 *312:16 *1305:A3 1.7368e-05
*RES
1 *1624:Z *338:6 5.13 
2 *338:6 *1313:B 5.85 
3 *338:6 *1305:A3 15.48 
*END

*D_NET *339 0.00947926
*CONN
*I *1333:C I *D gf180mcu_fd_sc_mcu7t5v0__aoi211_1
*I *1334:A1 I *D gf180mcu_fd_sc_mcu7t5v0__aoi21_1
*I *1338:C I *D gf180mcu_fd_sc_mcu7t5v0__aoi211_1
*I *1305:A1 I *D gf180mcu_fd_sc_mcu7t5v0__or3_1
*I *1304:A1 I *D gf180mcu_fd_sc_mcu7t5v0__nor3_1
*I *1625:Z O *D gf180mcu_fd_sc_mcu7t5v0__dlyb_1
*CAP
1 *1333:C 0
2 *1334:A1 9.11382e-05
3 *1338:C 0.000190289
4 *1305:A1 0
5 *1304:A1 5.04816e-05
6 *1625:Z 3.44897e-05
7 *339:32 0.000284911
8 *339:30 0.000469451
9 *339:8 0.000184121
10 *339:6 0.000634096
11 *1338:C *1253:I 0.000562979
12 *1338:C *373:10 0
13 *339:30 *1253:I 0.000726492
14 *339:30 *1255:I 0.000518361
15 *339:30 *1405:A1 1.33422e-05
16 *339:30 *1626:I 0.000153289
17 *339:30 *340:17 3.31858e-06
18 *339:30 *413:18 1.38253e-05
19 *339:32 *1253:I 0.000143204
20 *1304:A3 *1304:A1 0.000307432
21 *1333:A2 *1338:C 0.000229402
22 *1333:B *1334:A1 2.16833e-05
23 *1334:B *1334:A1 0.000283705
24 *1338:B *1338:C 8.54106e-06
25 *1408:B2 *339:30 0
26 *1409:A1 *1334:A1 9.04462e-05
27 *1409:A1 *1338:C 9.39061e-05
28 *1409:A1 *339:30 0.00169406
29 *1409:A1 *339:32 0.000174506
30 *1420:B1 *339:8 0.000795826
31 *1546:CLK *1338:C 0
32 *1563:D *339:30 3.01487e-05
33 *1563:CLK *339:8 5.02239e-05
34 *1563:CLK *339:30 0.000330269
35 *160:16 *1304:A1 0.000372597
36 *208:10 *339:30 0
37 *212:12 *1334:A1 0.000193341
38 *297:29 *1304:A1 1.23523e-05
39 *312:16 *1304:A1 7.07604e-05
40 *337:44 *339:8 0.000506251
41 *337:44 *339:30 0.000140022
*RES
1 *1625:Z *339:6 4.77 
2 *339:6 *339:8 2.61 
3 *339:8 *1304:A1 14.85 
4 *339:8 *1305:A1 4.5 
5 *339:6 *339:30 11.7 
6 *339:30 *339:32 0.45 
7 *339:32 *1338:C 11.07 
8 *339:32 *1334:A1 10.17 
9 *339:30 *1333:C 9 
*END

*D_NET *340 0.00913926
*CONN
*I *1663:I I *D gf180mcu_fd_sc_mcu7t5v0__dlyb_1
*I *1405:A1 I *D gf180mcu_fd_sc_mcu7t5v0__nand2_1
*I *1625:I I *D gf180mcu_fd_sc_mcu7t5v0__dlyb_1
*I *1626:Z O *D gf180mcu_fd_sc_mcu7t5v0__dlyb_1
*CAP
1 *1663:I 0.00205444
2 *1405:A1 9.90546e-05
3 *1625:I 9.75574e-05
4 *1626:Z 0
5 *340:17 0.00249092
6 *340:4 0.000434988
7 *1625:I *412:21 0.000109434
8 *1663:I *1626:I 0
9 *340:17 *1255:I 0.000146859
10 *340:17 *412:8 3.34193e-05
11 *340:17 *412:21 3.08083e-05
12 *1252:I *340:17 0.000254217
13 *1303:A1 *1663:I 1.0415e-05
14 *1303:A2 *340:17 0.000217317
15 *1408:A1 *1663:I 8.16641e-05
16 *1408:B1 *1663:I 2.18528e-05
17 *1409:B2 *1663:I 5.69319e-05
18 *1546:RN *1663:I 0.000100396
19 *1547:CLK *1625:I 0.000486059
20 *1547:CLK *340:17 0.000161479
21 *1564:D *1663:I 0.000192205
22 *1564:CLK *1663:I 0.00183368
23 *208:8 *1405:A1 0.000122149
24 *233:24 *340:17 1.16291e-05
25 *272:31 *1663:I 7.51272e-05
26 *339:30 *1405:A1 1.33422e-05
27 *339:30 *340:17 3.31858e-06
*RES
1 *1626:Z *340:4 4.5 
2 *340:4 *1625:I 5.85 
3 *340:4 *340:17 8.28 
4 *340:17 *1405:A1 9.81 
5 *340:17 *1663:I 33.66 
*END

*D_NET *341 0.0155691
*CONN
*I *1330:A4 I *D gf180mcu_fd_sc_mcu7t5v0__nor4_1
*I *1371:A1 I *D gf180mcu_fd_sc_mcu7t5v0__nor2_1
*I *1353:I0 I *D gf180mcu_fd_sc_mcu7t5v0__mux2_2
*I *1352:I1 I *D gf180mcu_fd_sc_mcu7t5v0__mux2_2
*I *1357:I0 I *D gf180mcu_fd_sc_mcu7t5v0__mux2_2
*I *1627:Z O *D gf180mcu_fd_sc_mcu7t5v0__dlyb_1
*CAP
1 *1330:A4 0.000984959
2 *1371:A1 3.32967e-05
3 *1353:I0 0.00038253
4 *1352:I1 0
5 *1357:I0 0.000721955
6 *1627:Z 0.000226853
7 *341:42 0.000827157
8 *341:22 0.000772707
9 *341:18 0.00105026
10 *341:12 0.00179999
11 *1330:A4 *1330:A3 0.000281217
12 *1330:A4 *1331:A4 0.000967104
13 *1330:A4 *1347:A1 0.000429174
14 *1330:A4 *1351:I0 0.000314327
15 *1330:A4 *1490:I 0.000279388
16 *1330:A4 *345:35 2.9595e-05
17 *1330:A4 *348:55 9.42125e-05
18 *1330:A4 *351:12 6.74604e-05
19 *1330:A4 *397:39 7.55673e-05
20 *1330:A4 *398:16 4.62939e-05
21 *1330:A4 *398:27 7.26513e-06
22 *1353:I0 *1492:I 0
23 *1357:I0 *1642:I 0.000200992
24 *1357:I0 *1652:I 0.000261018
25 *1371:A1 *1353:I1 6.28596e-05
26 *341:12 *1369:A1 0.000231555
27 *341:12 *1387:I1 7.47699e-06
28 *341:12 *1492:I 0.000335111
29 *341:12 *396:14 5.06031e-06
30 *341:18 *348:55 5.5315e-05
31 *341:18 *351:12 3.34892e-05
32 *341:18 *396:14 1.18076e-06
33 *1332:A2 *1330:A4 0.000381965
34 *1346:B *1330:A4 3.67317e-05
35 *1351:S *1330:A4 9.84908e-05
36 *1353:S *1353:I0 0.000365445
37 *1357:S *1357:I0 0.000151427
38 *1359:S *1357:I0 4.96167e-05
39 *1367:A2 *1330:A4 3.97987e-05
40 *1369:A2 *341:12 3.55431e-05
41 *1371:A2 *341:12 6.85018e-05
42 *1372:B *341:18 0.000262591
43 *1372:B *341:42 0.00104394
44 *1529:D *1330:A4 3.40532e-05
45 *1529:CLK *1330:A4 0.000131379
46 *1532:D *1357:I0 0.00037349
47 *1532:CLK *1357:I0 0
48 *1534:D *1357:I0 0
49 *1537:RN *1357:I0 0.000229148
50 *1537:RN *341:18 0
51 *1537:CLK *1353:I0 0
52 *1537:CLK *1371:A1 6.28596e-05
53 *1538:RN *1353:I0 1.72023e-05
54 *1538:RN *341:12 0.000375166
55 *1538:RN *341:42 3.41666e-06
56 *1573:I *1330:A4 5.32531e-05
57 *1573:I *341:18 4.4029e-05
58 *245:24 *1357:I0 5.18427e-06
59 *302:19 *341:12 4.7901e-05
60 *304:8 *1330:A4 0.000696458
61 *326:8 *341:12 0.000158788
62 *326:10 *341:12 0.000217308
*RES
1 *1627:Z *341:12 17.1 
2 *341:12 *341:18 9 
3 *341:18 *341:22 4.77 
4 *341:22 *1357:I0 11.43 
5 *341:22 *1352:I1 4.5 
6 *341:18 *341:42 3.6 
7 *341:42 *1353:I0 11.34 
8 *341:42 *1371:A1 9.45 
9 *341:12 *1330:A4 16.11 
*END

*D_NET *342 0.0203132
*CONN
*I *1331:A1 I *D gf180mcu_fd_sc_mcu7t5v0__nor4_1
*I *1358:I0 I *D gf180mcu_fd_sc_mcu7t5v0__mux2_2
*I *1373:A1 I *D gf180mcu_fd_sc_mcu7t5v0__nor2_1
*I *1354:I0 I *D gf180mcu_fd_sc_mcu7t5v0__mux2_2
*I *1353:I1 I *D gf180mcu_fd_sc_mcu7t5v0__mux2_2
*I *1628:Z O *D gf180mcu_fd_sc_mcu7t5v0__dlyb_1
*CAP
1 *1331:A1 0.000296241
2 *1358:I0 0.00015245
3 *1373:A1 0.000167511
4 *1354:I0 0
5 *1353:I1 0.000769861
6 *1628:Z 0
7 *342:50 0.0020899
8 *342:10 0.000965669
9 *342:8 0.00206498
10 *342:4 0.000395469
11 *1331:A1 *1330:A3 6.88878e-05
12 *1331:A1 *1347:A1 0.000287046
13 *1331:A1 *1623:I 5.79557e-05
14 *1331:A1 *397:39 0.00176445
15 *1331:A1 *398:27 0.00143907
16 *1353:I1 *1354:I1 0.000409501
17 *1353:I1 *1492:I 0.000177942
18 *1358:I0 *347:43 5.15896e-06
19 *1373:A1 *1243:I 9.54396e-05
20 *1373:A1 *371:6 7.191e-07
21 *342:8 *397:39 0.000195939
22 *342:10 *1354:I1 0.00140931
23 *342:50 *1354:I1 0.000997749
24 *342:50 *345:56 0.000263264
25 *342:50 *347:43 0
26 *1278:B2 *1358:I0 1.39313e-05
27 *1353:S *1353:I1 0.000471292
28 *1354:S *1353:I1 4.15093e-05
29 *1358:S *1358:I0 0.0010393
30 *1368:A1 *342:50 9.23312e-05
31 *1368:B *342:50 0
32 *1371:A1 *1353:I1 6.28596e-05
33 *1374:A1 *1358:I0 0.000851947
34 *1374:A1 *1373:A1 9.30128e-05
35 *1374:A1 *342:50 0.000198212
36 *1374:B *1373:A1 0.000561378
37 *1374:B *342:50 0.000174087
38 *1524:RN *1373:A1 0
39 *1525:D *1358:I0 1.52191e-05
40 *1525:D *1373:A1 5.59262e-05
41 *1525:RN *1373:A1 8.12856e-06
42 *1526:RN *342:50 1.53188e-05
43 *1527:D *342:50 0.000835913
44 *1528:RN *342:50 1.53188e-05
45 *1529:SETN *342:50 0.000215697
46 *1536:D *1353:I1 4.74921e-05
47 *1536:RN *1353:I1 5.30888e-06
48 *1537:CLK *1353:I1 0.000102476
49 *1539:D *342:10 0.000137711
50 *1614:I *342:50 1.85805e-05
51 *1616:I *342:50 0
52 *1653:I *342:50 8.03577e-05
53 *245:24 *1331:A1 0.000167879
54 *245:24 *342:8 0.000195939
55 *327:20 *342:50 0.000429877
56 *328:10 *342:50 0
57 *330:10 *342:50 0
58 *331:16 *342:50 6.98563e-05
59 *331:18 *342:50 0.000100547
60 *331:20 *1353:I1 1.47998e-05
61 *331:20 *342:10 0.000106439
*RES
1 *1628:Z *342:4 4.5 
2 *342:4 *342:8 5.85 
3 *342:8 *342:10 3.69 
4 *342:10 *1353:I1 16.38 
5 *342:10 *1354:I0 9 
6 *342:8 *342:50 20.88 
7 *342:50 *1373:A1 6.66 
8 *342:50 *1358:I0 16.56 
9 *342:4 *1331:A1 19.8 
*END

*D_NET *343 0.0125093
*CONN
*I *1388:A1 I *D gf180mcu_fd_sc_mcu7t5v0__nand2_1
*I *1341:A1 I *D gf180mcu_fd_sc_mcu7t5v0__nor2_1
*I *1629:Z O *D gf180mcu_fd_sc_mcu7t5v0__dlyb_1
*CAP
1 *1388:A1 0.00227955
2 *1341:A1 0.000666536
3 *1629:Z 0
4 *343:4 0.00294609
5 *1341:A1 *1629:I 0
6 *1341:A1 *349:43 0.00105855
7 *1388:A1 *1232:I 1.49477e-05
8 *1388:A1 *1343:A1 3.19379e-05
9 *1388:A1 *1356:A1 1.47138e-05
10 *1388:A1 *1494:I 1.23523e-05
11 *1388:A1 *1652:I 9.90193e-05
12 *1388:A1 *414:27 0.000219114
13 *1342:A1 *1341:A1 8.47777e-05
14 *1346:A1 *1388:A1 0
15 *1386:A2 *1388:A1 0.000100101
16 *1389:A2 *1388:A1 0
17 *1389:B *1388:A1 0.000348345
18 *1517:D *1388:A1 1.7611e-05
19 *1519:D *1388:A1 7.63687e-05
20 *1542:D *1388:A1 0.000164219
21 *1543:RN *1388:A1 0
22 *1611:I *1388:A1 0
23 *1612:I *1388:A1 0.0025164
24 *143:12 *1388:A1 0
25 *303:34 *1341:A1 9.85004e-05
26 *323:38 *1388:A1 0
27 *325:10 *1388:A1 0.00176017
*RES
1 *1629:Z *343:4 4.5 
2 *343:4 *1341:A1 19.62 
3 *343:4 *1388:A1 34.2 
*END

*D_NET *344 0.00153594
*CONN
*I *1570:D I *D gf180mcu_fd_sc_mcu7t5v0__dffsnq_1
*I *1657:Z O *D gf180mcu_fd_sc_mcu7t5v0__dlyb_1
*CAP
1 *1570:D 0.000200159
2 *1657:Z 0.000200159
3 *1570:D *1355:I0 0
4 *1568:D *1570:D 0.000567809
5 *239:16 *1570:D 0.000567809
*RES
1 *1657:Z *1570:D 20.7 
*END

*D_NET *345 0.0219351
*CONN
*I *1343:A1 I *D gf180mcu_fd_sc_mcu7t5v0__nor2_1
*I *1375:A1 I *D gf180mcu_fd_sc_mcu7t5v0__nor2_1
*I *1359:I0 I *D gf180mcu_fd_sc_mcu7t5v0__mux2_2
*I *1354:I1 I *D gf180mcu_fd_sc_mcu7t5v0__mux2_2
*I *1331:A2 I *D gf180mcu_fd_sc_mcu7t5v0__nor4_1
*I *1630:Z O *D gf180mcu_fd_sc_mcu7t5v0__dlyb_1
*CAP
1 *1343:A1 0.000627882
2 *1375:A1 7.9873e-05
3 *1359:I0 0.000185184
4 *1354:I1 0.000466614
5 *1331:A2 0.000110018
6 *1630:Z 2.1943e-05
7 *345:56 0.00123015
8 *345:35 0.00196838
9 *345:10 0.000837841
10 *345:6 0.000840976
11 *1331:A2 *1385:A1 0.00010703
12 *1343:A1 *1497:I 0
13 *1343:A1 *1630:I 0.000119824
14 *1343:A1 *1652:I 0.000840175
15 *1343:A1 *398:44 1.39841e-05
16 *1354:I1 *1490:I 0.000146013
17 *1354:I1 *349:23 0.000490083
18 *1354:I1 *398:10 0.000185715
19 *1359:I0 *1641:I 0.000166798
20 *1359:I0 *355:10 9.21879e-05
21 *1375:A1 *1641:I 0.000364888
22 *1375:A1 *348:33 0.000294421
23 *345:10 *1345:A1 0.000425752
24 *345:35 *1331:A4 0.000991245
25 *345:35 *1345:A1 0.00017601
26 *345:35 *1347:A1 0.000178218
27 *345:35 *1385:A1 0.000161845
28 *345:35 *1490:I 0.000131479
29 *345:35 *400:8 1.98195e-05
30 *345:56 *1369:A1 2.39771e-05
31 *345:56 *1636:I 3.12451e-05
32 *345:56 *348:33 4.20261e-06
33 *345:56 *355:10 0.000223407
34 *345:56 *358:14 8.32083e-05
35 *345:56 *397:12 9.28737e-05
36 *345:56 *398:10 0.000117194
37 *1330:A4 *345:35 2.9595e-05
38 *1332:A2 *345:6 1.27919e-05
39 *1332:A2 *345:10 6.71977e-05
40 *1345:A2 *345:10 3.22348e-05
41 *1346:A1 *1331:A2 0.000164219
42 *1346:B *345:10 0.000425752
43 *1346:B *345:35 0.000137914
44 *1353:I1 *1354:I1 0.000409501
45 *1353:S *1354:I1 5.22248e-06
46 *1376:B *1375:A1 0.000294421
47 *1388:A1 *1343:A1 3.19379e-05
48 *1520:D *1343:A1 0
49 *1524:D *345:56 5.2326e-05
50 *1528:CLK *345:56 0.000196944
51 *1529:D *345:35 0.000365454
52 *1532:RN *345:56 0.000176886
53 *1534:D *1359:I0 0.000671835
54 *1543:RN *1343:A1 0.00010449
55 *1612:I *1343:A1 0.000338657
56 *1653:I *1359:I0 0.000195269
57 *1653:I *1375:A1 5.31432e-05
58 *143:12 *1331:A2 0.000270982
59 *302:19 *345:56 0.000106529
60 *302:27 *345:56 8.33495e-05
61 *311:26 *345:6 2.31089e-05
62 *311:26 *345:10 7.72112e-05
63 *311:26 *345:56 0.00259843
64 *326:8 *345:56 2.76434e-05
65 *326:41 *345:56 0
66 *331:16 *345:35 0.000461269
67 *342:10 *1354:I1 0.00140931
68 *342:50 *1354:I1 0.000997749
69 *342:50 *345:56 0.000263264
*RES
1 *1630:Z *345:6 4.77 
2 *345:6 *345:10 6.93 
3 *345:10 *1331:A2 10.44 
4 *345:10 *345:35 16.29 
5 *345:35 *1354:I1 16.47 
6 *345:35 *345:56 20.52 
7 *345:56 *1359:I0 11.97 
8 *345:56 *1375:A1 10.8 
9 *345:6 *1343:A1 19.62 
*END

*D_NET *346 0.00708517
*CONN
*I *1355:I0 I *D gf180mcu_fd_sc_mcu7t5v0__mux2_2
*I *1390:I1 I *D gf180mcu_fd_sc_mcu7t5v0__mux2_2
*I *1631:Z O *D gf180mcu_fd_sc_mcu7t5v0__dlyb_1
*CAP
1 *1355:I0 0.00103996
2 *1390:I1 8.04176e-05
3 *1631:Z 0.000427054
4 *346:12 0.00154743
5 *1355:I0 *1355:I1 1.79237e-05
6 *1355:I0 *1460:I 2.20741e-05
7 *1355:I0 *1643:I 2.94344e-05
8 *1355:I0 *1651:I 0.0013367
9 *1355:I0 *360:21 2.4439e-05
10 *1355:I0 *360:41 4.08648e-05
11 *346:12 *1390:I0 0.000358547
12 *346:12 *1623:I 0.000648008
13 *346:12 *1643:I 0.000194643
14 *346:12 *1651:I 5.41357e-05
15 *1355:S *1355:I0 0
16 *1516:D *1355:I0 1.0415e-05
17 *1516:CLK *1355:I0 8.59925e-05
18 *1516:CLK *1390:I1 0.0001185
19 *1518:CLK *346:12 8.52804e-05
20 *1535:D *1355:I0 0
21 *1570:D *1355:I0 0
22 *1570:CLK *1355:I0 0.000164306
23 *233:18 *346:12 6.44986e-05
24 *239:16 *1355:I0 0
25 *309:19 *1355:I0 0
26 *323:6 *346:12 0.000622581
27 *334:27 *1355:I0 4.89937e-05
28 *334:27 *1390:I1 6.29769e-05
*RES
1 *1631:Z *346:12 19.62 
2 *346:12 *1390:I1 5.31 
3 *346:12 *1355:I0 22.59 
*END

*D_NET *347 0.0145998
*CONN
*I *1482:I I *D gf180mcu_fd_sc_mcu7t5v0__clkinv_1
*I *1492:I I *D gf180mcu_fd_sc_mcu7t5v0__clkinv_1
*I *1480:I I *D gf180mcu_fd_sc_mcu7t5v0__clkinv_1
*I *1478:I I *D gf180mcu_fd_sc_mcu7t5v0__clkinv_1
*I *1488:I I *D gf180mcu_fd_sc_mcu7t5v0__clkinv_1
*I *1632:Z O *D gf180mcu_fd_sc_mcu7t5v0__dlyb_1
*CAP
1 *1482:I 3.00685e-05
2 *1492:I 0.000854197
3 *1480:I 0
4 *1478:I 0
5 *1488:I 0.000173005
6 *1632:Z 0.000249633
7 *347:43 0.00169384
8 *347:34 0.0010577
9 *347:14 0.000400684
10 *347:8 0.000725443
11 *1488:I *1632:I 7.55765e-06
12 *1488:I *348:33 8.11879e-05
13 *1492:I *1352:I0 5.28867e-05
14 *1492:I *1369:A1 0.00200132
15 *1492:I *397:12 3.19379e-05
16 *347:8 *1662:I 6.317e-05
17 *347:8 *371:6 4.21678e-05
18 *347:14 *1641:I 0.000171071
19 *347:34 *1424:A1 0
20 *347:34 *1641:I 0.000112593
21 *347:43 *1424:A1 0
22 *347:43 *384:10 0.000302466
23 *1278:B2 *347:43 0
24 *1353:I0 *1492:I 0
25 *1353:I1 *1492:I 0.000177942
26 *1353:S *1492:I 0.000302466
27 *1358:I0 *347:43 5.15896e-06
28 *1358:S *347:43 0
29 *1375:A2 *1488:I 1.0415e-05
30 *1375:A2 *347:14 3.30832e-05
31 *1524:RN *347:14 0.000372597
32 *1525:RN *347:8 2.78561e-05
33 *1526:RN *347:43 0.00159926
34 *1527:D *1482:I 5.06377e-06
35 *1527:D *347:43 0
36 *1533:D *347:34 4.71736e-05
37 *1534:RN *1488:I 0.000173169
38 *1534:RN *347:14 5.8316e-05
39 *1536:D *1492:I 0
40 *1536:CLK *1492:I 0.000181774
41 *1538:RN *1492:I 0.000609152
42 *1573:I *1492:I 0.00124212
43 *1589:I *1492:I 5.62762e-05
44 *1616:I *347:43 0
45 *1653:I *347:14 0.000281888
46 *1653:I *347:34 0.000362184
47 *1653:I *347:43 1.32662e-05
48 *150:6 *347:43 2.89145e-06
49 *294:19 *1482:I 1.26484e-05
50 *294:19 *347:43 0.00019279
51 *294:41 *1492:I 0.000129087
52 *295:22 *1492:I 0.000317207
53 *331:18 *1492:I 0
54 *331:20 *1492:I 0
55 *341:12 *1492:I 0.000335111
56 *342:50 *347:43 0
*RES
1 *1632:Z *347:8 10.71 
2 *347:8 *347:14 7.56 
3 *347:14 *1488:I 6.12 
4 *347:14 *1478:I 4.5 
5 *347:8 *347:34 7.2 
6 *347:34 *1480:I 4.5 
7 *347:34 *347:43 7.38 
8 *347:43 *1492:I 28.26 
9 *347:43 *1482:I 4.77 
*END

*D_NET *348 0.014903
*CONN
*I *1493:I I *D gf180mcu_fd_sc_mcu7t5v0__clkinv_1
*I *1490:I I *D gf180mcu_fd_sc_mcu7t5v0__clkinv_1
*I *1632:I I *D gf180mcu_fd_sc_mcu7t5v0__dlyb_1
*I *1486:I I *D gf180mcu_fd_sc_mcu7t5v0__clkinv_1
*I *1491:I I *D gf180mcu_fd_sc_mcu7t5v0__clkinv_1
*I *1633:Z O *D gf180mcu_fd_sc_mcu7t5v0__dlyb_1
*CAP
1 *1493:I 7.43751e-05
2 *1490:I 0.0010436
3 *1632:I 0.000283071
4 *1486:I 3.44897e-05
5 *1491:I 0.000552382
6 *1633:Z 5.74829e-05
7 *348:55 0.00152812
8 *348:33 0.00105347
9 *348:16 0.00164593
10 *348:6 0.000825276
11 *1490:I *1623:I 0.000142154
12 *1490:I *1628:I 0.000238159
13 *1490:I *349:8 3.22348e-05
14 *1490:I *349:23 3.24059e-05
15 *1490:I *395:10 0.000249347
16 *1490:I *398:10 7.82351e-05
17 *1491:I *358:14 0.000353279
18 *1491:I *370:10 3.80151e-05
19 *1632:I *1357:I1 0
20 *348:16 *351:6 0
21 *348:16 *351:12 0
22 *348:16 *396:14 9.06729e-06
23 *348:33 *358:14 0.000149891
24 *348:33 *370:10 3.17818e-05
25 *348:55 *351:12 0
26 cap_ctrl[0] *1632:I 0
27 *1330:A4 *1490:I 0.000279388
28 *1330:A4 *348:55 9.42125e-05
29 *1351:S *1490:I 3.97987e-05
30 *1354:I1 *1490:I 0.000146013
31 *1358:S *1491:I 0.000182072
32 *1358:S *348:33 0.000149398
33 *1366:A1 *1490:I 0.000765018
34 *1368:B *1490:I 0.000382875
35 *1372:B *348:55 3.98088e-05
36 *1375:A1 *348:33 0.000294421
37 *1375:A2 *348:33 0.000252854
38 *1376:A1 *348:33 0.00037349
39 *1376:B *348:33 0.000303078
40 *1488:I *1632:I 7.55765e-06
41 *1488:I *348:33 8.11879e-05
42 *1524:D *348:33 9.30128e-05
43 *1524:CLK *348:16 0.00042775
44 *1526:D *348:55 9.7667e-05
45 *1532:RN *348:33 9.84668e-05
46 *1536:RN *1490:I 0.000415026
47 *1538:RN *348:55 0.000205859
48 *1539:RN *1490:I 5.95864e-05
49 *1539:RN *1493:I 1.32722e-05
50 *1571:SETN *1490:I 0.000584045
51 *1571:CLK *1490:I 0.000299714
52 *311:26 *1490:I 1.58709e-05
53 *311:26 *348:16 0.000341192
54 *311:26 *348:55 0.000141732
55 *326:41 *348:33 5.57178e-05
56 *331:16 *1490:I 1.91431e-05
57 *341:18 *348:55 5.5315e-05
58 *345:35 *1490:I 0.000131479
59 *345:56 *348:33 4.20261e-06
*RES
1 *1633:Z *348:6 4.95 
2 *348:6 *348:16 7.92 
3 *348:16 *1491:I 13.05 
4 *348:16 *348:33 11.79 
5 *348:33 *1486:I 4.77 
6 *348:33 *1632:I 15.66 
7 *348:6 *348:55 3.51 
8 *348:55 *1490:I 26.1 
9 *348:55 *1493:I 5.13 
*END

*D_NET *349 0.0113635
*CONN
*I *1497:I I *D gf180mcu_fd_sc_mcu7t5v0__clkinv_1
*I *1458:I I *D gf180mcu_fd_sc_mcu7t5v0__clkinv_1
*I *1498:I I *D gf180mcu_fd_sc_mcu7t5v0__clkinv_1
*I *1495:I I *D gf180mcu_fd_sc_mcu7t5v0__clkinv_1
*I *1461:I I *D gf180mcu_fd_sc_mcu7t5v0__clkinv_1
*I *1634:Z O *D gf180mcu_fd_sc_mcu7t5v0__dlyb_1
*CAP
1 *1497:I 0.000510455
2 *1458:I 0.000238337
3 *1498:I 0
4 *1495:I 0.000259332
5 *1461:I 0.000104429
6 *1634:Z 0
7 *349:43 0.00144353
8 *349:23 0.000743926
9 *349:8 0.000896869
10 *349:4 0.00100259
11 *1495:I *1623:I 5.99499e-05
12 *1495:I *1628:I 1.87159e-05
13 *1495:I *1634:I 0
14 *1497:I *1630:I 9.85004e-05
15 *349:23 *1629:I 0.000365454
16 *1341:A1 *349:43 0.00105855
17 *1342:A2 *349:43 0
18 *1343:A1 *1497:I 0
19 *1343:A2 *1458:I 2.422e-05
20 *1344:A1 *1458:I 6.85018e-05
21 *1344:A1 *1497:I 7.37251e-05
22 *1344:B *1458:I 0.000320262
23 *1344:B *1497:I 0.00124809
24 *1353:S *349:23 0
25 *1354:I1 *349:23 0.000490083
26 *1356:A2 *1497:I 0.000103119
27 *1490:I *349:8 3.22348e-05
28 *1490:I *349:23 3.24059e-05
29 *1536:D *349:23 0
30 *1536:RN *349:8 0.00073156
31 *1539:CLK *349:23 9.68439e-05
32 *1543:D *349:43 0
33 *1543:RN *1497:I 0.000202421
34 *1544:D *349:43 5.06604e-05
35 *1568:CLK *1458:I 2.31089e-05
36 *1571:SETN *1461:I 4.47028e-05
37 *1571:SETN *349:8 2.8764e-06
38 *1571:SETN *349:23 0.000107427
39 *1571:CLK *1461:I 6.17613e-06
40 *1571:CLK *349:8 0.000204492
41 *142:8 *1497:I 6.58723e-05
42 *239:33 *1458:I 0.000216735
43 *303:13 *349:43 0
44 *303:34 *349:8 0.000176088
45 *303:34 *349:43 0.000226312
46 *304:23 *1495:I 1.49477e-05
*RES
1 *1634:Z *349:4 4.5 
2 *349:4 *349:8 8.01 
3 *349:8 *1461:I 9.81 
4 *349:8 *349:23 8.82 
5 *349:23 *1495:I 15.03 
6 *349:23 *1498:I 4.5 
7 *349:4 *349:43 10.71 
8 *349:43 *1458:I 11.7 
9 *349:43 *1497:I 14.4 
*END

*D_NET *350 0.00795126
*CONN
*I *1474:I I *D gf180mcu_fd_sc_mcu7t5v0__clkinv_1
*I *1483:I I *D gf180mcu_fd_sc_mcu7t5v0__clkinv_1
*I *1496:I I *D gf180mcu_fd_sc_mcu7t5v0__clkinv_1
*I *1635:Z O *D gf180mcu_fd_sc_mcu7t5v0__dlyb_1
*CAP
1 *1474:I 0.000849393
2 *1483:I 0.00031723
3 *1496:I 2.61549e-05
4 *1635:Z 9.31787e-05
5 *350:19 0.00122666
6 *350:8 0.000179372
7 *1474:I *1262:A4 0
8 *1474:I *1291:A1 3.89217e-05
9 *1474:I *1361:A1 9.56136e-05
10 *1474:I *1380:A1 0.000502375
11 *1474:I *1385:A1 0.000129123
12 *1474:I *1473:I 0.00011099
13 *1474:I *354:29 7.76642e-05
14 *1474:I *387:12 4.24123e-05
15 *1474:I *400:36 0.000108802
16 *1483:I *1363:A1 2.89427e-06
17 *1496:I *400:36 0.000131133
18 *350:19 *400:36 0.000287714
19 *1363:A2 *1483:I 0.000248359
20 *1364:B *1483:I 0.000226494
21 *1381:B *1474:I 0.000507502
22 *1519:RN *1474:I 0.000136807
23 *1523:CLK *1474:I 1.2227e-05
24 *1531:D *350:8 0.000227114
25 *1531:SETN *1474:I 0
26 *1599:I *1483:I 0.000170208
27 *1616:I *350:8 3.73774e-06
28 *294:9 *1483:I 0.000374414
29 *307:19 *1474:I 0.000166798
30 *307:19 *350:19 0.000627694
31 *307:23 *1496:I 0.000309984
32 *307:23 *350:19 0.000101624
33 *329:16 *350:8 0.000618666
*RES
1 *1635:Z *350:8 10.71 
2 *350:8 *1496:I 9.81 
3 *350:8 *350:19 1.89 
4 *350:19 *1483:I 12.87 
5 *350:19 *1474:I 17.55 
*END

*D_NET *351 0.0134366
*CONN
*I *1633:I I *D gf180mcu_fd_sc_mcu7t5v0__dlyb_1
*I *1635:I I *D gf180mcu_fd_sc_mcu7t5v0__dlyb_1
*I *1634:I I *D gf180mcu_fd_sc_mcu7t5v0__dlyb_1
*I *1636:Z O *D gf180mcu_fd_sc_mcu7t5v0__dlyb_1
*CAP
1 *1633:I 0
2 *1635:I 0.000602777
3 *1634:I 0.000416711
4 *1636:Z 0.000841201
5 *351:12 0.00181271
6 *351:6 0.00163442
7 *1634:I *1629:I 3.58729e-05
8 *1635:I *1387:I1 6.89669e-05
9 *1635:I *400:12 6.72821e-05
10 *1635:I *400:36 2.48332e-05
11 *351:6 *1660:I 0.000680369
12 *351:6 *396:14 1.78074e-05
13 *351:12 *1351:I0 8.23214e-05
14 *351:12 *1352:I0 0.00018209
15 *351:12 *1623:I 0.000778004
16 *351:12 *397:27 0.000365454
17 *351:12 *397:39 0.000405153
18 *351:12 *398:16 0.000129597
19 *351:12 *398:27 0.000920114
20 *1330:A4 *351:12 6.74604e-05
21 *1342:A1 *1634:I 0.000219718
22 *1359:S *351:6 0
23 *1366:B *1635:I 0.000549159
24 *1495:I *1634:I 0
25 *1519:CLK *1635:I 9.54396e-05
26 *1524:CLK *351:6 7.01767e-05
27 *1534:CLK *351:6 0.000230896
28 *1541:RN *1634:I 0.00119119
29 *1541:RN *1635:I 0.000282255
30 *1573:I *351:12 0.000190246
31 *1581:I *1635:I 0
32 *1617:I *1635:I 0.000122782
33 *141:25 *1634:I 1.44866e-05
34 *245:24 *351:6 0
35 *303:34 *1634:I 7.96333e-06
36 *304:19 *1634:I 0.000202081
37 *304:19 *1635:I 9.23597e-05
38 *304:23 *1634:I 0.000380665
39 *311:26 *351:6 0
40 *328:47 *1635:I 0.000593822
41 *332:16 *1635:I 2.67326e-05
42 *341:18 *351:12 3.34892e-05
43 *348:16 *351:6 0
44 *348:16 *351:12 0
45 *348:55 *351:12 0
*RES
1 *1636:Z *351:6 10.89 
2 *351:6 *351:12 13.86 
3 *351:12 *1634:I 14.22 
4 *351:12 *1635:I 15.66 
5 *351:6 *1633:I 4.5 
*END

*D_NET *352 0.0129317
*CONN
*I *1481:I I *D gf180mcu_fd_sc_mcu7t5v0__clkinv_1
*I *1462:I I *D gf180mcu_fd_sc_mcu7t5v0__clkinv_1
*I *1463:I I *D gf180mcu_fd_sc_mcu7t5v0__clkinv_1
*I *1487:I I *D gf180mcu_fd_sc_mcu7t5v0__clkinv_1
*I *1479:I I *D gf180mcu_fd_sc_mcu7t5v0__clkinv_1
*I *1637:Z O *D gf180mcu_fd_sc_mcu7t5v0__dlyb_1
*CAP
1 *1481:I 0.000884697
2 *1462:I 0.000178029
3 *1463:I 0
4 *1487:I 0
5 *1479:I 7.56853e-05
6 *1637:Z 0
7 *352:34 0.000578412
8 *352:30 0.00162902
9 *352:8 0.000127462
10 *352:6 0.000395718
11 *1462:I *1662:I 0
12 *1479:I *1662:I 0.000692382
13 *1481:I *1274:B2 0.000445056
14 *1481:I *1422:A1 0.000979482
15 *1481:I *1637:I 0.000164228
16 *1481:I *1638:I 6.26041e-05
17 *1481:I *357:8 0.00110549
18 *1481:I *357:10 0.000263273
19 *1481:I *357:27 0.00130408
20 *1481:I *384:19 0.000164219
21 *1481:I *385:10 0.000147435
22 *1481:I *426:29 0.000145762
23 *352:8 *1662:I 0.000437294
24 *352:30 *1422:A1 0.000365445
25 *352:30 *1661:I 0
26 *352:30 *1662:I 0.00128107
27 *352:34 *1662:I 0
28 *1274:B1 *1481:I 2.08301e-05
29 *1280:A1 *1481:I 9.94903e-06
30 *1292:A1 *1481:I 3.98088e-05
31 *1292:A2 *1481:I 8.49143e-05
32 *1292:B1 *1481:I 0.000637967
33 *1292:B2 *1481:I 1.36713e-05
34 *1422:A2 *1481:I 0.000153685
35 *1422:A2 *352:30 7.01651e-05
36 *1422:A3 *352:30 5.79792e-06
37 *1427:A2 *1481:I 0
38 *1508:D *1481:I 5.23429e-06
39 *1508:CLK *1481:I 9.85004e-05
40 *1527:RN *1481:I 0
41 *1533:D *1479:I 5.86732e-05
42 *1533:D *352:8 4.01448e-05
43 *1533:D *352:30 4.01448e-05
44 *168:14 *1481:I 1.1426e-05
45 *335:26 *1481:I 0.000213904
*RES
1 *1637:Z *352:6 9 
2 *352:6 *352:8 1.17 
3 *352:8 *1479:I 10.71 
4 *352:8 *1487:I 9 
5 *352:6 *352:30 9 
6 *352:30 *352:34 7.65 
7 *352:34 *1463:I 9 
8 *352:34 *1462:I 10.53 
9 *352:30 *1481:I 27 
*END

*D_NET *353 0.00316837
*CONN
*I *1465:I I *D gf180mcu_fd_sc_mcu7t5v0__clkinv_1
*I *1466:I I *D gf180mcu_fd_sc_mcu7t5v0__clkinv_1
*I *1464:I I *D gf180mcu_fd_sc_mcu7t5v0__clkinv_1
*I *1638:Z O *D gf180mcu_fd_sc_mcu7t5v0__dlyb_1
*CAP
1 *1465:I 0
2 *1466:I 0.00066008
3 *1464:I 0.000215907
4 *1638:Z 3.62708e-05
5 *353:17 0.000880452
6 *353:6 0.000472549
7 *1466:I *1258:I 0.000119182
8 *1466:I *429:10 4.76678e-05
9 *353:17 *1638:I 0
10 *1511:RN *1466:I 0.00050482
11 *1512:RN *1466:I 0.000231442
*RES
1 *1638:Z *353:6 4.77 
2 *353:6 *1464:I 5.94 
3 *353:6 *353:17 1.53 
4 *353:17 *1466:I 10.26 
5 *353:17 *1465:I 4.5 
*END

*D_NET *354 0.0130908
*CONN
*I *1468:I I *D gf180mcu_fd_sc_mcu7t5v0__clkinv_1
*I *1467:I I *D gf180mcu_fd_sc_mcu7t5v0__clkinv_1
*I *1473:I I *D gf180mcu_fd_sc_mcu7t5v0__clkinv_1
*I *1485:I I *D gf180mcu_fd_sc_mcu7t5v0__clkinv_1
*I *1484:I I *D gf180mcu_fd_sc_mcu7t5v0__clkinv_1
*I *1639:Z O *D gf180mcu_fd_sc_mcu7t5v0__dlyb_1
*CAP
1 *1468:I 0.000588329
2 *1467:I 5.19263e-05
3 *1473:I 0.000463098
4 *1485:I 0
5 *1484:I 0.000520386
6 *1639:Z 0
7 *354:53 0.00162782
8 *354:29 0.000693823
9 *354:23 0.0016133
10 *354:4 0.000915406
11 *1467:I *1469:I 3.68761e-05
12 *1467:I *430:36 3.22348e-05
13 *1468:I *1469:I 2.12587e-05
14 *1473:I *1262:A4 0.000272207
15 *1473:I *377:6 4.83522e-05
16 *1484:I *1289:A2 0.000271813
17 *1484:I *357:27 0.00187376
18 *1484:I *385:10 4.78672e-05
19 *1484:I *432:14 4.91965e-05
20 *354:23 *1236:I 1.17652e-05
21 *354:23 *1291:A1 0
22 *354:23 *357:27 5.07419e-05
23 *354:23 *432:14 9.2472e-05
24 *354:29 *389:8 0
25 *354:53 *1236:I 0
26 *354:53 *1378:A1 4.13304e-05
27 *354:53 *1469:I 0.000900031
28 *354:53 *1477:I 0.00038639
29 *354:53 *389:8 0
30 *1281:A1 *354:23 0
31 *1281:A1 *354:53 1.38506e-05
32 *1287:A1 *1484:I 0
33 *1287:C *1484:I 0.000138924
34 *1292:A1 *1484:I 4.05523e-05
35 *1370:A1 *1484:I 5.22248e-06
36 *1378:A2 *354:29 9.20321e-05
37 *1378:A2 *354:53 4.08007e-05
38 *1379:A1 *354:29 3.05494e-05
39 *1381:B *1473:I 8.64138e-05
40 *1438:A1 *1468:I 0
41 *1438:A2 *1468:I 3.97987e-05
42 *1443:A3 *354:53 0
43 *1474:I *1473:I 0.00011099
44 *1474:I *354:29 7.76642e-05
45 *1513:D *1468:I 2.9799e-05
46 *1513:RN *1467:I 0.00015547
47 *1513:RN *1468:I 0.000331866
48 *1519:RN *1473:I 0.000111633
49 *1523:CLK *1473:I 0.000187635
50 *1523:CLK *354:29 7.21026e-05
51 *1531:SETN *354:23 9.52423e-05
52 *1531:SETN *354:29 0.000156581
53 *1585:I *354:29 0.000135145
54 *1586:I *354:23 7.60863e-05
55 *1586:I *354:53 1.9878e-05
56 *1600:I *354:53 0.000290478
57 *1606:I *1468:I 0
58 *1607:I *1484:I 0
59 *145:6 *354:23 7.96333e-06
60 *316:25 *1468:I 0.000133728
*RES
1 *1639:Z *354:4 4.5 
2 *354:4 *1484:I 19.89 
3 *354:4 *354:23 7.65 
4 *354:23 *354:29 7.38 
5 *354:29 *1485:I 4.5 
6 *354:29 *1473:I 9.09 
7 *354:23 *354:53 14.13 
8 *354:53 *1467:I 5.13 
9 *354:53 *1468:I 9.45 
*END

*D_NET *355 0.00325619
*CONN
*I *1660:I I *D gf180mcu_fd_sc_mcu7t5v0__dlyb_1
*I *1359:I1 I *D gf180mcu_fd_sc_mcu7t5v0__mux2_2
*I *1532:Q O *D gf180mcu_fd_sc_mcu7t5v0__dffrnq_1
*CAP
1 *1660:I 0.000370221
2 *1359:I1 0.000232878
3 *1532:Q 0.000285884
4 *355:10 0.000888983
5 *355:10 *1641:I 4.34691e-05
6 *355:10 *358:14 4.78286e-05
7 cap_ctrl[0] *1660:I 0
8 *1357:S *1660:I 0
9 *1358:S *1359:I1 0
10 *1358:S *355:10 0
11 *1359:I0 *355:10 9.21879e-05
12 *1359:S *1660:I 7.71476e-06
13 *1532:RN *355:10 0
14 *1534:D *1359:I1 0.000138305
15 *1534:D *1660:I 6.317e-05
16 *1534:D *355:10 0.000181774
17 *1653:I *1359:I1 0
18 *311:26 *1660:I 0
19 *345:56 *355:10 0.000223407
20 *351:6 *1660:I 0.000680369
*RES
1 *1532:Q *355:10 11.88 
2 *355:10 *1359:I1 10.89 
3 *355:10 *1660:I 12.15 
*END

*D_NET *356 0.00864327
*CONN
*I *1476:I I *D gf180mcu_fd_sc_mcu7t5v0__clkinv_1
*I *1469:I I *D gf180mcu_fd_sc_mcu7t5v0__clkinv_1
*I *1477:I I *D gf180mcu_fd_sc_mcu7t5v0__clkinv_1
*I *1640:Z O *D gf180mcu_fd_sc_mcu7t5v0__dlyb_1
*CAP
1 *1476:I 0.000169122
2 *1469:I 0.000848332
3 *1477:I 9.34167e-05
4 *1640:Z 0
5 *356:8 0.00115006
6 *356:4 0.000377434
7 *1469:I *1439:A2 7.191e-07
8 *1469:I *430:8 0.00010802
9 *1469:I *430:14 3.8796e-05
10 *1469:I *430:36 2.56915e-05
11 *1469:I *431:29 0.000302945
12 *1476:I *381:27 0.000405251
13 *1477:I *431:29 8.429e-05
14 *356:8 *1281:A2 3.98088e-05
15 *356:8 *1284:A2 3.73774e-06
16 *356:8 *381:10 3.29477e-05
17 *356:8 *381:27 0.000774456
18 *1281:A1 *1477:I 0.000734439
19 *1467:I *1469:I 3.68761e-05
20 *1468:I *1469:I 2.12587e-05
21 *1513:D *1469:I 0.00129697
22 *1515:RN *1469:I 0.000173375
23 *1522:RN *1476:I 0.000433797
24 *308:26 *356:8 1.17725e-05
25 *308:35 *1476:I 0.000107953
26 *308:35 *356:8 8.53768e-05
27 *354:53 *1469:I 0.000900031
28 *354:53 *1477:I 0.00038639
*RES
1 *1640:Z *356:4 4.5 
2 *356:4 *356:8 7.11 
3 *356:8 *1477:I 11.43 
4 *356:8 *1469:I 19.08 
5 *356:4 *1476:I 7.38 
*END

*D_NET *357 0.0227664
*CONN
*I *1638:I I *D gf180mcu_fd_sc_mcu7t5v0__dlyb_1
*I *1640:I I *D gf180mcu_fd_sc_mcu7t5v0__dlyb_1
*I *1639:I I *D gf180mcu_fd_sc_mcu7t5v0__dlyb_1
*I *1637:I I *D gf180mcu_fd_sc_mcu7t5v0__dlyb_1
*I *1641:Z O *D gf180mcu_fd_sc_mcu7t5v0__dlyb_1
*CAP
1 *1638:I 0.000580607
2 *1640:I 0.000951355
3 *1639:I 0.000189201
4 *1637:I 0.000555589
5 *1641:Z 0.000190327
6 *357:27 0.00165781
7 *357:10 0.0011178
8 *357:8 0.00081589
9 *1637:I *1290:A4 0.00047055
10 *1637:I *384:19 6.05946e-05
11 *1638:I *1242:I 0.000101689
12 *1638:I *1274:B2 2.36954e-05
13 *1639:I *1291:A1 0.00011861
14 *1639:I *388:8 1.0415e-05
15 *1639:I *389:8 2.6859e-05
16 *1640:I *1236:I 1.75733e-06
17 *1640:I *1284:B1 0.000310861
18 *1640:I *1437:A1 2.98728e-05
19 *1640:I *389:8 1.69624e-05
20 *1640:I *432:8 0.000147371
21 *1640:I *432:14 0.00027186
22 *357:8 *1274:B2 1.56374e-05
23 *357:8 *1279:B1 3.25438e-05
24 *357:8 *1290:A1 6.77126e-05
25 *357:27 *1274:B2 1.06178e-05
26 *357:27 *1275:A1 2.76752e-05
27 *357:27 *1279:B1 0.000685102
28 *357:27 *1290:A1 0.000127395
29 *357:27 *1291:A1 0
30 *357:27 *388:8 4.80547e-05
31 cap_ctrl[1] *1637:I 0.000494094
32 *1278:A1 *1637:I 0.000904526
33 *1280:A2 *1638:I 0.000107407
34 *1292:B1 *1637:I 9.30128e-05
35 *1364:A1 *1639:I 0.000136569
36 *1364:A1 *1640:I 0.000139995
37 *1422:A2 *357:8 3.08083e-05
38 *1422:A3 *1637:I 0.000160044
39 *1429:A3 *1638:I 0.00152942
40 *1432:A1 *1638:I 9.65744e-06
41 *1432:A2 *1638:I 0.000121032
42 *1441:A2 *1640:I 0
43 *1442:A2 *1640:I 0.000455766
44 *1481:I *1637:I 0.000164228
45 *1481:I *1638:I 6.26041e-05
46 *1481:I *357:8 0.00110549
47 *1481:I *357:10 0.000263273
48 *1481:I *357:27 0.00130408
49 *1484:I *357:27 0.00187376
50 *1509:D *1637:I 0.000325483
51 *1509:CLK *1637:I 0.000281442
52 *1514:D *1640:I 2.65444e-06
53 *1530:RN *357:27 0
54 *1533:D *1637:I 0.000110838
55 *1621:I *1640:I 0.00223635
56 *146:19 *1640:I 0.000142787
57 *167:8 *1638:I 6.63206e-05
58 *287:33 *1640:I 0
59 *294:19 *1637:I 2.57083e-05
60 *313:35 *357:8 0.000666091
61 *335:26 *1637:I 8.05909e-05
62 *335:26 *1638:I 0.000598729
63 *335:26 *357:10 0.000113639
64 *335:26 *357:27 0.000147441
65 *335:44 *1638:I 0.000297415
66 *353:17 *1638:I 0
67 *354:23 *357:27 5.07419e-05
*RES
1 *1641:Z *357:8 12.33 
2 *357:8 *357:10 0.81 
3 *357:10 *1637:I 16.92 
4 *357:10 *357:27 17.91 
5 *357:27 *1639:I 10.98 
6 *357:27 *1640:I 20.52 
7 *357:8 *1638:I 17.28 
*END

*D_NET *358 0.00799407
*CONN
*I *1641:I I *D gf180mcu_fd_sc_mcu7t5v0__dlyb_1
*I *1636:I I *D gf180mcu_fd_sc_mcu7t5v0__dlyb_1
*I *1642:Z O *D gf180mcu_fd_sc_mcu7t5v0__dlyb_1
*CAP
1 *1641:I 0.000922278
2 *1636:I 0.000140014
3 *1642:Z 0.000331579
4 *358:14 0.00139387
5 *1641:I *1358:I1 2.32439e-05
6 *1641:I *1661:I 6.40664e-06
7 *1641:I *425:18 0
8 *358:14 *370:10 7.39647e-05
9 *1278:B2 *1641:I 0.000413614
10 *1359:I0 *1641:I 0.000166798
11 *1374:A1 *1641:I 0
12 *1375:A1 *1641:I 0.000364888
13 *1376:A1 *1641:I 0.000717905
14 *1425:A3 *1641:I 0.000433797
15 *1491:I *358:14 0.000353279
16 *1524:D *1641:I 0
17 *1524:D *358:14 0.000282456
18 *1532:RN *1636:I 3.96404e-05
19 *1532:RN *1641:I 0
20 *1533:D *1641:I 0.000567809
21 *1653:I *1641:I 2.1578e-05
22 *311:26 *1636:I 8.93743e-05
23 *311:26 *358:14 0.00101227
24 *345:56 *1636:I 3.12451e-05
25 *345:56 *358:14 8.32083e-05
26 *347:14 *1641:I 0.000171071
27 *347:34 *1641:I 0.000112593
28 *348:33 *358:14 0.000149891
29 *355:10 *1641:I 4.34691e-05
30 *355:10 *358:14 4.78286e-05
*RES
1 *1642:Z *358:14 18.09 
2 *358:14 *1636:I 5.67 
3 *358:14 *1641:I 24.48 
*END

*D_NET *359 0.0109584
*CONN
*I *1494:I I *D gf180mcu_fd_sc_mcu7t5v0__clkinv_1
*I *1470:I I *D gf180mcu_fd_sc_mcu7t5v0__clkinv_1
*I *1452:I I *D gf180mcu_fd_sc_mcu7t5v0__clkinv_1
*I *1455:I I *D gf180mcu_fd_sc_mcu7t5v0__clkinv_1
*I *1472:I I *D gf180mcu_fd_sc_mcu7t5v0__clkinv_1
*I *1643:Z O *D gf180mcu_fd_sc_mcu7t5v0__dlyb_1
*CAP
1 *1494:I 0.000765323
2 *1470:I 0
3 *1452:I 0.000296855
4 *1455:I 0.000308755
5 *1472:I 0
6 *1643:Z 0.000146536
7 *359:33 0.000720801
8 *359:26 0.0005631
9 *359:14 0.000707038
10 *359:10 0.00117099
11 *1452:I *1646:I 0
12 *1452:I *405:10 0.000223398
13 *1455:I *1257:I 7.58723e-05
14 *1455:I *376:10 0.000538918
15 *1494:I *1235:I 0.000354728
16 *1494:I *1387:I1 0.000312237
17 *1494:I *1390:I0 2.70125e-05
18 *1494:I *374:19 2.76258e-05
19 *1494:I *399:8 0.000169524
20 *359:10 *1390:I0 0.000136569
21 *359:26 *1651:I 0.00013035
22 *1383:B *1494:I 0.000362773
23 *1388:A1 *1494:I 1.23523e-05
24 *1444:I0 *1452:I 0
25 *1516:SETN *359:14 0
26 *1517:CLK *359:26 0.000435315
27 *1518:D *359:26 5.79792e-06
28 *1518:SETN *359:26 0.000151427
29 *1521:CLK *359:26 9.85004e-05
30 *1540:RN *1494:I 0.000336274
31 *1542:D *1494:I 0.000372203
32 *1553:D *1455:I 0
33 *1562:D *1452:I 3.0177e-06
34 *1610:I *1494:I 0.000240538
35 *1610:I *359:10 0
36 *1610:I *359:14 0.000296172
37 *1619:I *1494:I 0.000361621
38 *143:12 *1494:I 0.000109332
39 *294:99 *359:26 5.15084e-05
40 *298:25 *1452:I 0.000416643
41 *298:25 *359:26 0.000436478
42 *298:25 *359:33 0.000480025
43 *311:36 *359:10 0.000112822
44 *311:36 *359:14 0
45 *323:12 *1494:I 0
46 *323:12 *359:10 0
47 *323:21 *1494:I 0
*RES
1 *1643:Z *359:10 10.8 
2 *359:10 *359:14 6.57 
3 *359:14 *359:26 13.86 
4 *359:26 *1472:I 4.5 
5 *359:26 *359:33 1.35 
6 *359:33 *1455:I 16.83 
7 *359:33 *1452:I 15.93 
8 *359:14 *1470:I 4.5 
9 *359:10 *1494:I 27.18 
*END

*D_NET *360 0.00912001
*CONN
*I *1643:I I *D gf180mcu_fd_sc_mcu7t5v0__dlyb_1
*I *1489:I I *D gf180mcu_fd_sc_mcu7t5v0__clkinv_1
*I *1457:I I *D gf180mcu_fd_sc_mcu7t5v0__clkinv_1
*I *1449:I I *D gf180mcu_fd_sc_mcu7t5v0__clkinv_1
*I *1460:I I *D gf180mcu_fd_sc_mcu7t5v0__clkinv_1
*I *1644:Z O *D gf180mcu_fd_sc_mcu7t5v0__dlyb_1
*CAP
1 *1643:I 0.000357213
2 *1489:I 7.23128e-05
3 *1457:I 9.13867e-05
4 *1449:I 3.55689e-05
5 *1460:I 0.000100559
6 *1644:Z 0.00048538
7 *360:41 0.000851799
8 *360:25 0.000848154
9 *360:21 0.00121711
10 *360:8 0.00065958
11 *1449:I *1645:I 6.17789e-06
12 *1489:I *1644:I 4.53481e-06
13 *1489:I *406:10 0.000302466
14 *1643:I *1390:I0 2.55518e-05
15 *1643:I *1652:I 0
16 *360:8 *1647:I 0.000204482
17 *360:25 *1644:I 0
18 *360:25 *1645:I 0.00112729
19 *360:25 *1647:I 8.00409e-05
20 *360:25 *1651:I 0.000158788
21 *360:25 *363:27 0
22 *360:41 *1652:I 0
23 *1355:I0 *1460:I 2.20741e-05
24 *1355:I0 *1643:I 2.94344e-05
25 *1355:I0 *360:21 2.4439e-05
26 *1355:I0 *360:41 4.08648e-05
27 *1390:S *1643:I 0.000309993
28 *1516:D *1489:I 7.84068e-05
29 *1516:CLK *1489:I 8.12856e-06
30 *1535:CLK *360:25 0
31 *1559:RN *1449:I 0
32 *1559:RN *1457:I 0
33 *1568:D *1460:I 0.000515537
34 *1568:D *360:8 7.54878e-05
35 *1568:D *360:25 0
36 *1570:SETN *1460:I 0.00061317
37 *1570:SETN *360:8 9.07674e-05
38 *1570:SETN *360:21 0.000351582
39 *1570:SETN *360:41 0.000137088
40 *1587:I *360:25 0
41 *239:16 *360:8 0
42 *310:35 *1643:I 0
43 *346:12 *1643:I 0.000194643
*RES
1 *1644:Z *360:8 12.87 
2 *360:8 *1460:I 11.16 
3 *360:8 *360:21 0.99 
4 *360:21 *360:25 10.53 
5 *360:25 *1449:I 4.77 
6 *360:25 *1457:I 5.13 
7 *360:21 *360:41 2.43 
8 *360:41 *1489:I 9.99 
9 *360:41 *1643:I 12.33 
*END

*D_NET *361 0.012465
*CONN
*I *1451:I I *D gf180mcu_fd_sc_mcu7t5v0__clkinv_1
*I *1450:I I *D gf180mcu_fd_sc_mcu7t5v0__clkinv_1
*I *1500:I I *D gf180mcu_fd_sc_mcu7t5v0__clkinv_1
*I *1499:I I *D gf180mcu_fd_sc_mcu7t5v0__clkinv_1
*I *1453:I I *D gf180mcu_fd_sc_mcu7t5v0__clkinv_1
*I *1645:Z O *D gf180mcu_fd_sc_mcu7t5v0__dlyb_1
*CAP
1 *1451:I 0
2 *1450:I 0
3 *1500:I 0.000679041
4 *1499:I 0
5 *1453:I 0.00106084
6 *1645:Z 0.000304934
7 *361:51 0.00164591
8 *361:37 0.00100164
9 *361:22 0.00155115
10 *361:10 0.000760468
11 *1453:I *1646:I 9.63115e-05
12 *1453:I *409:8 0.000126701
13 *361:22 *1308:A1 0.00010535
14 *361:22 *1308:A3 3.55118e-05
15 *361:22 *409:8 0
16 *361:51 *373:10 0
17 *1316:A1 *1453:I 3.01487e-05
18 *1316:B *1453:I 0
19 *1317:A2 *1453:I 0.000229831
20 *1328:A2 *1453:I 5.97457e-06
21 *1333:B *361:51 0.000186406
22 *1334:B *361:51 1.27836e-05
23 *1337:A1 *361:51 4.78286e-05
24 *1337:A2 *361:51 4.33229e-05
25 *1417:A1 *1453:I 0
26 *1420:B1 *1453:I 0.0010194
27 *1545:SETN *361:51 2.31089e-05
28 *1546:D *1500:I 0.000143853
29 *1546:D *361:51 0.000947585
30 *1546:CLK *361:51 0
31 *1560:RN *361:22 3.87145e-05
32 *1560:RN *361:37 4.6613e-06
33 *1561:RN *361:10 0.000529172
34 *1659:I *361:51 0
35 *209:12 *361:10 9.00209e-05
36 *212:12 *361:51 0
37 *213:16 *361:22 8.24536e-05
38 *213:20 *1453:I 0.000758709
39 *213:33 *1453:I 8.42806e-05
40 *222:10 *1453:I 5.50498e-05
41 *237:29 *361:10 4.78318e-05
42 *237:29 *361:22 9.62865e-05
43 *237:29 *361:37 5.78854e-06
44 *237:29 *361:51 1.56942e-05
45 *273:12 *1453:I 0.000333052
46 *296:8 *361:22 9.04571e-06
47 *297:25 *1453:I 4.08547e-05
48 *297:29 *1453:I 6.82386e-05
49 *312:16 *361:22 0.000147078
*RES
1 *1645:Z *361:10 7.29 
2 *361:10 *361:22 12.78 
3 *361:22 *1453:I 23.94 
4 *361:22 *361:37 0.27 
5 *361:37 *361:51 16.47 
6 *361:51 *1499:I 4.5 
7 *361:51 *1500:I 18 
8 *361:37 *1450:I 4.5 
9 *361:10 *1451:I 4.5 
*END

*D_NET *362 0.00151093
*CONN
*I *1501:I I *D gf180mcu_fd_sc_mcu7t5v0__clkinv_1
*I *1454:I I *D gf180mcu_fd_sc_mcu7t5v0__clkinv_1
*I *1646:Z O *D gf180mcu_fd_sc_mcu7t5v0__dlyb_1
*CAP
1 *1501:I 0.00041241
2 *1454:I 0.000343057
3 *1646:Z 0
4 *362:6 0.000755467
5 *1454:I *413:12 0
6 *1329:A1 *1501:I 0
*RES
1 *1646:Z *362:6 9 
2 *362:6 *1454:I 11.79 
3 *362:6 *1501:I 11.88 
*END

*D_NET *363 0.0199988
*CONN
*I *1459:I I *D gf180mcu_fd_sc_mcu7t5v0__clkinv_1
*I *1646:I I *D gf180mcu_fd_sc_mcu7t5v0__dlyb_1
*I *1645:I I *D gf180mcu_fd_sc_mcu7t5v0__dlyb_1
*I *1644:I I *D gf180mcu_fd_sc_mcu7t5v0__dlyb_1
*I *1647:Z O *D gf180mcu_fd_sc_mcu7t5v0__dlyb_1
*CAP
1 *1459:I 0.000103469
2 *1646:I 0.00230531
3 *1645:I 0.00107938
4 *1644:I 0.00103667
5 *1647:Z 0
6 *363:52 0.00331246
7 *363:27 0.00222278
8 *363:4 0.0012764
9 *1644:I *1647:I 0
10 *1644:I *1652:I 0
11 *1644:I *406:10 5.10742e-05
12 *1645:I *1308:A3 0.000128628
13 *1645:I *1335:A1 7.96333e-06
14 *1645:I *408:12 4.78286e-05
15 *1645:I *408:21 6.13973e-05
16 *1646:I *1624:I 0.00102906
17 *1646:I *405:37 0.00130897
18 *363:27 *406:10 6.54448e-05
19 *363:52 *1651:I 0
20 *1310:A2 *1646:I 5.15895e-05
21 *1310:A3 *1646:I 6.84043e-05
22 *1314:A2 *1646:I 5.30888e-06
23 *1315:A2 *1646:I 0
24 *1316:A1 *1646:I 9.34219e-05
25 *1317:A2 *1646:I 1.77471e-05
26 *1328:A2 *1646:I 0
27 *1329:A1 *1646:I 6.1299e-05
28 *1340:A2 *1645:I 0.00033694
29 *1355:S *1645:I 0.000620939
30 *1355:S *363:52 0.000267803
31 *1449:I *1645:I 6.17789e-06
32 *1452:I *1646:I 0
33 *1453:I *1646:I 9.63115e-05
34 *1489:I *1644:I 4.53481e-06
35 *1516:CLK *1644:I 0
36 *1518:D *363:52 0
37 *1535:CLK *1645:I 4.34856e-06
38 *1547:D *1646:I 4.15093e-05
39 *1547:CLK *1646:I 0
40 *1559:RN *1645:I 0.000180811
41 *1563:RN *1646:I 5.69319e-05
42 *1564:RN *1646:I 0
43 *1565:CLK *1646:I 4.68143e-05
44 *1567:CLK *1645:I 2.5688e-05
45 *1568:D *1645:I 0
46 *1569:SETN *1646:I 5.3819e-05
47 *1575:I *1646:I 0.000186093
48 *1587:I *1645:I 2.13898e-05
49 *1587:I *363:52 0.000949754
50 *159:6 *1645:I 0
51 *217:16 *1646:I 0
52 *222:10 *1646:I 0
53 *239:12 *1645:I 9.69726e-05
54 *294:99 *363:52 5.61409e-05
55 *294:115 *1646:I 0.000437486
56 *294:115 *363:52 0.000236737
57 *294:131 *1646:I 0.000476203
58 *309:6 *1645:I 2.26314e-05
59 *311:36 *363:52 1.18828e-05
60 *334:27 *363:52 0.000299004
61 *360:25 *1644:I 0
62 *360:25 *1645:I 0.00112729
63 *360:25 *363:27 0
*RES
1 *1647:Z *363:4 4.5 
2 *363:4 *1644:I 11.25 
3 *363:4 *363:27 6.03 
4 *363:27 *1645:I 19.44 
5 *363:27 *363:52 13.5 
6 *363:52 *1646:I 25.47 
7 *363:52 *1459:I 5.31 
*END

*D_NET *364 0.0149552
*CONN
*I *1507:I I *D gf180mcu_fd_sc_mcu7t5v0__clkinv_1
*I *1447:I I *D gf180mcu_fd_sc_mcu7t5v0__clkinv_1
*I *1471:I I *D gf180mcu_fd_sc_mcu7t5v0__clkinv_1
*I *1456:I I *D gf180mcu_fd_sc_mcu7t5v0__clkinv_1
*I *1475:I I *D gf180mcu_fd_sc_mcu7t5v0__clkinv_1
*I *1648:Z O *D gf180mcu_fd_sc_mcu7t5v0__dlyb_1
*CAP
1 *1507:I 0
2 *1447:I 0.000486114
3 *1471:I 0.000503187
4 *1456:I 0
5 *1475:I 0
6 *1648:Z 8.30666e-05
7 *364:24 0.00122107
8 *364:20 0.000506152
9 *364:13 0.00111469
10 *364:6 0.000923378
11 *1447:I *1257:I 0
12 *1447:I *421:8 0
13 *1447:I *421:37 0.000737018
14 *1471:I *1227:I 5.69319e-05
15 *1471:I *1269:A1 0.000161498
16 *1471:I *418:12 0.0021797
17 *364:13 *1270:B1 5.63848e-05
18 *364:13 *374:27 0
19 *364:13 *376:14 5.17422e-05
20 *364:13 *423:12 2.89427e-06
21 *364:20 *1227:I 0
22 *364:20 *1269:A1 0
23 *364:20 *423:12 0.000128688
24 *1270:C *1471:I 0
25 *1270:C *364:13 0.000254169
26 *1271:A2 *364:13 0
27 *1296:A1 *1447:I 3.64412e-05
28 *1296:A1 *364:24 0.000390584
29 *1391:A1 *1447:I 0.000551283
30 *1396:A2 *1447:I 0.000726739
31 *1521:RN *364:6 5.36871e-05
32 *1553:D *1447:I 1.70787e-05
33 *1553:D *364:24 6.14958e-05
34 *1553:RN *364:20 0.000231442
35 *1566:RN *364:13 2.59527e-05
36 *1572:I *1447:I 0.000327519
37 *136:19 *1447:I 0.000398769
38 *154:23 *364:13 7.77173e-05
39 *203:26 *1447:I 8.91539e-05
40 *294:7 *364:13 0.000217592
41 *294:97 *364:13 0.000477304
42 *298:10 *364:13 3.98088e-05
43 *316:57 *1447:I 0.00238475
44 *319:29 *1447:I 0.000381215
*RES
1 *1648:Z *364:6 5.31 
2 *364:6 *1475:I 4.5 
3 *364:6 *364:13 7.65 
4 *364:13 *1456:I 4.5 
5 *364:13 *364:20 2.25 
6 *364:20 *364:24 6.57 
7 *364:24 *1471:I 15.12 
8 *364:24 *1447:I 20.43 
9 *364:20 *1507:I 4.5 
*END

*D_NET *365 0.00462011
*CONN
*I *1505:I I *D gf180mcu_fd_sc_mcu7t5v0__clkinv_1
*I *1448:I I *D gf180mcu_fd_sc_mcu7t5v0__clkinv_1
*I *1506:I I *D gf180mcu_fd_sc_mcu7t5v0__clkinv_1
*I *1649:Z O *D gf180mcu_fd_sc_mcu7t5v0__dlyb_1
*CAP
1 *1505:I 4.17308e-05
2 *1448:I 0.000236676
3 *1506:I 0
4 *1649:Z 5.06977e-05
5 *365:23 0.000669535
6 *365:10 0.000441827
7 *1448:I *415:29 6.46422e-05
8 *365:23 *415:29 2.36914e-05
9 *1294:A2 *1448:I 2.36813e-05
10 *1294:A2 *365:23 3.55118e-05
11 *1551:RN *1505:I 3.22348e-05
12 *1551:RN *365:23 0.00023812
13 *1552:D *365:23 0.000278258
14 *1552:RN *365:10 0.000609231
15 *1552:CLK *365:23 0.000121308
16 *1558:CLK *1448:I 0.000142831
17 *1558:CLK *365:23 1.33545e-05
18 *1609:I *1448:I 7.77227e-05
19 *1609:I *365:10 0.000212914
20 *1609:I *365:23 6.59867e-05
21 *316:25 *365:23 0.00070224
22 *316:42 *1448:I 7.99897e-05
23 *316:42 *365:23 0.000457927
*RES
1 *1649:Z *365:10 15.21 
2 *365:10 *1506:I 4.5 
3 *365:10 *365:23 5.58 
4 *365:23 *1448:I 6.93 
5 *365:23 *1505:I 4.95 
*END

*D_NET *366 0.00315893
*CONN
*I *1358:I1 I *D gf180mcu_fd_sc_mcu7t5v0__mux2_2
*I *1661:I I *D gf180mcu_fd_sc_mcu7t5v0__dlyb_1
*I *1533:Q O *D gf180mcu_fd_sc_mcu7t5v0__dffrnq_1
*CAP
1 *1358:I1 0.0004649
2 *1661:I 0.000358704
3 *1533:Q 0
4 *366:4 0.000823604
5 *1358:I1 *1278:B1 0.000476519
6 *1358:I1 *1424:A1 1.23715e-05
7 *1358:I1 *1424:A2 0.000436469
8 *1358:I1 *383:14 0.000133729
9 *1425:A3 *1358:I1 0.000116914
10 *1533:D *1358:I1 9.17615e-05
11 *1533:D *1661:I 0.000214306
12 *1533:RN *1661:I 0
13 *1641:I *1358:I1 2.32439e-05
14 *1641:I *1661:I 6.40664e-06
15 *352:30 *1661:I 0
*RES
1 *1533:Q *366:4 4.5 
2 *366:4 *1661:I 16.2 
3 *366:4 *1358:I1 9 
*END

*D_NET *367 0.00854604
*CONN
*I *1503:I I *D gf180mcu_fd_sc_mcu7t5v0__clkinv_1
*I *1445:I I *D gf180mcu_fd_sc_mcu7t5v0__clkinv_1
*I *1504:I I *D gf180mcu_fd_sc_mcu7t5v0__clkinv_1
*I *1502:I I *D gf180mcu_fd_sc_mcu7t5v0__clkinv_1
*I *1260:I I *D gf180mcu_fd_sc_mcu7t5v0__clkinv_1
*I *1650:Z O *D gf180mcu_fd_sc_mcu7t5v0__dlyb_1
*CAP
1 *1503:I 0.000371853
2 *1445:I 0.000364018
3 *1504:I 0
4 *1502:I 0.00118667
5 *1260:I 0.000227513
6 *1650:Z 2.87414e-05
7 *367:47 0.000952554
8 *367:34 0.000379634
9 *367:23 0.0018389
10 *367:6 0.000745529
11 *1445:I *393:10 0.000164228
12 *1502:I *1324:B 0
13 *1502:I *391:10 0
14 *367:23 *393:10 5.01255e-05
15 *367:34 *393:10 0.000124308
16 *367:47 *393:10 8.32356e-05
17 *1296:A1 *1260:I 0
18 *1325:A1 *1502:I 0
19 *1325:A2 *1502:I 0
20 *1391:A2 *367:47 0
21 *1402:A3 *1445:I 0.000538918
22 *1444:I0 *1260:I 5.30888e-06
23 *1549:RN *1502:I 5.69319e-05
24 *1550:RN *1502:I 0
25 *1550:RN *1503:I 2.38983e-05
26 *1550:RN *367:47 3.36658e-05
27 *1554:RN *1260:I 0
28 *1554:RN *367:23 0
29 *1555:D *1445:I 4.65097e-05
30 *1555:CLK *1445:I 9.7773e-05
31 *1555:CLK *1503:I 0.000240548
32 *1555:CLK *367:47 0.000417707
33 *1578:I *1503:I 6.45039e-05
34 *1579:I *1503:I 0
35 *29:8 *1260:I 0.000278256
36 *301:10 *1445:I 0.000224708
*RES
1 *1650:Z *367:6 4.77 
2 *367:6 *1260:I 6.39 
3 *367:6 *367:23 7.74 
4 *367:23 *1502:I 16.47 
5 *367:23 *367:34 1.71 
6 *367:34 *1504:I 9 
7 *367:34 *367:47 6.84 
8 *367:47 *1445:I 18.09 
9 *367:47 *1503:I 7.56 
*END

*D_NET *368 0.0148968
*CONN
*I *1446:I I *D gf180mcu_fd_sc_mcu7t5v0__clkinv_1
*I *1650:I I *D gf180mcu_fd_sc_mcu7t5v0__dlyb_1
*I *1649:I I *D gf180mcu_fd_sc_mcu7t5v0__dlyb_1
*I *1648:I I *D gf180mcu_fd_sc_mcu7t5v0__dlyb_1
*I *1651:Z O *D gf180mcu_fd_sc_mcu7t5v0__dlyb_1
*CAP
1 *1446:I 0.000739586
2 *1650:I 0.000243704
3 *1649:I 0.000398902
4 *1648:I 0.000213854
5 *1651:Z 0
6 *368:36 0.00241736
7 *368:8 0.000741235
8 *368:4 0.00156255
9 *1446:I *1392:A1 5.53168e-05
10 *1446:I *1401:A1 0.000127621
11 *1446:I *419:10 5.8081e-05
12 *1446:I *420:14 0.000260913
13 *1446:I *421:8 0
14 *1648:I *1265:A1 0
15 *1650:I *418:6 0.000161479
16 *368:36 *1272:A2 0.000657584
17 *368:36 *421:37 1.46355e-05
18 *1263:A1 *1648:I 0.000372606
19 *1263:A1 *368:8 5.78854e-06
20 *1264:A2 *368:8 0.000261398
21 *1268:B2 *1648:I 0
22 *1268:B2 *1649:I 0
23 *1272:B2 *368:8 0.000405586
24 *1272:B2 *368:36 0.000375446
25 *1273:A1 *1649:I 0.000817599
26 *1273:A3 *1649:I 0.000154042
27 *1273:A4 *368:8 0.000283696
28 *1273:A4 *368:36 0.000276946
29 *1298:A2 *1446:I 0
30 *1391:A2 *1446:I 2.82657e-05
31 *1391:A2 *1650:I 0.000108746
32 *1392:A2 *1446:I 0.000427492
33 *1400:A3 *1446:I 0.000463466
34 *1402:A1 *1446:I 4.73908e-05
35 *1404:A3 *1650:I 0.00023711
36 *1444:I1 *1650:I 0.000165941
37 *1522:CLK *1648:I 1.73092e-05
38 *1522:CLK *1649:I 4.17866e-05
39 *1552:RN *1649:I 1.17934e-05
40 *1554:D *1650:I 0.000162001
41 *1554:RN *1650:I 5.06377e-06
42 *1572:I *368:36 0.000182528
43 *1609:I *1649:I 0.000754995
44 *153:23 *368:8 0.000718361
45 *153:23 *368:36 3.41065e-05
46 *154:23 *1648:I 0
47 *261:19 *1446:I 6.22917e-05
48 *261:19 *1650:I 0.000291047
49 *320:10 *1446:I 0.000531209
*RES
1 *1651:Z *368:4 4.5 
2 *368:4 *368:8 7.47 
3 *368:8 *1648:I 10.71 
4 *368:8 *1649:I 14.13 
5 *368:4 *368:36 23.76 
6 *368:36 *1650:I 11.88 
7 *368:36 *1446:I 17.91 
*END

*D_NET *369 0.00985944
*CONN
*I *1651:I I *D gf180mcu_fd_sc_mcu7t5v0__dlyb_1
*I *1647:I I *D gf180mcu_fd_sc_mcu7t5v0__dlyb_1
*I *1652:Z O *D gf180mcu_fd_sc_mcu7t5v0__dlyb_1
*CAP
1 *1651:I 0.00163149
2 *1647:I 0.00190084
3 *1652:Z 0.00026935
4 *1651:I *1247:I 0.000346434
5 *1651:I *1261:A2 0.00115121
6 *1651:I *1387:I0 0.000289795
7 *1651:I *1390:I0 0.000516211
8 *1651:I *374:19 0.000223172
9 *1651:I *374:27 4.34121e-06
10 *1270:A1 *1651:I 8.68281e-06
11 *1270:B2 *1651:I 0.000872513
12 *1272:C2 *1651:I 9.3226e-06
13 *1355:I0 *1651:I 0.0013367
14 *1355:S *1651:I 0
15 *1388:A2 *1651:I 0.000528649
16 *1389:A1 *1651:I 0.000119834
17 *1568:D *1647:I 0
18 *1568:D *1651:I 0
19 *1644:I *1647:I 0
20 *155:25 *1651:I 2.30981e-05
21 *334:27 *1651:I 0
22 *346:12 *1651:I 5.41357e-05
23 *359:26 *1651:I 0.00013035
24 *360:8 *1647:I 0.000204482
25 *360:25 *1647:I 8.00409e-05
26 *360:25 *1651:I 0.000158788
27 *363:52 *1651:I 0
*RES
1 *1652:Z *1647:I 11.25 
2 *1647:I *1651:I 36.45 
*END

*D_NET *370 0.0139648
*CONN
*I *1652:I I *D gf180mcu_fd_sc_mcu7t5v0__dlyb_1
*I *1642:I I *D gf180mcu_fd_sc_mcu7t5v0__dlyb_1
*I *1653:Z O *D gf180mcu_fd_sc_mcu7t5v0__dlyb_1
*CAP
1 *1652:I 0.00233284
2 *1642:I 0.000133835
3 *1653:Z 0.00114329
4 *370:10 0.00360997
5 *1652:I *1356:A1 7.70028e-05
6 *1652:I *1360:A2 0.00121737
7 *1652:I *1630:I 0
8 *1652:I *414:8 4.57989e-05
9 *1652:I *414:27 0.000278756
10 *370:10 *396:14 0.000112579
11 *1343:A1 *1652:I 0.000840175
12 *1346:A2 *1652:I 3.60989e-06
13 *1350:A1 *1652:I 7.96333e-06
14 *1352:S *1652:I 0.000212793
15 *1357:I0 *1642:I 0.000200992
16 *1357:I0 *1652:I 0.000261018
17 *1360:A1 *1652:I 0.000223407
18 *1366:A1 *1652:I 0.000425752
19 *1377:A1 *1652:I 5.3289e-05
20 *1377:A2 *1652:I 0.000674843
21 *1388:A1 *1652:I 9.90193e-05
22 *1491:I *370:10 3.80151e-05
23 *1532:CLK *1652:I 0
24 *1536:CLK *1652:I 0.000215897
25 *1537:RN *370:10 0.000232969
26 *1538:D *1652:I 0.000162133
27 *1539:D *1652:I 6.95119e-05
28 *1539:CLK *1652:I 0
29 *1541:D *1652:I 2.18208e-05
30 *1541:RN *1652:I 1.34641e-05
31 *1568:RN *1652:I 2.66308e-05
32 *1596:I *1652:I 0.000212356
33 *1643:I *1652:I 0
34 *1644:I *1652:I 0
35 *144:41 *1652:I 0.000337442
36 *245:24 *1642:I 7.19076e-05
37 *245:24 *1652:I 0.000215037
38 *302:27 *370:10 0.00016337
39 *305:20 *370:10 7.6187e-05
40 *334:27 *1652:I 4.80547e-05
41 *348:33 *370:10 3.17818e-05
42 *358:14 *370:10 7.39647e-05
43 *360:41 *1652:I 0
*RES
1 *1653:Z *370:10 21.51 
2 *370:10 *1642:I 5.85 
3 *370:10 *1652:I 44.28 
*END

*D_NET *371 0.00960646
*CONN
*I *1357:I1 I *D gf180mcu_fd_sc_mcu7t5v0__mux2_2
*I *1662:I I *D gf180mcu_fd_sc_mcu7t5v0__dlyb_1
*I *1534:Q O *D gf180mcu_fd_sc_mcu7t5v0__dffrnq_1
*CAP
1 *1357:I1 0.000506407
2 *1662:I 0.00199371
3 *1534:Q 0.000225015
4 *371:6 0.00272513
5 *1373:A1 *371:6 7.191e-07
6 *1462:I *1662:I 0
7 *1479:I *1662:I 0.000692382
8 *1524:RN *371:6 4.99408e-05
9 *1525:RN *371:6 0
10 *1533:D *1662:I 0
11 *1533:CLK *371:6 1.3634e-05
12 *1534:RN *1662:I 0
13 *1534:RN *371:6 0
14 *1632:I *1357:I1 0
15 *1653:I *1357:I1 0.00136336
16 *1653:I *1662:I 0
17 *311:26 *1357:I1 0.000212475
18 *347:8 *1662:I 6.317e-05
19 *347:8 *371:6 4.21678e-05
20 *352:8 *1662:I 0.000437294
21 *352:30 *1662:I 0.00128107
22 *352:34 *1662:I 0
*RES
1 *1534:Q *371:6 6.03 
2 *371:6 *1662:I 31.77 
3 *371:6 *1357:I1 21.15 
*END

*D_NET *372 0.00266191
*CONN
*I *1626:I I *D gf180mcu_fd_sc_mcu7t5v0__dlyb_1
*I *1546:Q O *D gf180mcu_fd_sc_mcu7t5v0__dffrnq_1
*CAP
1 *1626:I 0.000791436
2 *1546:Q 0.000791436
3 *1626:I *413:12 0.000131012
4 *1626:I *413:18 0.000217604
5 *1408:B1 *1626:I 1.79237e-05
6 *1408:B2 *1626:I 3.99224e-05
7 *1409:A1 *1626:I 2.14748e-05
8 *1409:A2 *1626:I 0.000215362
9 *1546:RN *1626:I 1.26644e-05
10 *1563:D *1626:I 0.000269783
11 *1564:D *1626:I 0
12 *1663:I *1626:I 0
13 *339:30 *1626:I 0.000153289
*RES
1 *1546:Q *1626:I 16.11 
*END

*D_NET *373 0.00578139
*CONN
*I *1231:I I *D gf180mcu_fd_sc_mcu7t5v0__clkinv_1
*I *1664:I I *D gf180mcu_fd_sc_mcu7t5v0__dlyb_1
*I *1545:Q O *D gf180mcu_fd_sc_mcu7t5v0__dffsnq_1
*CAP
1 *1231:I 6.96429e-05
2 *1664:I 0.000382827
3 *1545:Q 0.00070423
4 *373:10 0.0011567
5 *1664:I *409:14 0.00027566
6 *1664:I *409:21 0.000958049
7 *1333:A2 *1664:I 0.000128649
8 *1338:C *373:10 0
9 *1339:A1 *1664:I 2.65444e-06
10 *1339:A2 *1231:I 4.74921e-05
11 *1339:A2 *1664:I 0.000199882
12 *1408:A1 *373:10 7.09292e-05
13 *1409:A1 *373:10 0
14 *1414:A2 *1664:I 0.000196518
15 *1546:CLK *373:10 0.000101406
16 *1659:I *1231:I 0.000119192
17 *1659:I *1664:I 0.000119952
18 *233:24 *1664:I 0.00076373
19 *312:16 *1664:I 0.000483879
20 *361:51 *373:10 0
*RES
1 *1545:Q *373:10 17.73 
2 *373:10 *1664:I 11.7 
3 *373:10 *1231:I 5.31 
*END

*D_NET *374 0.0104614
*CONN
*I *1261:A3 I *D gf180mcu_fd_sc_mcu7t5v0__nor3_1
*I *1267:B1 I *D gf180mcu_fd_sc_mcu7t5v0__oai221_1
*I *1270:A2 I *D gf180mcu_fd_sc_mcu7t5v0__aoi221_1
*I *1390:I0 I *D gf180mcu_fd_sc_mcu7t5v0__mux2_2
*I *1516:Q O *D gf180mcu_fd_sc_mcu7t5v0__dffsnq_1
*CAP
1 *1261:A3 7.68466e-05
2 *1267:B1 0.00032189
3 *1270:A2 0
4 *1390:I0 0.000450638
5 *1516:Q 0
6 *374:27 0.000694265
7 *374:19 0.000754261
8 *374:6 0.000755678
9 *1261:A3 *1387:I0 1.56862e-05
10 *1267:B1 *1247:I 8.43025e-06
11 *1267:B1 *1270:B1 0.000367218
12 *1267:B1 *1272:B1 0.000416312
13 *1267:B1 *1272:C1 0.000435352
14 *1267:B1 *375:8 0.000205859
15 *1390:I0 *1630:I 0.000276883
16 *374:19 *1387:I0 0.000726748
17 *374:27 *1270:B1 2.89427e-06
18 *374:27 *1387:I0 7.49861e-05
19 *1263:A1 *1261:A3 1.86887e-06
20 *1264:A1 *1267:B1 2.05328e-05
21 *1270:A1 *1267:B1 0.00185235
22 *1270:A1 *374:27 1.0415e-05
23 *1270:C *1267:B1 4.04191e-05
24 *1271:A2 *374:27 1.06861e-05
25 *1273:A4 *1267:B1 0
26 *1388:A2 *374:19 6.05946e-05
27 *1389:A1 *1261:A3 4.6613e-06
28 *1389:A1 *374:27 0.00097881
29 *1389:B *1261:A3 1.0415e-05
30 *1494:I *1390:I0 2.70125e-05
31 *1494:I *374:19 2.76258e-05
32 *1517:D *374:19 0.000181593
33 *1517:D *374:27 0.000135657
34 *1517:RN *1267:B1 1.7368e-05
35 *1643:I *1390:I0 2.55518e-05
36 *1651:I *1390:I0 0.000516211
37 *1651:I *374:19 0.000223172
38 *1651:I *374:27 4.34121e-06
39 *137:20 *1267:B1 7.28823e-05
40 *154:23 *374:27 5.05993e-05
41 *155:25 *374:27 0
42 *334:27 *1390:I0 0.000109569
43 *346:12 *1390:I0 0.000358547
44 *359:10 *1390:I0 0.000136569
45 *364:13 *374:27 0
*RES
1 *1516:Q *374:6 9 
2 *374:6 *1390:I0 14.58 
3 *374:6 *374:19 4.23 
4 *374:19 *374:27 8.55 
5 *374:27 *1270:A2 4.5 
6 *374:27 *1267:B1 19.8 
7 *374:19 *1261:A3 9.45 
*END

*D_NET *375 0.00400037
*CONN
*I *1247:I I *D gf180mcu_fd_sc_mcu7t5v0__clkinv_1
*I *1261:A2 I *D gf180mcu_fd_sc_mcu7t5v0__nor3_1
*I *1517:Q O *D gf180mcu_fd_sc_mcu7t5v0__dffrnq_1
*CAP
1 *1247:I 0.00020324
2 *1261:A2 0.000220909
3 *1517:Q 3.6509e-05
4 *375:8 0.000460658
5 *1247:I *1270:B1 0.000135666
6 *1247:I *1272:B1 0.000272625
7 *1247:I *1272:C1 0.000157021
8 *1261:A2 *1270:B1 0.000151445
9 *1264:A2 *1247:I 0.000138251
10 *1267:B1 *1247:I 8.43025e-06
11 *1267:B1 *375:8 0.000205859
12 *1270:A1 *375:8 0.000205859
13 *1270:B2 *1247:I 0.000169677
14 *1389:A1 *1247:I 0.000136579
15 *1651:I *1247:I 0.000346434
16 *1651:I *1261:A2 0.00115121
17 *294:99 *1261:A2 0
18 *294:161 *1261:A2 0
*RES
1 *1517:Q *375:8 9.63 
2 *375:8 *1261:A2 11.97 
3 *375:8 *1247:I 13.05 
*END

*D_NET *376 0.00588141
*CONN
*I *1269:A2 I *D gf180mcu_fd_sc_mcu7t5v0__xor2_1
*I *1261:A1 I *D gf180mcu_fd_sc_mcu7t5v0__nor3_1
*I *1387:I0 I *D gf180mcu_fd_sc_mcu7t5v0__mux2_2
*I *1518:Q O *D gf180mcu_fd_sc_mcu7t5v0__dffsnq_1
*CAP
1 *1269:A2 9.23492e-05
2 *1261:A1 0
3 *1387:I0 0.000139922
4 *1518:Q 0.00045804
5 *376:14 0.000702068
6 *376:10 0.00111254
7 *1269:A2 *1257:I 6.38209e-05
8 *1269:A2 *423:12 0.000682113
9 *376:10 *1257:I 7.94868e-06
10 *1261:A3 *1387:I0 1.56862e-05
11 *1263:A1 *1387:I0 3.01487e-05
12 *1388:A2 *1387:I0 0.000390584
13 *1389:A1 *1387:I0 0.000101624
14 *1455:I *376:10 0.000538918
15 *1518:SETN *376:10 0
16 *1553:D *1269:A2 0
17 *1553:D *376:10 0
18 *1566:RN *1269:A2 0.000169927
19 *1566:RN *376:14 8.69576e-05
20 *1651:I *1387:I0 0.000289795
21 *294:97 *1387:I0 2.67007e-05
22 *294:97 *376:14 0.000118791
23 *364:13 *376:14 5.17422e-05
24 *374:19 *1387:I0 0.000726748
25 *374:27 *1387:I0 7.49861e-05
*RES
1 *1518:Q *376:10 12.78 
2 *376:10 *376:14 9.27 
3 *376:14 *1387:I0 16.74 
4 *376:14 *1261:A1 4.5 
5 *376:10 *1269:A2 11.07 
*END

*D_NET *377 0.00125122
*CONN
*I *1262:A4 I *D gf180mcu_fd_sc_mcu7t5v0__nor4_1
*I *1246:I I *D gf180mcu_fd_sc_mcu7t5v0__clkinv_1
*I *1519:Q O *D gf180mcu_fd_sc_mcu7t5v0__dffrnq_1
*CAP
1 *1262:A4 0.000243952
2 *1246:I 0
3 *1519:Q 4.24772e-05
4 *377:6 0.00028643
5 *1262:A4 *1245:I 0
6 *1262:A4 *378:25 0.000154517
7 *1473:I *1262:A4 0.000272207
8 *1473:I *377:6 4.83522e-05
9 *1474:I *1262:A4 0
10 *1519:RN *1262:A4 1.07374e-05
11 *155:8 *1262:A4 0.000119182
12 *155:25 *1262:A4 7.33612e-05
*RES
1 *1519:Q *377:6 4.95 
2 *377:6 *1246:I 4.5 
3 *377:6 *1262:A4 7.11 
*END

*D_NET *378 0.00670914
*CONN
*I *1265:A1 I *D gf180mcu_fd_sc_mcu7t5v0__xor2_1
*I *1262:A3 I *D gf180mcu_fd_sc_mcu7t5v0__nor4_1
*I *1384:I0 I *D gf180mcu_fd_sc_mcu7t5v0__mux2_2
*I *1520:Q O *D gf180mcu_fd_sc_mcu7t5v0__dffrnq_1
*CAP
1 *1265:A1 0.000496469
2 *1262:A3 0
3 *1384:I0 0.00063203
4 *1520:Q 0
5 *378:25 0.000865554
6 *378:6 0.00100112
7 *1265:A1 *1244:I 1.86887e-06
8 *1265:A1 *1262:A1 9.78505e-05
9 *1265:A1 *1262:A2 0.000174506
10 *1265:A1 *380:8 8.66077e-05
11 *378:25 *1245:I 9.7773e-05
12 *378:25 *1262:A2 8.3187e-05
13 *1262:A4 *378:25 0.000154517
14 *1263:A1 *1265:A1 0
15 *1271:A1 *1265:A1 0.000374581
16 *1271:A2 *1265:A1 3.22348e-05
17 *1273:A1 *1265:A1 1.61174e-05
18 *1273:A3 *1265:A1 0
19 *1383:A1 *378:25 2.70694e-05
20 *1385:A2 *378:25 7.00009e-05
21 *1386:A1 *1265:A1 0
22 *1386:A1 *378:25 0.000334264
23 *1386:B *378:25 0.00027004
24 *1520:D *1384:I0 1.71254e-05
25 *1520:RN *1384:I0 7.6387e-05
26 *1520:RN *378:25 5.08425e-05
27 *1521:D *1384:I0 0.000189328
28 *1522:CLK *1265:A1 0.000656427
29 *1540:RN *1384:I0 1.79536e-05
30 *1619:I *1384:I0 0
31 *1648:I *1265:A1 0
32 *153:23 *1265:A1 2.40933e-06
33 *154:6 *1265:A1 0
34 *155:25 *1265:A1 1.39839e-05
35 *155:25 *378:25 2.86227e-05
36 *311:36 *1384:I0 0.00042307
37 *324:26 *1384:I0 0.000282055
38 *324:26 *378:25 3.60189e-05
39 *324:37 *378:25 9.91262e-05
*RES
1 *1520:Q *378:6 9 
2 *378:6 *1384:I0 15.3 
3 *378:6 *378:25 10.17 
4 *378:25 *1262:A3 4.5 
5 *378:25 *1265:A1 18.63 
*END

*D_NET *379 0.00115149
*CONN
*I *1262:A2 I *D gf180mcu_fd_sc_mcu7t5v0__nor4_1
*I *1245:I I *D gf180mcu_fd_sc_mcu7t5v0__clkinv_1
*I *1521:Q O *D gf180mcu_fd_sc_mcu7t5v0__dffrnq_1
*CAP
1 *1262:A2 0.000104537
2 *1245:I 0.000175808
3 *1521:Q 0
4 *379:6 0.000280345
5 *1262:A4 *1245:I 0
6 *1263:A1 *1245:I 0
7 *1263:A1 *1262:A2 0
8 *1265:A1 *1262:A2 0.000174506
9 *1385:A2 *1245:I 4.34121e-06
10 *1386:A1 *1262:A2 7.5874e-06
11 *154:6 *1245:I 0.000223407
12 *378:25 *1245:I 9.7773e-05
13 *378:25 *1262:A2 8.3187e-05
*RES
1 *1521:Q *379:6 9 
2 *379:6 *1245:I 10.62 
3 *379:6 *1262:A2 10.17 
*END

*D_NET *380 0.00256915
*CONN
*I *1244:I I *D gf180mcu_fd_sc_mcu7t5v0__clkinv_1
*I *1262:A1 I *D gf180mcu_fd_sc_mcu7t5v0__nor4_1
*I *1522:Q O *D gf180mcu_fd_sc_mcu7t5v0__dffrnq_1
*CAP
1 *1244:I 0.000131985
2 *1262:A1 0.000222695
3 *1522:Q 0.000568967
4 *380:8 0.000923647
5 *1265:A1 *1244:I 1.86887e-06
6 *1265:A1 *1262:A1 9.78505e-05
7 *1265:A1 *380:8 8.66077e-05
8 *1381:A1 *1244:I 6.01893e-05
9 *1381:B *1262:A1 0
10 *1522:CLK *1262:A1 4.78286e-05
11 *1522:CLK *380:8 0.000196071
12 *1609:I *380:8 0
13 *155:25 *1262:A1 0.000231442
*RES
1 *1522:Q *380:8 13.95 
2 *380:8 *1262:A1 10.98 
3 *380:8 *1244:I 9.81 
*END

*D_NET *381 0.00704468
*CONN
*I *1264:B I *D gf180mcu_fd_sc_mcu7t5v0__aoi21_1
*I *1268:A1 I *D gf180mcu_fd_sc_mcu7t5v0__aoi221_1
*I *1378:A1 I *D gf180mcu_fd_sc_mcu7t5v0__nor2_1
*I *1523:Q O *D gf180mcu_fd_sc_mcu7t5v0__dffrnq_1
*CAP
1 *1264:B 0.0001921
2 *1268:A1 0
3 *1378:A1 0.000262251
4 *1523:Q 0.000140717
5 *381:27 0.00096147
6 *381:10 0.00117234
7 *1378:A1 *431:29 0.000320271
8 *381:10 *431:29 0.000354143
9 *381:27 *1265:A2 0
10 *1264:A1 *1264:B 0.000244819
11 *1267:A2 *1264:B 0
12 *1268:A2 *1264:B 0.000265083
13 *1268:A2 *381:27 1.61174e-05
14 *1268:C *381:27 5.30888e-06
15 *1273:A2 *1264:B 0.000358359
16 *1273:A2 *381:27 0.000322063
17 *1273:A3 *381:27 0.000346684
18 *1273:A4 *1264:B 9.51827e-05
19 *1273:A4 *381:27 0.00021397
20 *1281:A1 *1378:A1 0.000287156
21 *1381:A2 *1378:A1 6.84426e-06
22 *1476:I *381:27 0.000405251
23 *1621:I *381:27 0
24 *308:35 *381:10 0.000223407
25 *308:35 *381:27 2.40587e-06
26 *354:53 *1378:A1 4.13304e-05
27 *356:8 *381:10 3.29477e-05
28 *356:8 *381:27 0.000774456
*RES
1 *1523:Q *381:10 10.62 
2 *381:10 *1378:A1 12.15 
3 *381:10 *381:27 12.33 
4 *381:27 *1268:A1 4.5 
5 *381:27 *1264:B 16.02 
*END

*D_NET *382 0.00537531
*CONN
*I *1290:A4 I *D gf180mcu_fd_sc_mcu7t5v0__nor4_1
*I *1243:I I *D gf180mcu_fd_sc_mcu7t5v0__clkinv_1
*I *1524:Q O *D gf180mcu_fd_sc_mcu7t5v0__dffrnq_1
*CAP
1 *1290:A4 0.000629468
2 *1243:I 0.000146759
3 *1524:Q 4.48264e-05
4 *382:8 0.000821054
5 *1290:A4 *1424:A1 0.0001725
6 *1290:A4 *426:29 9.87401e-05
7 *1358:S *1290:A4 0.000696897
8 *1358:S *382:8 0.000400625
9 *1373:A1 *1243:I 9.54396e-05
10 *1374:A1 *1290:A4 0.000185332
11 *1374:A2 *1290:A4 9.63432e-05
12 *1374:A2 *382:8 0.000404734
13 *1422:A3 *1290:A4 3.23408e-05
14 *1509:D *1290:A4 3.01487e-05
15 *1525:D *1243:I 0.000327662
16 *1525:RN *1243:I 0.00050482
17 *1637:I *1290:A4 0.00047055
18 *1653:I *1243:I 7.23429e-05
19 *151:12 *1290:A4 3.94291e-05
20 *335:26 *1290:A4 0.000105299
*RES
1 *1524:Q *382:8 10.17 
2 *382:8 *1243:I 11.07 
3 *382:8 *1290:A4 14.94 
*END

*D_NET *383 0.00600218
*CONN
*I *1242:I I *D gf180mcu_fd_sc_mcu7t5v0__clkinv_1
*I *1290:A3 I *D gf180mcu_fd_sc_mcu7t5v0__nor4_1
*I *1525:Q O *D gf180mcu_fd_sc_mcu7t5v0__dffrnq_1
*CAP
1 *1242:I 0.000672203
2 *1290:A3 0
3 *1525:Q 0.000418568
4 *383:14 0.00109077
5 *1242:I *426:29 8.94207e-06
6 *383:14 *1278:A2 9.77245e-05
7 *383:14 *1278:B1 7.6544e-05
8 *383:14 *1424:A1 3.47782e-06
9 *383:14 *384:19 1.14168e-05
10 *1280:A2 *1242:I 0.00121632
11 *1280:A2 *383:14 0.000155175
12 *1358:I1 *383:14 0.000133729
13 *1425:A3 *383:14 0.000491085
14 *1429:A3 *1242:I 0.000281298
15 *1432:A1 *1242:I 8.38872e-05
16 *1638:I *1242:I 0.000101689
17 *168:14 *1242:I 0.000424066
18 *313:35 *1242:I 0.000494523
19 *313:53 *1242:I 0.000240762
*RES
1 *1525:Q *383:14 12.96 
2 *383:14 *1290:A3 9 
3 *383:14 *1242:I 17.19 
*END

*D_NET *384 0.00599536
*CONN
*I *1274:B2 I *D gf180mcu_fd_sc_mcu7t5v0__oai22_1
*I *1290:A2 I *D gf180mcu_fd_sc_mcu7t5v0__nor4_1
*I *1241:I I *D gf180mcu_fd_sc_mcu7t5v0__clkinv_1
*I *1526:Q O *D gf180mcu_fd_sc_mcu7t5v0__dffrnq_1
*CAP
1 *1274:B2 0.000313393
2 *1290:A2 1.33669e-05
3 *1241:I 0
4 *1526:Q 0.000217424
5 *384:19 0.000552537
6 *384:10 0.000443201
7 *1274:B2 *1275:A1 1.31385e-05
8 *1274:B2 *1279:A2 0.000169524
9 *1274:B2 *1290:A1 0.000103454
10 *1290:A2 *1279:B1 9.04462e-05
11 *1274:B1 *1274:B2 0.00131462
12 *1278:A1 *384:19 0.000382866
13 *1280:A2 *1274:B2 0.00039363
14 *1280:A2 *384:19 0.000633301
15 *1280:B *1274:B2 4.21018e-05
16 *1481:I *1274:B2 0.000445056
17 *1481:I *384:19 0.000164219
18 *1637:I *384:19 6.05946e-05
19 *1638:I *1274:B2 2.36954e-05
20 *150:6 *384:10 2.99208e-05
21 *294:19 *384:10 6.0477e-05
22 *294:19 *384:19 9.78114e-05
23 *305:10 *384:10 0
24 *335:26 *1290:A2 9.04462e-05
25 *347:43 *384:10 0.000302466
26 *357:8 *1274:B2 1.56374e-05
27 *357:27 *1274:B2 1.06178e-05
28 *383:14 *384:19 1.14168e-05
*RES
1 *1526:Q *384:10 10.98 
2 *384:10 *1241:I 9 
3 *384:10 *384:19 3.15 
4 *384:19 *1290:A2 9.27 
5 *384:19 *1274:B2 13.86 
*END

*D_NET *385 0.00518741
*CONN
*I *1240:I I *D gf180mcu_fd_sc_mcu7t5v0__clkinv_1
*I *1274:A1 I *D gf180mcu_fd_sc_mcu7t5v0__oai22_1
*I *1275:A1 I *D gf180mcu_fd_sc_mcu7t5v0__nand2_1
*I *1290:A1 I *D gf180mcu_fd_sc_mcu7t5v0__nor4_1
*I *1527:Q O *D gf180mcu_fd_sc_mcu7t5v0__dffrnq_1
*CAP
1 *1240:I 0.000182118
2 *1274:A1 3.2421e-05
3 *1275:A1 2.59333e-05
4 *1290:A1 0.000266988
5 *1527:Q 0.000152246
6 *385:28 0.000291753
7 *385:12 0.000292921
8 *385:10 0.00022946
9 *1240:I *1279:A2 6.17613e-06
10 *1240:I *429:18 1.18477e-05
11 *1290:A1 *1279:A2 2.14748e-05
12 *1290:A1 *1279:B1 0.000864114
13 *1274:B1 *1274:A1 1.98195e-05
14 *1274:B2 *1275:A1 1.31385e-05
15 *1274:B2 *1290:A1 0.000103454
16 *1275:A2 *1240:I 2.54542e-05
17 *1275:A2 *385:28 0.00021097
18 *1276:A2 *385:10 3.0177e-06
19 *1276:A2 *385:28 7.18797e-06
20 *1280:B *1290:A1 9.7667e-05
21 *1292:A1 *385:10 0
22 *1292:B1 *385:10 2.86254e-05
23 *1370:A1 *385:10 0.000151455
24 *1370:A1 *385:28 3.16214e-05
25 *1481:I *385:10 0.000147435
26 *1484:I *385:10 4.78672e-05
27 *1598:I *1240:I 6.05618e-05
28 *149:8 *1240:I 0.000416217
29 *149:8 *385:28 0.00023578
30 *167:31 *1274:A1 3.46409e-05
31 *182:12 *1240:I 0.000725766
32 *335:20 *1240:I 0.000226494
33 *357:8 *1290:A1 6.77126e-05
34 *357:27 *1275:A1 2.76752e-05
35 *357:27 *1290:A1 0.000127395
*RES
1 *1527:Q *385:10 10.44 
2 *385:10 *385:12 4.5 
3 *385:12 *1290:A1 7.83 
4 *385:12 *1275:A1 4.77 
5 *385:10 *385:28 1.53 
6 *385:28 *1274:A1 9.27 
7 *385:28 *1240:I 12.42 
*END

*D_NET *386 0.00137092
*CONN
*I *1291:A4 I *D gf180mcu_fd_sc_mcu7t5v0__nor4_1
*I *1239:I I *D gf180mcu_fd_sc_mcu7t5v0__clkinv_1
*I *1528:Q O *D gf180mcu_fd_sc_mcu7t5v0__dffrnq_1
*CAP
1 *1291:A4 0
2 *1239:I 7.71549e-05
3 *1528:Q 0.000212657
4 *386:10 0.000289812
5 *1239:I *1363:A1 0.000436469
6 *1364:B *386:10 2.75886e-05
7 *1368:A1 *386:10 0
8 *1529:SETN *386:10 0.000143583
9 *148:25 *1239:I 0.000183652
*RES
1 *1528:Q *386:10 15.21 
2 *386:10 *1239:I 5.94 
3 *386:10 *1291:A4 4.5 
*END

*D_NET *387 0.00401352
*CONN
*I *1365:A1 I *D gf180mcu_fd_sc_mcu7t5v0__nand2_1
*I *1238:I I *D gf180mcu_fd_sc_mcu7t5v0__clkinv_1
*I *1291:A3 I *D gf180mcu_fd_sc_mcu7t5v0__nor4_1
*I *1529:Q O *D gf180mcu_fd_sc_mcu7t5v0__dffsnq_1
*CAP
1 *1365:A1 0.000302858
2 *1238:I 0.000226754
3 *1291:A3 7.45158e-05
4 *1529:Q 0
5 *387:12 0.000632743
6 *387:4 0.000634332
7 *1238:I *1237:I 2.73771e-05
8 *1238:I *1291:A2 6.79362e-05
9 *1291:A3 *1291:A2 0.000183652
10 *1291:A3 *1363:A1 0.000121356
11 *387:12 *1291:A1 2.90324e-05
12 *387:12 *1291:A2 0.000151427
13 *387:12 *1363:A1 0.000132313
14 *387:12 *400:36 0.000565087
15 *1363:A2 *387:12 6.23927e-05
16 *1364:A1 *1238:I 8.54106e-06
17 *1364:A1 *387:12 0.000470242
18 *1474:I *387:12 4.24123e-05
19 *1519:CLK *1365:A1 9.04462e-05
20 *1530:CLK *1365:A1 0.000150016
21 *148:25 *1238:I 0
22 *329:16 *1365:A1 4.00895e-05
*RES
1 *1529:Q *387:4 4.5 
2 *387:4 *387:12 14.4 
3 *387:12 *1291:A3 5.67 
4 *387:12 *1238:I 15.39 
5 *387:4 *1365:A1 6.75 
*END

*D_NET *388 0.0031577
*CONN
*I *1237:I I *D gf180mcu_fd_sc_mcu7t5v0__clkinv_1
*I *1291:A2 I *D gf180mcu_fd_sc_mcu7t5v0__nor4_1
*I *1530:Q O *D gf180mcu_fd_sc_mcu7t5v0__dffrnq_1
*CAP
1 *1237:I 0.000101113
2 *1291:A2 0.000177808
3 *1530:Q 9.98237e-05
4 *388:8 0.000378744
5 *1291:A2 *1291:A1 0.000103065
6 *388:8 *1291:A1 4.51604e-05
7 *1238:I *1237:I 2.73771e-05
8 *1238:I *1291:A2 6.79362e-05
9 *1291:A3 *1291:A2 0.000183652
10 *1364:A1 *1237:I 0.000726748
11 *1364:A1 *1291:A2 0.000437789
12 *1530:RN *1291:A2 0.00050482
13 *1639:I *388:8 1.0415e-05
14 *147:8 *1237:I 9.37696e-05
15 *357:27 *388:8 4.80547e-05
16 *387:12 *1291:A2 0.000151427
*RES
1 *1530:Q *388:8 9.81 
2 *388:8 *1291:A2 12.24 
3 *388:8 *1237:I 10.89 
*END

*D_NET *389 0.0043794
*CONN
*I *1236:I I *D gf180mcu_fd_sc_mcu7t5v0__clkinv_1
*I *1291:A1 I *D gf180mcu_fd_sc_mcu7t5v0__nor4_1
*I *1361:A1 I *D gf180mcu_fd_sc_mcu7t5v0__nand2_1
*I *1531:Q O *D gf180mcu_fd_sc_mcu7t5v0__dffsnq_1
*CAP
1 *1236:I 5.85497e-05
2 *1291:A1 0.000437098
3 *1361:A1 0.000295583
4 *1531:Q 0
5 *389:8 0.00103337
6 *389:6 0.00035924
7 *1236:I *432:14 5.05993e-05
8 *1291:A1 *1363:A1 0
9 *1291:A1 *1380:A1 0
10 *1291:A2 *1291:A1 0.000103065
11 *1361:A2 *1361:A1 0.000155486
12 *1364:A1 *1361:A1 0
13 *1364:A1 *389:8 0
14 *1474:I *1291:A1 3.89217e-05
15 *1474:I *1361:A1 9.56136e-05
16 *1530:RN *1291:A1 0.00050482
17 *1531:D *1361:A1 2.76589e-05
18 *1531:SETN *1291:A1 2.37143e-05
19 *1585:I *1361:A1 0.000147366
20 *1585:I *389:8 8.92847e-05
21 *1586:I *1236:I 7.18351e-05
22 *1586:I *389:8 1.05495e-05
23 *1616:I *1361:A1 0.000223407
24 *1639:I *1291:A1 0.00011861
25 *1639:I *389:8 2.6859e-05
26 *1640:I *1236:I 1.75733e-06
27 *1640:I *389:8 1.69624e-05
28 *145:6 *1236:I 9.84908e-05
29 *294:65 *1361:A1 4.24724e-05
30 *307:19 *1361:A1 0.000262124
31 *354:23 *1236:I 1.17652e-05
32 *354:23 *1291:A1 0
33 *354:29 *389:8 0
34 *354:53 *1236:I 0
35 *354:53 *389:8 0
36 *357:27 *1291:A1 0
37 *387:12 *1291:A1 2.90324e-05
38 *388:8 *1291:A1 4.51604e-05
*RES
1 *1531:Q *389:6 9 
2 *389:6 *389:8 2.25 
3 *389:8 *1361:A1 12.78 
4 *389:8 *1291:A1 12.87 
5 *389:6 *1236:I 9.9 
*END

*D_NET *390 0.00251225
*CONN
*I *1230:I I *D gf180mcu_fd_sc_mcu7t5v0__clkinv_1
*I *1318:A3 I *D gf180mcu_fd_sc_mcu7t5v0__nand3_1
*I *1328:A1 I *D gf180mcu_fd_sc_mcu7t5v0__nor2_1
*I *1547:Q O *D gf180mcu_fd_sc_mcu7t5v0__dffrnq_1
*CAP
1 *1230:I 0
2 *1318:A3 0.000273321
3 *1328:A1 0.000237137
4 *1547:Q 0.000165314
5 *390:23 0.00035567
6 *390:8 0.0004848
7 *1319:A1 *1318:A3 5.30888e-06
8 *1323:A1 *1318:A3 1.07374e-05
9 *1326:A1 *1318:A3 5.36846e-05
10 *1326:A2 *1318:A3 0.0003808
11 *1329:A1 *1318:A3 0
12 *1329:A1 *1328:A1 0
13 *1329:A2 *1318:A3 0
14 *1329:A2 *1328:A1 0.000231442
15 *1329:A2 *390:23 0
16 *1548:CLK *1318:A3 4.59168e-05
17 *1548:CLK *390:23 4.80547e-05
18 *227:21 *1318:A3 0.000180264
19 *227:21 *1328:A1 0
20 *227:21 *390:8 0
21 *321:17 *1318:A3 3.97987e-05
*RES
1 *1547:Q *390:8 10.53 
2 *390:8 *1328:A1 10.8 
3 *390:8 *390:23 5.31 
4 *390:23 *1318:A3 16.56 
5 *390:23 *1230:I 4.5 
*END

*D_NET *391 0.00351233
*CONN
*I *1324:A1 I *D gf180mcu_fd_sc_mcu7t5v0__aoi21_1
*I *1327:A1 I *D gf180mcu_fd_sc_mcu7t5v0__aoi21_1
*I *1326:B2 I *D gf180mcu_fd_sc_mcu7t5v0__oai22_1
*I *1318:A2 I *D gf180mcu_fd_sc_mcu7t5v0__nand3_1
*I *1548:Q O *D gf180mcu_fd_sc_mcu7t5v0__dffrnq_1
*CAP
1 *1324:A1 0
2 *1327:A1 0.000102538
3 *1326:B2 1.47579e-05
4 *1318:A2 0.000179665
5 *1548:Q 0.000722591
6 *391:25 0.000117296
7 *391:12 0.000371101
8 *391:10 0.000914027
9 *391:12 *1318:A1 0
10 *1325:A2 *1318:A2 0
11 *1326:A1 *1318:A2 0.000409976
12 *1326:B1 *1318:A2 0.00022651
13 *1327:A2 *1326:B2 2.36813e-05
14 *1327:A2 *1327:A1 0.000151427
15 *1327:B *1327:A1 5.50498e-05
16 *1502:I *391:10 0
17 *1548:RN *391:10 0
18 *1548:CLK *1318:A2 5.30888e-06
19 *1548:CLK *1327:A1 0
20 *1549:D *391:10 0
21 *1549:D *391:12 0
22 *223:6 *1318:A2 0.000106536
23 *227:21 *1318:A2 9.0531e-06
24 *227:36 *1318:A2 2.90901e-05
25 *227:36 *1326:B2 1.61174e-05
26 *227:36 *391:12 1.78022e-05
27 *321:17 *1318:A2 3.97987e-05
*RES
1 *1548:Q *391:10 14.04 
2 *391:10 *391:12 1.35 
3 *391:12 *1318:A2 11.16 
4 *391:12 *391:25 4.5 
5 *391:25 *1326:B2 4.77 
6 *391:25 *1327:A1 5.67 
7 *391:10 *1324:A1 9 
*END

*D_NET *392 0.00149657
*CONN
*I *1324:B I *D gf180mcu_fd_sc_mcu7t5v0__aoi21_1
*I *1318:A1 I *D gf180mcu_fd_sc_mcu7t5v0__nand3_1
*I *1549:Q O *D gf180mcu_fd_sc_mcu7t5v0__dffrnq_1
*CAP
1 *1324:B 0.0001859
2 *1318:A1 0.000145322
3 *1549:Q 4.68117e-05
4 *392:8 0.000378034
5 *1325:A1 *1318:A1 2.98938e-05
6 *1325:A2 *1324:B 0.00015997
7 *1502:I *1324:B 0
8 *1549:D *1318:A1 0.000174497
9 *1549:D *392:8 0.000247389
10 *223:6 *1324:B 0
11 *224:8 *1318:A1 6.97399e-05
12 *227:36 *1318:A1 5.90118e-05
13 *391:12 *1318:A1 0
*RES
1 *1549:Q *392:8 9.63 
2 *392:8 *1318:A1 10.71 
3 *392:8 *1324:B 10.53 
*END

*D_NET *393 0.0031348
*CONN
*I *1320:A1 I *D gf180mcu_fd_sc_mcu7t5v0__nor2_1
*I *1229:I I *D gf180mcu_fd_sc_mcu7t5v0__clkinv_1
*I *1550:Q O *D gf180mcu_fd_sc_mcu7t5v0__dffrnq_1
*CAP
1 *1320:A1 0.000201467
2 *1229:I 0.000124902
3 *1550:Q 0.000714259
4 *393:10 0.00104063
5 *1322:A1 *393:10 8.65928e-05
6 *1406:A2 *1229:I 0
7 *1406:A2 *1320:A1 0
8 *1445:I *393:10 0.000164228
9 *1548:CLK *1320:A1 0.000135666
10 *1548:CLK *393:10 0
11 *1554:CLK *393:10 1.36885e-05
12 *1665:I *1320:A1 4.21513e-05
13 *225:8 *1320:A1 2.86227e-05
14 *300:10 *1320:A1 2.26729e-05
15 *300:12 *1229:I 4.80547e-05
16 *300:12 *1320:A1 3.08015e-05
17 *321:6 *1320:A1 0.000223398
18 *367:23 *393:10 5.01255e-05
19 *367:34 *393:10 0.000124308
20 *367:47 *393:10 8.32356e-05
*RES
1 *1550:Q *393:10 20.07 
2 *393:10 *1229:I 5.31 
3 *393:10 *1320:A1 15.66 
*END

*D_NET *394 0.00574768
*CONN
*I *1631:I I *D gf180mcu_fd_sc_mcu7t5v0__dlyb_1
*I *1630:I I *D gf180mcu_fd_sc_mcu7t5v0__dlyb_1
*I *1535:Q O *D gf180mcu_fd_sc_mcu7t5v0__dffrnq_1
*CAP
1 *1631:I 0.000575636
2 *1630:I 0.000644368
3 *1535:Q 0
4 *394:4 0.00122
5 *1630:I *1356:A1 3.55118e-05
6 *1630:I *1623:I 0.0008669
7 *1630:I *398:44 7.50811e-05
8 *1630:I *414:8 6.551e-05
9 *1631:I *1250:I 1.47998e-05
10 *1631:I *1623:I 0.000499896
11 *1343:A1 *1630:I 0.000119824
12 *1350:A1 *1630:I 2.31089e-05
13 *1350:B *1630:I 0.000507492
14 *1356:A2 *1630:I 1.23607e-05
15 *1390:I0 *1630:I 0.000276883
16 *1410:B2 *1631:I 0
17 *1497:I *1630:I 9.85004e-05
18 *1540:D *1630:I 5.61832e-05
19 *1543:RN *1630:I 6.7989e-05
20 *1587:I *1631:I 0
21 *1620:I *1631:I 0.00028891
22 *1652:I *1630:I 0
23 *334:27 *1630:I 0.000243412
24 *334:27 *1631:I 5.53103e-05
*RES
1 *1535:Q *394:4 4.5 
2 *394:4 *1630:I 21.78 
3 *394:4 *1631:I 19.08 
*END

*D_NET *395 0.00544492
*CONN
*I *1628:I I *D gf180mcu_fd_sc_mcu7t5v0__dlyb_1
*I *1629:I I *D gf180mcu_fd_sc_mcu7t5v0__dlyb_1
*I *1536:Q O *D gf180mcu_fd_sc_mcu7t5v0__dffrnq_1
*CAP
1 *1628:I 0.000152554
2 *1629:I 0.000872227
3 *1536:Q 0.000615415
4 *395:10 0.0016402
5 *1628:I *1623:I 0.000309035
6 *1341:A1 *1629:I 0
7 *1490:I *1628:I 0.000238159
8 *1490:I *395:10 0.000249347
9 *1495:I *1628:I 1.87159e-05
10 *1536:RN *395:10 0.000100396
11 *1539:CLK *1629:I 1.32722e-05
12 *1544:RN *1629:I 0.000238392
13 *1571:D *395:10 0
14 *1571:SETN *395:10 9.55009e-05
15 *1571:CLK *1629:I 0
16 *1571:CLK *395:10 0.000500384
17 *1634:I *1629:I 3.58729e-05
18 *303:34 *1629:I 0
19 *349:23 *1629:I 0.000365454
*RES
1 *1536:Q *395:10 14.22 
2 *395:10 *1629:I 15.75 
3 *395:10 *1628:I 10.71 
*END

*D_NET *396 0.0108827
*CONN
*I *1627:I I *D gf180mcu_fd_sc_mcu7t5v0__dlyb_1
*I *1387:I1 I *D gf180mcu_fd_sc_mcu7t5v0__mux2_2
*I *1537:Q O *D gf180mcu_fd_sc_mcu7t5v0__dffrnq_1
*CAP
1 *1627:I 0.000102344
2 *1387:I1 0.00209985
3 *1537:Q 0.000786381
4 *396:14 0.00298857
5 *1366:B *1387:I1 1.68677e-06
6 *1368:A2 *1387:I1 0.00020928
7 *1370:A1 *1387:I1 0.000175882
8 *1370:B *1387:I1 0.000365445
9 *1372:B *396:14 0
10 *1383:B *1387:I1 7.65425e-05
11 *1494:I *1387:I1 0.000312237
12 *1517:CLK *1387:I1 0
13 *1519:CLK *1387:I1 0
14 *1521:D *1387:I1 3.97987e-05
15 *1521:CLK *1387:I1 0.000145185
16 *1524:CLK *396:14 3.55118e-05
17 *1526:D *396:14 1.49663e-05
18 *1528:CLK *1387:I1 0
19 *1542:D *1387:I1 0.000218358
20 *1610:I *1387:I1 5.09656e-05
21 *1612:I *1387:I1 0.000372755
22 *1613:I *1387:I1 5.23429e-06
23 *1613:I *1627:I 9.04462e-05
24 *1613:I *396:14 0.000134951
25 *1617:I *1387:I1 0
26 *1618:I *1387:I1 7.34276e-05
27 *1619:I *1387:I1 0.00102907
28 *1635:I *1387:I1 6.89669e-05
29 *302:19 *1387:I1 0
30 *302:27 *396:14 0.000726739
31 *326:8 *396:14 0
32 *328:47 *1387:I1 0.000132742
33 *330:6 *1387:I1 0.000201668
34 *330:10 *1387:I1 0.000270494
35 *332:16 *1387:I1 0
36 *341:12 *1387:I1 7.47699e-06
37 *341:12 *396:14 5.06031e-06
38 *341:18 *396:14 1.18076e-06
39 *348:16 *396:14 9.06729e-06
40 *351:6 *396:14 1.78074e-05
41 *370:10 *396:14 0.000112579
*RES
1 *1537:Q *396:14 19.71 
2 *396:14 *1387:I1 24.48 
3 *396:14 *1627:I 5.4 
*END

*D_NET *397 0.0196436
*CONN
*I *1369:A1 I *D gf180mcu_fd_sc_mcu7t5v0__nor2_1
*I *1351:I1 I *D gf180mcu_fd_sc_mcu7t5v0__mux2_2
*I *1330:A3 I *D gf180mcu_fd_sc_mcu7t5v0__nor4_1
*I *1385:A1 I *D gf180mcu_fd_sc_mcu7t5v0__nand2_1
*I *1352:I0 I *D gf180mcu_fd_sc_mcu7t5v0__mux2_2
*I *1538:Q O *D gf180mcu_fd_sc_mcu7t5v0__dffrnq_1
*CAP
1 *1369:A1 0.000378376
2 *1351:I1 0
3 *1330:A3 0.000116288
4 *1385:A1 0.00111304
5 *1352:I0 0.000358445
6 *1538:Q 0
7 *397:39 0.00187774
8 *397:27 0.000710981
9 *397:12 0.000775628
10 *397:4 0.000732986
11 *1330:A3 *398:27 0.000436105
12 *1385:A1 *1380:A1 0.000173158
13 *397:39 *1347:A1 2.5448e-05
14 *397:39 *1623:I 0.00017882
15 *397:39 *398:27 1.39313e-05
16 *1330:A4 *1330:A3 0.000281217
17 *1330:A4 *397:39 7.55673e-05
18 *1331:A1 *1330:A3 6.88878e-05
19 *1331:A1 *397:39 0.00176445
20 *1331:A2 *1385:A1 0.00010703
21 *1346:A1 *1385:A1 1.38506e-05
22 *1346:B *1385:A1 0.000421139
23 *1362:B *1385:A1 0.000251578
24 *1366:A1 *397:39 6.08466e-05
25 *1369:A2 *1369:A1 0.000197599
26 *1370:A1 *1369:A1 0.00108937
27 *1370:B *1369:A1 0.000134901
28 *1474:I *1385:A1 0.000129123
29 *1492:I *1352:I0 5.28867e-05
30 *1492:I *1369:A1 0.00200132
31 *1492:I *397:12 3.19379e-05
32 *1527:RN *1369:A1 9.30289e-05
33 *1528:CLK *397:12 0.000114608
34 *1529:CLK *397:39 0.000356005
35 *1530:RN *1369:A1 3.0177e-06
36 *1542:D *1385:A1 0.000281834
37 *1573:I *397:12 0.00043862
38 *1581:I *1385:A1 5.05815e-05
39 *1585:I *1385:A1 6.36148e-05
40 *143:8 *1385:A1 0.000365454
41 *143:10 *1385:A1 2.57552e-05
42 *143:12 *1385:A1 0.000319078
43 *245:24 *1352:I0 0.000472484
44 *245:24 *397:27 4.18699e-05
45 *245:24 *397:39 5.67458e-05
46 *294:7 *1385:A1 0.000181989
47 *294:41 *1369:A1 6.25027e-05
48 *294:65 *1385:A1 0.00030657
49 *302:19 *1369:A1 0.000153272
50 *302:19 *397:12 3.69577e-05
51 *304:8 *397:39 0.000256598
52 *329:10 *1385:A1 0.000326769
53 *331:10 *1385:A1 0.000319765
54 *331:16 *397:12 3.32456e-05
55 *331:18 *1352:I0 1.58979e-05
56 *331:18 *397:12 3.58376e-05
57 *341:12 *1369:A1 0.000231555
58 *342:8 *397:39 0.000195939
59 *345:35 *1385:A1 0.000161845
60 *345:56 *1369:A1 2.39771e-05
61 *345:56 *397:12 9.28737e-05
62 *351:12 *1352:I0 0.00018209
63 *351:12 *397:27 0.000365454
64 *351:12 *397:39 0.000405153
*RES
1 *1538:Q *397:4 4.5 
2 *397:4 *397:12 8.55 
3 *397:12 *1352:I0 12.78 
4 *397:12 *397:27 5.49 
5 *397:27 *397:39 17.46 
6 *397:39 *1385:A1 27.09 
7 *397:39 *1330:A3 6.66 
8 *397:27 *1351:I1 4.5 
9 *397:4 *1369:A1 22.41 
*END

*D_NET *398 0.00963453
*CONN
*I *1351:I0 I *D gf180mcu_fd_sc_mcu7t5v0__mux2_2
*I *1384:I1 I *D gf180mcu_fd_sc_mcu7t5v0__mux2_2
*I *1349:A1 I *D gf180mcu_fd_sc_mcu7t5v0__nand2_1
*I *1330:A2 I *D gf180mcu_fd_sc_mcu7t5v0__nor4_1
*I *1367:A1 I *D gf180mcu_fd_sc_mcu7t5v0__nor2_1
*I *1539:Q O *D gf180mcu_fd_sc_mcu7t5v0__dffrnq_1
*CAP
1 *1351:I0 0.000141732
2 *1384:I1 0.000132945
3 *1349:A1 0
4 *1330:A2 0
5 *1367:A1 0
6 *1539:Q 0.000170817
7 *398:44 0.000409599
8 *398:27 0.0006447
9 *398:16 0.000553014
10 *398:10 0.000497517
11 *1384:I1 *1623:I 0.000409001
12 *398:27 *1623:I 0.000233478
13 *398:44 *1623:I 0.000233586
14 *1330:A3 *398:27 0.000436105
15 *1330:A4 *1351:I0 0.000314327
16 *1330:A4 *398:16 4.62939e-05
17 *1330:A4 *398:27 7.26513e-06
18 *1331:A1 *398:27 0.00143907
19 *1332:A1 *398:27 0.000300836
20 *1332:A1 *398:44 0.000524137
21 *1332:A2 *398:27 1.39088e-05
22 *1332:A2 *398:44 8.96599e-05
23 *1343:A1 *398:44 1.39841e-05
24 *1346:B *398:27 0.000216245
25 *1349:A2 *1384:I1 0.000365445
26 *1350:A1 *1384:I1 5.92385e-05
27 *1354:I1 *398:10 0.000185715
28 *1367:A2 *398:27 3.22122e-05
29 *1368:B *398:10 7.46112e-05
30 *1490:I *398:10 7.82351e-05
31 *1520:D *1384:I1 4.21768e-05
32 *1520:D *398:44 1.3026e-05
33 *1630:I *398:44 7.50811e-05
34 *144:8 *1384:I1 0.000147523
35 *144:25 *1384:I1 3.22348e-05
36 *144:25 *398:44 9.7667e-05
37 *144:41 *398:27 0.000339989
38 *345:56 *398:10 0.000117194
39 *351:12 *1351:I0 8.23214e-05
40 *351:12 *398:16 0.000129597
41 *351:12 *398:27 0.000920114
42 *397:39 *398:27 1.39313e-05
*RES
1 *1539:Q *398:10 15.39 
2 *398:10 *398:16 1.71 
3 *398:16 *1367:A1 4.5 
4 *398:16 *398:27 7.11 
5 *398:27 *1330:A2 4.5 
6 *398:27 *398:44 12.24 
7 *398:44 *1349:A1 4.5 
8 *398:44 *1384:I1 16.02 
9 *398:10 *1351:I0 6.03 
*END

*D_NET *399 0.00100491
*CONN
*I *1382:A1 I *D gf180mcu_fd_sc_mcu7t5v0__nand2_1
*I *1235:I I *D gf180mcu_fd_sc_mcu7t5v0__clkinv_1
*I *1540:Q O *D gf180mcu_fd_sc_mcu7t5v0__dffrnq_1
*CAP
1 *1382:A1 0
2 *1235:I 0.00011433
3 *1540:Q 8.74958e-05
4 *399:8 0.000201826
5 *1494:I *1235:I 0.000354728
6 *1494:I *399:8 0.000169524
7 *1540:RN *1235:I 6.62654e-05
8 *1540:RN *399:8 1.07374e-05
9 *311:36 *1235:I 0
10 *311:36 *399:8 0
*RES
1 *1540:Q *399:8 5.58 
2 *399:8 *1235:I 5.76 
3 *399:8 *1382:A1 4.5 
*END

*D_NET *400 0.0158147
*CONN
*I *1345:A1 I *D gf180mcu_fd_sc_mcu7t5v0__nand2_1
*I *1380:A1 I *D gf180mcu_fd_sc_mcu7t5v0__nand2_1
*I *1363:A1 I *D gf180mcu_fd_sc_mcu7t5v0__nor2_1
*I *1331:A4 I *D gf180mcu_fd_sc_mcu7t5v0__nor4_1
*I *1347:A1 I *D gf180mcu_fd_sc_mcu7t5v0__nor2_1
*I *1541:Q O *D gf180mcu_fd_sc_mcu7t5v0__dffrnq_1
*CAP
1 *1345:A1 0.000216555
2 *1380:A1 0.000440188
3 *1363:A1 0.000402095
4 *1331:A4 8.90512e-05
5 *1347:A1 0.000215903
6 *1541:Q 0
7 *400:36 0.00146633
8 *400:12 0.000358014
9 *400:8 0.000701868
10 *400:4 0.000241312
11 *1239:I *1363:A1 0.000436469
12 *1291:A1 *1363:A1 0
13 *1291:A1 *1380:A1 0
14 *1291:A3 *1363:A1 0.000121356
15 *1330:A4 *1331:A4 0.000967104
16 *1330:A4 *1347:A1 0.000429174
17 *1331:A1 *1347:A1 0.000287046
18 *1345:A2 *1345:A1 0.000398285
19 *1346:B *1345:A1 5.04049e-05
20 *1363:A2 *1363:A1 0.0013309
21 *1366:A1 *1347:A1 6.84426e-06
22 *1366:B *400:36 0.00131847
23 *1367:A2 *1347:A1 6.30259e-05
24 *1385:A1 *1380:A1 0.000173158
25 *1474:I *1380:A1 0.000502375
26 *1474:I *400:36 0.000108802
27 *1483:I *1363:A1 2.89427e-06
28 *1496:I *400:36 0.000131133
29 *1529:D *1347:A1 7.20436e-05
30 *1530:RN *1363:A1 1.13403e-05
31 *1599:I *1363:A1 0.000102735
32 *1599:I *1380:A1 7.21866e-05
33 *1635:I *400:12 6.72821e-05
34 *1635:I *400:36 2.48332e-05
35 *148:25 *1363:A1 1.23715e-05
36 *245:24 *1347:A1 1.71254e-05
37 *294:7 *1380:A1 8.32937e-06
38 *294:9 *1363:A1 4.07628e-05
39 *307:6 *1380:A1 0.000225342
40 *307:23 *400:36 8.06207e-05
41 *328:10 *1347:A1 1.17934e-05
42 *328:10 *400:36 0
43 *328:47 *400:36 5.59795e-06
44 *331:16 *1345:A1 0.00101428
45 *331:16 *400:8 9.30289e-05
46 *332:16 *1347:A1 7.1545e-05
47 *332:16 *400:12 0.000301253
48 *332:16 *400:36 0.000321911
49 *345:10 *1345:A1 0.000425752
50 *345:35 *1331:A4 0.000991245
51 *345:35 *1345:A1 0.00017601
52 *345:35 *1347:A1 0.000178218
53 *345:35 *400:8 1.98195e-05
54 *350:19 *400:36 0.000287714
55 *387:12 *1363:A1 0.000132313
56 *387:12 *400:36 0.000565087
57 *397:39 *1347:A1 2.5448e-05
*RES
1 *1541:Q *400:4 4.5 
2 *400:4 *400:8 4.77 
3 *400:8 *400:12 5.31 
4 *400:12 *1347:A1 16.38 
5 *400:12 *1331:A4 7.29 
6 *400:8 *400:36 12.69 
7 *400:36 *1363:A1 10.35 
8 *400:36 *1380:A1 9.09 
9 *400:4 *1345:A1 8.37 
*END

*D_NET *401 0.000548129
*CONN
*I *1234:I I *D gf180mcu_fd_sc_mcu7t5v0__clkinv_1
*I *1542:Q O *D gf180mcu_fd_sc_mcu7t5v0__dffrnq_1
*CAP
1 *1234:I 6.51228e-05
2 *1542:Q 6.51228e-05
3 *143:10 *1234:I 2.73e-05
4 *325:10 *1234:I 0.000390584
*RES
1 *1542:Q *1234:I 18.99 
*END

*D_NET *402 0.00378743
*CONN
*I *1233:I I *D gf180mcu_fd_sc_mcu7t5v0__clkinv_1
*I *1360:A2 I *D gf180mcu_fd_sc_mcu7t5v0__nand3_1
*I *1543:Q O *D gf180mcu_fd_sc_mcu7t5v0__dffrnq_1
*CAP
1 *1233:I 0.000149126
2 *1360:A2 0.00021222
3 *1543:Q 0
4 *402:4 0.000361347
5 *1233:I *1356:A3 1.61174e-05
6 *1233:I *414:8 0.00024066
7 *1233:I *414:27 3.22122e-05
8 *1360:A2 *1356:A3 4.31393e-06
9 *1360:A2 *1360:A3 0.000968766
10 *1360:A2 *414:27 3.60231e-05
11 *1377:A2 *1233:I 0.000236816
12 *1377:A2 *1360:A2 0.000312454
13 *1652:I *1360:A2 0.00121737
*RES
1 *1543:Q *402:4 4.5 
2 *402:4 *1360:A2 8.91 
3 *402:4 *1233:I 6.21 
*END

*D_NET *403 0.00221308
*CONN
*I *1356:A1 I *D gf180mcu_fd_sc_mcu7t5v0__nand3_1
*I *1232:I I *D gf180mcu_fd_sc_mcu7t5v0__clkinv_1
*I *1544:Q O *D gf180mcu_fd_sc_mcu7t5v0__dffrnq_1
*CAP
1 *1356:A1 0.000396148
2 *1232:I 0.00017623
3 *1544:Q 0
4 *403:6 0.000572379
5 *1356:A1 *1623:I 5.06599e-05
6 *1356:A1 *414:8 1.07374e-05
7 *1356:A1 *414:27 0.000241443
8 *1377:A1 *1232:I 0.000248121
9 *1388:A1 *1232:I 1.49477e-05
10 *1388:A1 *1356:A1 1.47138e-05
11 *1544:RN *1232:I 0.000164306
12 *1581:I *1232:I 0
13 *1581:I *1356:A1 0
14 *1630:I *1356:A1 3.55118e-05
15 *1652:I *1356:A1 7.70028e-05
16 *245:24 *1356:A1 0.000210882
*RES
1 *1544:Q *403:6 9 
2 *403:6 *1232:I 11.16 
3 *403:6 *1356:A1 12.6 
*END

*D_NET *404 0.0183117
*CONN
*I *1624:I I *D gf180mcu_fd_sc_mcu7t5v0__dlyb_1
*I *1623:I I *D gf180mcu_fd_sc_mcu7t5v0__dlyb_1
*I *1571:Q O *D gf180mcu_fd_sc_mcu7t5v0__dffsnq_1
*CAP
1 *1624:I 0.000676086
2 *1623:I 0.00231181
3 *1571:Q 0.00163572
4 *1623:I *1250:I 0.000294421
5 *1624:I *1311:A1 0.000169137
6 *1624:I *1313:A2 0.000128739
7 *1624:I *1416:A1 0.00015651
8 *1311:A2 *1624:I 0.000215777
9 *1331:A1 *1623:I 5.79557e-05
10 *1346:B *1623:I 0.000223401
11 *1348:A2 *1623:I 8.27731e-05
12 *1349:A2 *1623:I 0.000108991
13 *1350:B *1623:I 0.000507492
14 *1356:A1 *1623:I 5.06599e-05
15 *1366:A1 *1623:I 0.000251587
16 *1384:I1 *1623:I 0.000409001
17 *1410:B2 *1623:I 0.000181846
18 *1421:A2 *1624:I 5.14154e-05
19 *1490:I *1623:I 0.000142154
20 *1495:I *1623:I 5.99499e-05
21 *1518:CLK *1623:I 3.00327e-05
22 *1569:D *1623:I 2.78989e-05
23 *1569:CLK *1623:I 0.000368116
24 *1569:CLK *1624:I 0.00087484
25 *1574:I *1624:I 0
26 *1575:I *1624:I 7.6776e-05
27 *1620:I *1623:I 1.27919e-05
28 *1620:I *1624:I 0.000436469
29 *1628:I *1623:I 0.000309035
30 *1630:I *1623:I 0.0008669
31 *1631:I *1623:I 0.000499896
32 *1646:I *1624:I 0.00102906
33 *144:25 *1623:I 0.000153415
34 *144:41 *1623:I 0.000641717
35 *233:18 *1623:I 1.17002e-05
36 *245:24 *1623:I 0.00212729
37 *294:131 *1624:I 0.000175785
38 *304:23 *1623:I 0
39 *323:6 *1623:I 4.67357e-05
40 *323:12 *1623:I 0.000143051
41 *337:19 *1624:I 0.00069288
42 *346:12 *1623:I 0.000648008
43 *351:12 *1623:I 0.000778004
44 *397:39 *1623:I 0.00017882
45 *398:27 *1623:I 0.000233478
46 *398:44 *1623:I 0.000233586
*RES
1 *1571:Q *1623:I 43.2 
2 *1623:I *1624:I 27.45 
*END

*D_NET *405 0.0102884
*CONN
*I *1315:A1 I *D gf180mcu_fd_sc_mcu7t5v0__nor3_1
*I *1310:A1 I *D gf180mcu_fd_sc_mcu7t5v0__and4_1
*I *1251:I I *D gf180mcu_fd_sc_mcu7t5v0__clkinv_1
*I *1314:A1 I *D gf180mcu_fd_sc_mcu7t5v0__nor2_1
*I *1311:A1 I *D gf180mcu_fd_sc_mcu7t5v0__nand2_1
*I *1569:Q O *D gf180mcu_fd_sc_mcu7t5v0__dffsnq_1
*CAP
1 *1315:A1 0.000133756
2 *1310:A1 0.000269768
3 *1251:I 9.58455e-05
4 *1314:A1 0.000164396
5 *1311:A1 0.000378399
6 *1569:Q 0.000660642
7 *405:39 0.000562134
8 *405:37 0.000494672
9 *405:10 0.00103904
10 *1311:A1 *1413:A1 0.000217317
11 *1305:A3 *1251:I 0.000164219
12 *1305:A3 *1310:A1 8.68281e-06
13 *1310:A2 *1310:A1 0.000166843
14 *1310:A3 *1251:I 0.000453188
15 *1310:A3 *1310:A1 0.000320843
16 *1310:A3 *405:39 0.000138056
17 *1311:A2 *1311:A1 3.55118e-05
18 *1312:A3 *1311:A1 3.0177e-06
19 *1313:B *1310:A1 2.89427e-06
20 *1314:A2 *405:37 0.000513028
21 *1315:A2 *1315:A1 0.000307423
22 *1315:A3 *1315:A1 0.00012512
23 *1316:B *1251:I 5.92728e-05
24 *1316:B *405:39 0.00012341
25 *1317:A2 *1315:A1 3.3721e-05
26 *1406:A1 *1311:A1 1.71254e-05
27 *1406:A1 *405:10 0.00047497
28 *1421:A2 *1311:A1 0.000106536
29 *1444:I0 *405:10 0
30 *1452:I *405:10 0.000223398
31 *1553:CLK *405:10 0.000106536
32 *1562:D *405:10 3.04608e-05
33 *1565:CLK *405:10 0
34 *1620:I *1311:A1 0.000781084
35 *1624:I *1311:A1 0.000169137
36 *1646:I *405:37 0.00130897
37 *1665:I *1315:A1 0
38 *217:16 *1311:A1 0
39 *217:16 *405:37 2.65678e-05
40 *218:10 *1315:A1 5.79557e-05
41 *218:10 *405:39 0.000234433
42 *233:18 *1310:A1 0.000104879
43 *298:25 *405:10 4.55112e-05
44 *312:16 *1315:A1 5.96002e-05
45 *337:19 *1311:A1 7.00009e-05
*RES
1 *1569:Q *405:10 14.58 
2 *405:10 *1311:A1 14.04 
3 *405:10 *1314:A1 9 
4 *1314:A1 *405:37 12.69 
5 *405:37 *405:39 1.89 
6 *405:39 *1251:I 10.17 
7 *405:39 *1310:A1 11.61 
8 *405:37 *1315:A1 10.71 
*END

*D_NET *406 0.00945618
*CONN
*I *1312:A1 I *D gf180mcu_fd_sc_mcu7t5v0__nor3_1
*I *1335:A1 I *D gf180mcu_fd_sc_mcu7t5v0__xor2_1
*I *1410:A1 I *D gf180mcu_fd_sc_mcu7t5v0__oai32_1
*I *1567:D I *D gf180mcu_fd_sc_mcu7t5v0__dffsnq_1
*I *1355:I1 I *D gf180mcu_fd_sc_mcu7t5v0__mux2_2
*I *1570:Q O *D gf180mcu_fd_sc_mcu7t5v0__dffsnq_1
*CAP
1 *1312:A1 1.39414e-05
2 *1335:A1 0.000377429
3 *1410:A1 0
4 *1567:D 0
5 *1355:I1 0.000597348
6 *1570:Q 0.000604402
7 *406:45 0.000543117
8 *406:36 0.000417426
9 *406:12 0.00108155
10 *406:10 0.00135428
11 *1335:A1 *408:12 5.48587e-05
12 *1335:A1 *410:8 0
13 *406:36 *1250:I 2.36152e-06
14 *1312:A3 *1335:A1 3.60134e-05
15 *1355:I0 *1355:I1 1.79237e-05
16 *1410:A2 *1312:A1 2.08301e-05
17 *1410:A2 *406:45 0.000304706
18 *1410:B1 *1312:A1 9.85004e-05
19 *1410:B1 *406:45 0.000895051
20 *1421:A2 *1335:A1 0
21 *1489:I *406:10 0.000302466
22 *1516:D *406:10 1.91431e-05
23 *1535:RN *406:10 0.000173237
24 *1559:CLK *1355:I1 0
25 *1567:SETN *406:10 1.86887e-06
26 *1567:SETN *406:12 5.70124e-05
27 *1567:SETN *406:36 0.000421224
28 *1570:CLK *1355:I1 0
29 *1587:I *406:10 2.37216e-05
30 *1587:I *406:12 0
31 *1587:I *406:36 0
32 *1620:I *406:36 5.73875e-05
33 *1644:I *406:10 5.10742e-05
34 *1645:I *1335:A1 7.96333e-06
35 *159:6 *1335:A1 1.80607e-05
36 *159:12 *1335:A1 0.000672774
37 *217:16 *1335:A1 0.00023711
38 *239:12 *1355:I1 4.82122e-05
39 *239:16 *1355:I1 0.000403192
40 *334:8 *406:10 0.000476555
41 *363:27 *406:10 6.54448e-05
*RES
1 *1570:Q *406:10 14.04 
2 *406:10 *406:12 2.61 
3 *406:12 *1355:I1 13.86 
4 *406:12 *1567:D 9 
5 *406:10 *406:36 7.02 
6 *406:36 *1410:A1 4.5 
7 *406:36 *406:45 2.7 
8 *406:45 *1335:A1 16.56 
9 *406:45 *1312:A1 4.77 
*END

*D_NET *407 0.00200669
*CONN
*I *1250:I I *D gf180mcu_fd_sc_mcu7t5v0__clkinv_1
*I *1567:Q O *D gf180mcu_fd_sc_mcu7t5v0__dffsnq_1
*CAP
1 *1250:I 0.000448956
2 *1567:Q 0.000448956
3 *1410:B2 *1250:I 8.66027e-05
4 *1421:A2 *1250:I 0
5 *1567:SETN *1250:I 0.0006413
6 *1620:I *1250:I 6.92926e-05
7 *1623:I *1250:I 0.000294421
8 *1631:I *1250:I 1.47998e-05
9 *406:36 *1250:I 2.36152e-06
*RES
1 *1567:Q *1250:I 22.14 
*END

*D_NET *408 0.00616391
*CONN
*I *1308:A2 I *D gf180mcu_fd_sc_mcu7t5v0__or3_1
*I *1420:B2 I *D gf180mcu_fd_sc_mcu7t5v0__aoi22_1
*I *1307:A1 I *D gf180mcu_fd_sc_mcu7t5v0__nor2_1
*I *1340:A1 I *D gf180mcu_fd_sc_mcu7t5v0__nand2_1
*I *1559:Q O *D gf180mcu_fd_sc_mcu7t5v0__dffrnq_1
*CAP
1 *1308:A2 0.000116711
2 *1420:B2 0.000544545
3 *1307:A1 0.000116972
4 *1340:A1 0
5 *1559:Q 0.000455464
6 *408:32 0.000710091
7 *408:21 0.000594327
8 *408:12 0.000883984
9 *1308:A2 *1308:A3 0.000204502
10 *408:21 *1307:A2 0
11 *408:21 *1308:A3 6.74604e-05
12 *408:21 *1412:A1 0
13 *408:21 *1414:B 4.32015e-05
14 *1335:A1 *408:12 5.48587e-05
15 *1340:A2 *408:21 0.000824027
16 *1412:A2 *408:21 0
17 *1419:A1 *1307:A1 8.32356e-05
18 *1419:A1 *1420:B2 0.000325747
19 *1419:A1 *408:32 3.23149e-05
20 *1421:A2 *408:12 0.000241004
21 *1574:I *1420:B2 0.000111961
22 *1645:I *408:12 4.78286e-05
23 *1645:I *408:21 6.13973e-05
24 *212:12 *408:21 1.19491e-05
25 *237:29 *1420:B2 9.12897e-05
26 *239:12 *408:12 9.55009e-05
27 *272:31 *1420:B2 0.000161479
28 *296:8 *1308:A2 8.11962e-05
29 *296:8 *408:21 9.84908e-05
30 *312:16 *1307:A1 6.79362e-05
31 *312:16 *1420:B2 0
32 *312:16 *408:32 3.6437e-05
*RES
1 *1559:Q *408:12 16.92 
2 *408:12 *1340:A1 4.5 
3 *408:12 *408:21 8.73 
4 *408:21 *1307:A1 10.17 
5 *408:21 *408:32 0.63 
6 *408:32 *1420:B2 13.59 
7 *408:32 *1308:A2 10.35 
*END

*D_NET *409 0.00666736
*CONN
*I *1308:A1 I *D gf180mcu_fd_sc_mcu7t5v0__or3_1
*I *1338:A1 I *D gf180mcu_fd_sc_mcu7t5v0__aoi211_1
*I *1253:I I *D gf180mcu_fd_sc_mcu7t5v0__clkinv_1
*I *1418:B I *D gf180mcu_fd_sc_mcu7t5v0__oai21_1
*I *1560:Q O *D gf180mcu_fd_sc_mcu7t5v0__dffrnq_1
*CAP
1 *1308:A1 0.000108736
2 *1338:A1 0
3 *1253:I 0.000365971
4 *1418:B 0
5 *1560:Q 0.000424027
6 *409:21 0.000536828
7 *409:14 0.000484341
8 *409:8 0.000846247
9 *1309:A1 *1253:I 0
10 *1337:A1 *1253:I 0.000116636
11 *1338:B *1253:I 3.89414e-05
12 *1338:B *409:21 0.000103075
13 *1338:C *1253:I 0.000562979
14 *1339:A2 *409:21 0.000106536
15 *1414:A2 *409:14 8.69474e-05
16 *1418:A2 *409:21 1.56779e-05
17 *1453:I *409:8 0.000126701
18 *1664:I *409:14 0.00027566
19 *1664:I *409:21 0.000958049
20 *213:16 *409:8 0
21 *214:8 *1253:I 4.36384e-06
22 *214:10 *1253:I 2.73771e-05
23 *273:12 *409:8 5.92728e-05
24 *273:12 *409:14 8.43855e-05
25 *296:8 *1308:A1 0.000248121
26 *296:14 *409:14 0.000111446
27 *296:38 *409:21 0
28 *339:30 *1253:I 0.000726492
29 *339:32 *1253:I 0.000143204
30 *361:22 *1308:A1 0.00010535
31 *361:22 *409:8 0
*RES
1 *1560:Q *409:8 11.61 
2 *409:8 *409:14 7.2 
3 *409:14 *1418:B 4.5 
4 *409:14 *409:21 2.61 
5 *409:21 *1253:I 17.37 
6 *409:21 *1338:A1 4.5 
7 *409:8 *1308:A1 10.53 
*END

*D_NET *410 0.00572152
*CONN
*I *1307:A2 I *D gf180mcu_fd_sc_mcu7t5v0__nor2_1
*I *1308:A3 I *D gf180mcu_fd_sc_mcu7t5v0__or3_1
*I *1414:B I *D gf180mcu_fd_sc_mcu7t5v0__oai21_1
*I *1412:A1 I *D gf180mcu_fd_sc_mcu7t5v0__and2_1
*I *1561:Q O *D gf180mcu_fd_sc_mcu7t5v0__dffrnq_1
*CAP
1 *1307:A2 0.000201518
2 *1308:A3 0.000456142
3 *1414:B 0.000365648
4 *1412:A1 0.000193394
5 *1561:Q 0.000218462
6 *410:10 0.000524975
7 *410:8 0.000842056
8 *1308:A2 *1308:A3 0.000204502
9 *1335:A1 *410:8 0
10 *1412:A2 *1307:A2 3.55118e-05
11 *1412:A2 *1412:A1 0.000436469
12 *1412:A2 *1414:B 4.80371e-05
13 *1414:A2 *1307:A2 0.000100112
14 *1414:A2 *1414:B 1.68677e-06
15 *1415:A1 *1412:A1 0.000302284
16 *1415:A1 *410:8 0.000679484
17 *1415:A1 *410:10 0.00071904
18 *1561:D *1412:A1 2.26729e-05
19 *1561:RN *1308:A3 4.43493e-05
20 *1645:I *1308:A3 0.000128628
21 *159:12 *410:8 0
22 *212:12 *1307:A2 1.07374e-05
23 *237:29 *1308:A3 3.96404e-05
24 *361:22 *1308:A3 3.55118e-05
25 *408:21 *1307:A2 0
26 *408:21 *1308:A3 6.74604e-05
27 *408:21 *1412:A1 0
28 *408:21 *1414:B 4.32015e-05
*RES
1 *1561:Q *410:8 10.89 
2 *410:8 *410:10 1.89 
3 *410:10 *1412:A1 11.16 
4 *410:10 *1414:B 10.17 
5 *410:8 *1308:A3 12.69 
6 *1414:B *1307:A2 10.71 
*END

*D_NET *411 0.00281676
*CONN
*I *1416:A1 I *D gf180mcu_fd_sc_mcu7t5v0__nand2_1
*I *1306:A1 I *D gf180mcu_fd_sc_mcu7t5v0__nor3_1
*I *1313:A1 I *D gf180mcu_fd_sc_mcu7t5v0__oai31_1
*I *1254:I I *D gf180mcu_fd_sc_mcu7t5v0__clkinv_1
*I *1562:Q O *D gf180mcu_fd_sc_mcu7t5v0__dffrnq_1
*CAP
1 *1416:A1 0.000126942
2 *1306:A1 0
3 *1313:A1 0.000105689
4 *1254:I 0
5 *1562:Q 0
6 *411:19 0.000322954
7 *411:12 0.000458038
8 *411:4 0.000367716
9 *1313:A1 *1313:A2 0.000154237
10 *1313:A1 *1313:A3 1.56942e-05
11 *1416:A1 *1413:A1 1.39839e-05
12 *411:12 *1413:A1 3.12857e-05
13 *411:19 *1413:A1 0.000213358
14 *411:19 *412:23 5.82191e-05
15 *1562:RN *411:19 1.77281e-05
16 *1569:D *411:12 0
17 *1569:CLK *1416:A1 6.02974e-05
18 *1569:CLK *411:12 0.00033719
19 *1574:I *1313:A1 0.00016201
20 *1574:I *1416:A1 0
21 *1624:I *1416:A1 0.00015651
22 *233:18 *1313:A1 6.34901e-05
23 *233:18 *411:19 6.22527e-05
24 *271:18 *1416:A1 1.09982e-05
25 *337:19 *1416:A1 1.63935e-05
26 *337:19 *411:12 8.12856e-06
27 *337:19 *411:19 5.36435e-05
*RES
1 *1562:Q *411:4 4.5 
2 *411:4 *411:12 2.34 
3 *411:12 *1254:I 4.5 
4 *411:12 *411:19 2.07 
5 *411:19 *1313:A1 14.94 
6 *411:19 *1306:A1 4.5 
7 *411:4 *1416:A1 14.4 
*END

*D_NET *412 0.00816237
*CONN
*I *1306:A2 I *D gf180mcu_fd_sc_mcu7t5v0__nor3_1
*I *1313:A2 I *D gf180mcu_fd_sc_mcu7t5v0__oai31_1
*I *1413:A1 I *D gf180mcu_fd_sc_mcu7t5v0__nand2_1
*I *1255:I I *D gf180mcu_fd_sc_mcu7t5v0__clkinv_1
*I *1563:Q O *D gf180mcu_fd_sc_mcu7t5v0__dffrnq_1
*CAP
1 *1306:A2 0
2 *1313:A2 0.000300143
3 *1413:A1 0.000470176
4 *1255:I 0.000279125
5 *1563:Q 0.000551764
6 *412:23 0.000847137
7 *412:21 0.000665818
8 *412:8 0.00141989
9 *1313:A2 *1313:A3 3.55118e-05
10 *412:21 *1306:A3 4.266e-05
11 *412:21 *413:18 0.000704837
12 *412:23 *1306:A3 1.0415e-05
13 *1252:I *412:8 0
14 *1310:A3 *412:21 0.00033719
15 *1311:A1 *1413:A1 0.000217317
16 *1312:A3 *1413:A1 0
17 *1313:A1 *1313:A2 0.000154237
18 *1329:A1 *412:8 4.21513e-05
19 *1408:B2 *1255:I 0
20 *1416:A1 *1413:A1 1.39839e-05
21 *1419:A1 *1413:A1 0
22 *1547:CLK *412:21 0.000136809
23 *1569:CLK *1413:A1 6.71974e-05
24 *1569:CLK *412:23 6.07332e-05
25 *1574:I *1313:A2 7.21742e-05
26 *1624:I *1313:A2 0.000128739
27 *1625:I *412:21 0.000109434
28 *159:12 *1413:A1 0
29 *210:8 *412:21 0.000137908
30 *233:18 *1313:A2 4.03175e-06
31 *233:18 *412:21 7.35175e-05
32 *233:18 *412:23 1.77397e-05
33 *271:18 *1413:A1 3.7972e-05
34 *294:131 *1313:A2 1.63123e-05
35 *337:19 *1413:A1 0.00017514
36 *339:30 *1255:I 0.000518361
37 *340:17 *1255:I 0.000146859
38 *340:17 *412:8 3.34193e-05
39 *340:17 *412:21 3.08083e-05
40 *411:12 *1413:A1 3.12857e-05
41 *411:19 *1413:A1 0.000213358
42 *411:19 *412:23 5.82191e-05
*RES
1 *1563:Q *412:8 13.05 
2 *412:8 *1255:I 11.61 
3 *412:8 *412:21 10.71 
4 *412:21 *412:23 0.81 
5 *412:23 *1413:A1 17.82 
6 *412:23 *1313:A2 16.02 
7 *412:21 *1306:A2 4.5 
*END

*D_NET *413 0.00794177
*CONN
*I *1256:I I *D gf180mcu_fd_sc_mcu7t5v0__clkinv_1
*I *1313:A3 I *D gf180mcu_fd_sc_mcu7t5v0__oai31_1
*I *1420:A1 I *D gf180mcu_fd_sc_mcu7t5v0__aoi22_1
*I *1306:A3 I *D gf180mcu_fd_sc_mcu7t5v0__nor3_1
*I *1564:Q O *D gf180mcu_fd_sc_mcu7t5v0__dffrnq_1
*CAP
1 *1256:I 0
2 *1313:A3 0.000255776
3 *1420:A1 8.10756e-05
4 *1306:A3 3.52988e-05
5 *1564:Q 0.000603894
6 *413:27 0.000336851
7 *413:18 0.000674975
8 *413:12 0.00124357
9 *1310:A3 *1306:A3 8.49143e-05
10 *1310:A3 *413:18 0.000286817
11 *1313:A1 *1313:A3 1.56942e-05
12 *1313:A2 *1313:A3 3.55118e-05
13 *1420:B1 *1420:A1 0.000100105
14 *1454:I *413:12 0
15 *1547:D *413:12 6.76406e-05
16 *1547:CLK *413:12 6.57682e-05
17 *1547:CLK *413:18 8.13963e-05
18 *1569:CLK *1306:A3 0.000216245
19 *1569:CLK *1420:A1 5.56945e-06
20 *1569:CLK *413:18 0.000417138
21 *1574:I *1420:A1 1.89233e-05
22 *1575:I *1313:A3 6.06703e-05
23 *1626:I *413:12 0.000131012
24 *1626:I *413:18 0.000217604
25 *218:10 *1313:A3 2.9119e-05
26 *233:18 *1313:A3 0
27 *271:10 *1313:A3 0.000958711
28 *271:10 *1420:A1 0.000295094
29 *271:12 *1420:A1 3.55118e-05
30 *294:131 *1313:A3 4.25784e-05
31 *297:25 *413:18 3.97987e-05
32 *312:16 *1313:A3 0.000399601
33 *312:16 *1420:A1 0.000139025
34 *337:44 *413:18 0.000194147
35 *339:30 *413:18 1.38253e-05
36 *412:21 *1306:A3 4.266e-05
37 *412:21 *413:18 0.000704837
38 *412:23 *1306:A3 1.0415e-05
*RES
1 *1564:Q *413:12 18.54 
2 *413:12 *413:18 7.65 
3 *413:18 *1306:A3 5.13 
4 *413:18 *413:27 4.5 
5 *413:27 *1420:A1 10.26 
6 *413:27 *1313:A3 12.87 
7 *413:12 *1256:I 4.5 
*END

*D_NET *414 0.00418928
*CONN
*I *1377:A3 I *D gf180mcu_fd_sc_mcu7t5v0__and3_1
*I *1360:A3 I *D gf180mcu_fd_sc_mcu7t5v0__nand3_1
*I *1356:A3 I *D gf180mcu_fd_sc_mcu7t5v0__nand3_1
*I *1568:Q O *D gf180mcu_fd_sc_mcu7t5v0__dffrnq_1
*CAP
1 *1377:A3 0
2 *1360:A3 0.000135031
3 *1356:A3 2.544e-05
4 *1568:Q 0.000271986
5 *414:27 0.000332032
6 *414:8 0.000494427
7 *1233:I *1356:A3 1.61174e-05
8 *1233:I *414:8 0.00024066
9 *1233:I *414:27 3.22122e-05
10 *1356:A1 *414:8 1.07374e-05
11 *1356:A1 *414:27 0.000241443
12 *1356:A2 *414:8 0.000346693
13 *1360:A2 *1356:A3 4.31393e-06
14 *1360:A2 *1360:A3 0.000968766
15 *1360:A2 *414:27 3.60231e-05
16 *1377:A1 *1360:A3 0.00038059
17 *1377:A2 *1360:A3 3.55118e-05
18 *1377:A2 *414:8 8.12023e-06
19 *1388:A1 *414:27 0.000219114
20 *1630:I *414:8 6.551e-05
21 *1652:I *414:8 4.57989e-05
22 *1652:I *414:27 0.000278756
*RES
1 *1568:Q *414:8 7.2 
2 *414:8 *1356:A3 4.77 
3 *414:8 *414:27 11.52 
4 *414:27 *1360:A3 7.38 
5 *414:27 *1377:A3 4.5 
*END

*D_NET *415 0.00708074
*CONN
*I *1228:I I *D gf180mcu_fd_sc_mcu7t5v0__clkinv_1
*I *1295:A2 I *D gf180mcu_fd_sc_mcu7t5v0__nand4_1
*I *1294:A1 I *D gf180mcu_fd_sc_mcu7t5v0__nand2_1
*I *1551:Q O *D gf180mcu_fd_sc_mcu7t5v0__dffrnq_1
*CAP
1 *1228:I 0.000169422
2 *1295:A2 0
3 *1294:A1 0
4 *1551:Q 0.000305578
5 *415:29 0.000973878
6 *415:12 0.00111003
7 *1228:I *1257:I 1.51153e-05
8 *1228:I *1272:A2 5.97457e-06
9 *1228:I *1295:A1 3.01487e-05
10 *1228:I *421:37 2.9185e-05
11 *415:29 *1295:A1 2.08301e-05
12 *415:29 *421:37 6.72969e-05
13 *1267:C *415:29 6.10919e-05
14 *1294:A2 *415:12 4.34691e-05
15 *1294:A2 *415:29 0.000215448
16 *1295:A4 *1228:I 0.000100777
17 *1295:A4 *415:29 9.84908e-05
18 *1301:A2 *415:29 0.000197484
19 *1302:A3 *415:29 0
20 *1391:A3 *1228:I 0.000723459
21 *1396:A3 *415:29 0
22 *1448:I *415:29 6.46422e-05
23 *1558:D *415:12 0
24 *1558:D *415:29 0.000536348
25 *1558:RN *415:29 6.0315e-05
26 *1566:CLK *415:29 0.000508111
27 *1609:I *415:12 0.000294421
28 *137:14 *1228:I 0.000507502
29 *157:12 *415:29 0.000226832
30 *201:14 *415:29 0.000155308
31 *299:48 *415:12 0.000102089
32 *316:42 *415:29 0.000433797
33 *365:23 *415:29 2.36914e-05
*RES
1 *1551:Q *415:12 15.84 
2 *415:12 *1294:A1 4.5 
3 *415:12 *415:29 18.54 
4 *415:29 *1295:A2 4.5 
5 *415:29 *1228:I 7.56 
*END

*D_NET *416 0.00387817
*CONN
*I *1267:A1 I *D gf180mcu_fd_sc_mcu7t5v0__oai221_1
*I *1295:A1 I *D gf180mcu_fd_sc_mcu7t5v0__nand4_1
*I *1266:A1 I *D gf180mcu_fd_sc_mcu7t5v0__aoi22_1
*I *1299:A1 I *D gf180mcu_fd_sc_mcu7t5v0__xor2_1
*I *1552:Q O *D gf180mcu_fd_sc_mcu7t5v0__dffrnq_1
*CAP
1 *1267:A1 0
2 *1295:A1 0.000130301
3 *1266:A1 0
4 *1299:A1 0.000181828
5 *1552:Q 8.05791e-05
6 *416:28 0.000432323
7 *416:20 0.000403271
8 *1295:A1 *1266:B1 6.44696e-05
9 *1295:A1 *420:30 4.21639e-05
10 *1295:A1 *421:37 0.000137355
11 *416:28 *1266:B1 1.61174e-05
12 *416:28 *420:30 3.02306e-05
13 *1228:I *1295:A1 3.01487e-05
14 *1266:A2 *416:28 0.000294431
15 *1266:B2 *416:28 0.000110619
16 *1267:A2 *416:28 0.000716479
17 *1267:C *416:28 0
18 *1268:A2 *416:20 1.61174e-05
19 *1270:A1 *416:28 3.1612e-05
20 *1273:A2 *1299:A1 0.00037349
21 *1273:A2 *416:20 0.000444513
22 *1551:CLK *416:20 1.17652e-05
23 *1572:I *1295:A1 0
24 *1621:I *1299:A1 9.98816e-05
25 *1621:I *416:20 2.65444e-06
26 *157:12 *416:20 0.000129275
27 *299:35 *416:28 7.77106e-05
28 *415:29 *1295:A1 2.08301e-05
*RES
1 *1552:Q *1299:A1 10.26 
2 *1299:A1 *416:20 6.03 
3 *416:20 *416:28 12.6 
4 *416:28 *1266:A1 4.5 
5 *416:28 *1295:A1 5.85 
6 *416:20 *1267:A1 4.5 
*END

*D_NET *417 0.00103435
*CONN
*I *1227:I I *D gf180mcu_fd_sc_mcu7t5v0__clkinv_1
*I *1269:A1 I *D gf180mcu_fd_sc_mcu7t5v0__xor2_1
*I *1553:Q O *D gf180mcu_fd_sc_mcu7t5v0__dffrnq_1
*CAP
1 *1227:I 0.000171178
2 *1269:A1 0.000232723
3 *1553:Q 0
4 *417:4 0.000403901
5 *1227:I *418:12 8.12023e-06
6 *1471:I *1227:I 5.69319e-05
7 *1471:I *1269:A1 0.000161498
8 *1553:RN *1227:I 0
9 *1553:RN *1269:A1 0
10 *364:20 *1227:I 0
11 *364:20 *1269:A1 0
*RES
1 *1553:Q *417:4 4.5 
2 *417:4 *1269:A1 6.21 
3 *417:4 *1227:I 5.76 
*END

*D_NET *418 0.00788743
*CONN
*I *1249:I I *D gf180mcu_fd_sc_mcu7t5v0__clkinv_1
*I *1403:A1 I *D gf180mcu_fd_sc_mcu7t5v0__nor2_1
*I *1272:C1 I *D gf180mcu_fd_sc_mcu7t5v0__oai222_1
*I *1270:B1 I *D gf180mcu_fd_sc_mcu7t5v0__aoi221_1
*I *1554:Q O *D gf180mcu_fd_sc_mcu7t5v0__dffrnq_1
*CAP
1 *1249:I 9.48377e-05
2 *1403:A1 0
3 *1272:C1 5.76433e-05
4 *1270:B1 0.000215169
5 *1554:Q 0
6 *418:12 0.00100633
7 *418:6 0.00095721
8 *418:4 0.000318525
9 *1249:I *1401:A1 2.65444e-06
10 *1272:C1 *1272:B1 8.49208e-05
11 *418:12 *1257:I 0.000148578
12 *418:12 *1566:D 2.78989e-05
13 *1227:I *418:12 8.12023e-06
14 *1247:I *1270:B1 0.000135666
15 *1247:I *1272:C1 0.000157021
16 *1261:A2 *1270:B1 0.000151445
17 *1267:B1 *1270:B1 0.000367218
18 *1267:B1 *1272:C1 0.000435352
19 *1270:A1 *418:12 2.00087e-05
20 *1270:C *1270:B1 0.000147435
21 *1270:C *418:12 0
22 *1272:C2 *1272:C1 2.60586e-05
23 *1272:C2 *418:12 1.19184e-05
24 *1296:A1 *418:12 1.8336e-05
25 *1296:A2 *418:12 4.64138e-05
26 *1297:A2 *418:12 1.84476e-05
27 *1298:A2 *418:12 1.69023e-06
28 *1298:A4 *418:12 0.000140012
29 *1401:A2 *1249:I 0
30 *1401:A2 *418:6 0
31 *1403:A2 *418:12 0.000215362
32 *1404:A4 *1249:I 2.98728e-05
33 *1404:A4 *418:6 0.000433797
34 *1404:A4 *418:12 6.44696e-05
35 *1471:I *418:12 0.0021797
36 *1517:RN *1270:B1 3.33171e-05
37 *1553:D *418:12 3.38463e-05
38 *1554:D *418:6 2.64816e-05
39 *1554:RN *1249:I 0
40 *1554:RN *418:6 0
41 *1572:I *418:12 0
42 *1579:I *418:12 0
43 *1650:I *418:6 0.000161479
44 *204:10 *418:12 1.19491e-05
45 *294:161 *418:12 1.03727e-05
46 *294:171 *418:12 2.8591e-05
47 *364:13 *1270:B1 5.63848e-05
48 *374:27 *1270:B1 2.89427e-06
*RES
1 *1554:Q *418:4 4.5 
2 *418:4 *418:6 2.07 
3 *418:6 *418:12 13.14 
4 *418:12 *1270:B1 11.52 
5 *418:12 *1272:C1 10.44 
6 *418:6 *1403:A1 4.5 
7 *418:4 *1249:I 5.4 
*END

*D_NET *419 0.0123792
*CONN
*I *1392:A1 I *D gf180mcu_fd_sc_mcu7t5v0__nand2_1
*I *1393:A2 I *D gf180mcu_fd_sc_mcu7t5v0__nand3_1
*I *1394:A3 I *D gf180mcu_fd_sc_mcu7t5v0__nand4_1
*I *1265:A2 I *D gf180mcu_fd_sc_mcu7t5v0__xor2_1
*I *1401:A1 I *D gf180mcu_fd_sc_mcu7t5v0__xnor2_1
*I *1555:Q O *D gf180mcu_fd_sc_mcu7t5v0__dffrnq_1
*CAP
1 *1392:A1 0.000187766
2 *1393:A2 0
3 *1394:A3 0
4 *1265:A2 0.00112109
5 *1401:A1 0.000356979
6 *1555:Q 0.000323463
7 *419:29 0.00123897
8 *419:27 0.000121243
9 *419:25 0.000233161
10 *419:10 0.000722469
11 *1265:A2 *1268:B1 0.000126395
12 *1265:A2 *1395:A1 0
13 *1265:A2 *420:30 0.000414772
14 *1265:A2 *421:37 3.34818e-05
15 *1392:A1 *1397:A1 8.76476e-06
16 *1392:A1 *421:8 1.25828e-05
17 *419:10 *420:14 0.000791922
18 *419:25 *420:16 0.000478005
19 *419:27 *420:16 6.2979e-05
20 *419:27 *420:20 3.55118e-05
21 *419:29 *420:20 0.000944632
22 *419:29 *421:37 2.1573e-06
23 *1249:I *1401:A1 2.65444e-06
24 *1267:C *1265:A2 0.000499457
25 *1268:A2 *1265:A2 6.17716e-05
26 *1268:B2 *1265:A2 0.000101624
27 *1268:C *1265:A2 0.000302466
28 *1271:A1 *1265:A2 0.000102753
29 *1273:A1 *1265:A2 0.000509189
30 *1273:A3 *1265:A2 7.191e-07
31 *1273:A4 *1265:A2 0.000307206
32 *1302:A3 *1265:A2 1.19491e-05
33 *1391:A2 *1401:A1 0.000372606
34 *1392:A2 *1392:A1 0.000302284
35 *1394:A4 *419:29 0.000153289
36 *1395:A2 *1265:A2 4.34121e-06
37 *1400:A3 *419:10 9.5299e-05
38 *1401:A2 *1401:A1 3.01487e-05
39 *1402:A1 *1401:A1 0
40 *1402:A2 *419:25 0.000450538
41 *1402:A2 *419:27 7.10237e-05
42 *1402:A2 *419:29 0.000436478
43 *1446:I *1392:A1 5.53168e-05
44 *1446:I *1401:A1 0.000127621
45 *1446:I *419:10 5.8081e-05
46 *1555:D *1401:A1 0
47 *1556:D *419:10 3.12451e-05
48 *1557:CLK *419:10 1.39839e-05
49 *1566:CLK *1265:A2 7.20436e-05
50 *1579:I *1401:A1 1.84476e-05
51 *137:14 *1265:A2 0.0002875
52 *137:20 *1265:A2 4.16602e-05
53 *157:12 *1265:A2 0.000323469
54 *299:6 *1265:A2 0.000171159
55 *299:35 *1265:A2 1.27919e-05
56 *301:48 *419:10 0.000133728
57 *315:32 *1392:A1 0
58 *381:27 *1265:A2 0
*RES
1 *1555:Q *419:10 12.78 
2 *419:10 *1401:A1 12.24 
3 *419:10 *419:25 5.85 
4 *419:25 *419:27 0.27 
5 *419:27 *419:29 2.61 
6 *419:29 *1265:A2 25.2 
7 *419:29 *1394:A3 4.5 
8 *419:27 *1393:A2 4.5 
9 *419:25 *1392:A1 14.94 
*END

*D_NET *420 0.0111622
*CONN
*I *1399:A1 I *D gf180mcu_fd_sc_mcu7t5v0__xor2_1
*I *1393:A1 I *D gf180mcu_fd_sc_mcu7t5v0__nand3_1
*I *1394:A2 I *D gf180mcu_fd_sc_mcu7t5v0__nand4_1
*I *1272:B1 I *D gf180mcu_fd_sc_mcu7t5v0__oai222_1
*I *1268:B1 I *D gf180mcu_fd_sc_mcu7t5v0__aoi221_1
*I *1556:Q O *D gf180mcu_fd_sc_mcu7t5v0__dffrnq_1
*CAP
1 *1399:A1 0
2 *1393:A1 3.44897e-05
3 *1394:A2 0
4 *1272:B1 0.000297276
5 *1268:B1 0.000289401
6 *1556:Q 0.000730797
7 *420:30 0.00138081
8 *420:20 0.00099085
9 *420:16 0.000379331
10 *420:14 0.000878919
11 *420:20 *421:21 8.63254e-05
12 *420:30 *421:37 0.000495489
13 *1247:I *1272:B1 0.000272625
14 *1264:A2 *1272:B1 5.92728e-05
15 *1265:A2 *1268:B1 0.000126395
16 *1265:A2 *420:30 0.000414772
17 *1266:A2 *420:30 7.86261e-05
18 *1267:B1 *1272:B1 0.000416312
19 *1268:C *1268:B1 2.98728e-05
20 *1272:C1 *1272:B1 8.49208e-05
21 *1272:C2 *1272:B1 1.05078e-05
22 *1273:A1 *1268:B1 0.000165417
23 *1273:A4 *1272:B1 5.29961e-06
24 *1295:A1 *420:30 4.21639e-05
25 *1392:A2 *420:16 1.92099e-05
26 *1395:A2 *420:30 6.95227e-05
27 *1397:A2 *420:16 1.61174e-05
28 *1397:A2 *420:20 0.000183662
29 *1399:A2 *420:16 6.48661e-05
30 *1402:A1 *420:14 1.18076e-06
31 *1402:A2 *420:16 2.93938e-05
32 *1446:I *420:14 0.000260913
33 *1555:D *420:14 0
34 *1566:CLK *420:30 0.000169524
35 *1572:I *1272:B1 2.75692e-05
36 *1572:I *420:30 0.000196261
37 *137:14 *420:30 0
38 *156:21 *1268:B1 8.28252e-05
39 *156:21 *420:30 3.92487e-05
40 *201:14 *420:30 0
41 *299:6 *420:30 0.000388781
42 *416:28 *420:30 3.02306e-05
43 *419:10 *420:14 0.000791922
44 *419:25 *420:16 0.000478005
45 *419:27 *420:16 6.2979e-05
46 *419:27 *420:20 3.55118e-05
47 *419:29 *420:20 0.000944632
*RES
1 *1556:Q *420:14 21.15 
2 *420:14 *420:16 1.71 
3 *420:16 *420:20 2.88 
4 *420:20 *420:30 17.01 
5 *420:30 *1268:B1 6.93 
6 *420:30 *1272:B1 16.74 
7 *420:20 *1394:A2 4.5 
8 *420:16 *1393:A1 4.77 
9 *420:14 *1399:A1 4.5 
*END

*D_NET *421 0.0088718
*CONN
*I *1394:A1 I *D gf180mcu_fd_sc_mcu7t5v0__nand4_1
*I *1266:B1 I *D gf180mcu_fd_sc_mcu7t5v0__aoi22_1
*I *1272:A2 I *D gf180mcu_fd_sc_mcu7t5v0__oai222_1
*I *1397:A1 I *D gf180mcu_fd_sc_mcu7t5v0__xor2_1
*I *1557:Q O *D gf180mcu_fd_sc_mcu7t5v0__dffrnq_1
*CAP
1 *1394:A1 0
2 *1266:B1 3.73953e-06
3 *1272:A2 6.28951e-05
4 *1397:A1 4.38102e-05
5 *1557:Q 0.000784379
6 *421:37 0.000589746
7 *421:21 0.000678812
8 *421:8 0.00098389
9 *1228:I *1272:A2 5.97457e-06
10 *1228:I *421:37 2.9185e-05
11 *1265:A2 *421:37 3.34818e-05
12 *1266:B2 *1266:B1 3.55118e-05
13 *1266:B2 *1272:A2 0.000480025
14 *1267:C *421:37 5.13763e-05
15 *1272:A1 *1272:A2 0
16 *1295:A1 *1266:B1 6.44696e-05
17 *1295:A1 *421:37 0.000137355
18 *1295:A4 *1272:A2 2.26729e-05
19 *1391:A3 *421:37 0.000978502
20 *1392:A1 *1397:A1 8.76476e-06
21 *1392:A1 *421:8 1.25828e-05
22 *1394:A4 *421:37 2.89427e-06
23 *1396:A2 *421:8 0
24 *1397:A2 *421:21 9.04462e-05
25 *1398:A3 *421:21 0.000119182
26 *1446:I *421:8 0
27 *1447:I *421:8 0
28 *1447:I *421:37 0.000737018
29 *1557:CLK *421:21 1.86887e-06
30 *153:23 *1272:A2 3.55118e-05
31 *315:32 *1397:A1 0.000164219
32 *315:32 *421:8 0.000635403
33 *315:34 *421:21 0
34 *319:29 *421:8 1.94402e-05
35 *319:29 *421:37 0.00071904
36 *368:36 *1272:A2 0.000657584
37 *368:36 *421:37 1.46355e-05
38 *415:29 *421:37 6.72969e-05
39 *416:28 *1266:B1 1.61174e-05
40 *419:29 *421:37 2.1573e-06
41 *420:20 *421:21 8.63254e-05
42 *420:30 *421:37 0.000495489
*RES
1 *1557:Q *421:8 15.75 
2 *421:8 *1397:A1 9.45 
3 *421:8 *421:21 5.85 
4 *421:21 *421:37 25.56 
5 *421:37 *1272:A2 6.66 
6 *421:37 *1266:B1 4.95 
7 *421:21 *1394:A1 4.5 
*END

*D_NET *422 0.000976836
*CONN
*I *1395:A1 I *D gf180mcu_fd_sc_mcu7t5v0__xor2_1
*I *1248:I I *D gf180mcu_fd_sc_mcu7t5v0__clkinv_1
*I *1558:Q O *D gf180mcu_fd_sc_mcu7t5v0__dffrnq_1
*CAP
1 *1395:A1 0.000293235
2 *1248:I 7.68089e-05
3 *1558:Q 0
4 *422:4 0.000370044
5 *1265:A2 *1395:A1 0
6 *1302:A3 *1248:I 5.1876e-05
7 *1302:A3 *1395:A1 4.93833e-05
8 *1395:A2 *1395:A1 3.22122e-05
9 *1396:A3 *1395:A1 5.50498e-05
10 *1551:D *1395:A1 4.10827e-06
11 *1608:I *1395:A1 0
12 *201:14 *1248:I 1.19491e-05
13 *201:14 *1395:A1 3.21686e-05
14 *316:57 *1395:A1 0
*RES
1 *1558:Q *422:4 4.5 
2 *422:4 *1248:I 5.22 
3 *422:4 *1395:A1 6.75 
*END

*D_NET *423 0.00427004
*CONN
*I *1293:A1 I *D gf180mcu_fd_sc_mcu7t5v0__and2_1
*I *1295:A3 I *D gf180mcu_fd_sc_mcu7t5v0__nand4_1
*I *1566:D I *D gf180mcu_fd_sc_mcu7t5v0__dffrnq_1
*I *1565:Q O *D gf180mcu_fd_sc_mcu7t5v0__dffrnq_1
*CAP
1 *1293:A1 0
2 *1295:A3 0.000279759
3 *1566:D 4.895e-05
4 *1565:Q 0.00060076
5 *423:14 0.000364397
6 *423:12 0.000636448
7 *1295:A3 *1257:I 0
8 *1566:D *1257:I 0.000154519
9 *423:12 *1257:I 6.98994e-05
10 *423:14 *1257:I 0.000273914
11 *1269:A2 *423:12 0.000682113
12 *1293:A2 *1295:A3 1.94907e-05
13 *1295:A4 *1295:A3 9.30128e-05
14 *1553:D *423:12 9.8287e-05
15 *1565:RN *423:12 9.34594e-05
16 *1566:CLK *1295:A3 8.75034e-05
17 *1572:I *1295:A3 1.98047e-05
18 *1579:I *423:14 5.79059e-06
19 *201:14 *1295:A3 0.000360666
20 *294:171 *1566:D 0.000122672
21 *294:171 *423:14 9.91104e-05
22 *364:13 *423:12 2.89427e-06
23 *364:20 *423:12 0.000128688
24 *418:12 *1566:D 2.78989e-05
*RES
1 *1565:Q *423:12 19.26 
2 *423:12 *423:14 0.81 
3 *423:14 *1566:D 5.31 
4 *423:14 *1295:A3 16.02 
5 *423:12 *1293:A1 4.5 
*END

*D_NET *424 0.00335157
*CONN
*I *1257:I I *D gf180mcu_fd_sc_mcu7t5v0__clkinv_1
*I *1566:Q O *D gf180mcu_fd_sc_mcu7t5v0__dffrnq_1
*CAP
1 *1257:I 0.00102057
2 *1566:Q 0.00102057
3 *1228:I *1257:I 1.51153e-05
4 *1269:A2 *1257:I 6.38209e-05
5 *1293:A2 *1257:I 0.000220553
6 *1295:A3 *1257:I 0
7 *1447:I *1257:I 0
8 *1455:I *1257:I 7.58723e-05
9 *1553:D *1257:I 6.2083e-06
10 *1566:D *1257:I 0.000154519
11 *1566:RN *1257:I 0.0001102
12 *1572:I *1257:I 4.25624e-05
13 *1579:I *1257:I 8.39063e-06
14 *137:14 *1257:I 1.98195e-05
15 *166:6 *1257:I 9.30289e-05
16 *201:14 *1257:I 0
17 *298:10 *1257:I 0
18 *298:14 *1257:I 0
19 *316:57 *1257:I 0
20 *376:10 *1257:I 7.94868e-06
21 *418:12 *1257:I 0.000148578
22 *423:12 *1257:I 6.98994e-05
23 *423:14 *1257:I 0.000273914
*RES
1 *1566:Q *1257:I 36 
*END

*D_NET *425 0.0085908
*CONN
*I *1426:A3 I *D gf180mcu_fd_sc_mcu7t5v0__nand3_1
*I *1423:A2 I *D gf180mcu_fd_sc_mcu7t5v0__nand2_1
*I *1422:A1 I *D gf180mcu_fd_sc_mcu7t5v0__nor3_1
*I *1278:B1 I *D gf180mcu_fd_sc_mcu7t5v0__oai22_1
*I *1424:A2 I *D gf180mcu_fd_sc_mcu7t5v0__xnor2_1
*I *1508:Q O *D gf180mcu_fd_sc_mcu7t5v0__dffrnq_1
*CAP
1 *1426:A3 0
2 *1423:A2 0
3 *1422:A1 0.00017904
4 *1278:B1 0.000230346
5 *1424:A2 3.58406e-05
6 *1508:Q 0.00038444
7 *425:18 0.000686426
8 *425:14 0.000771752
9 *425:12 0.000277502
10 *425:10 0.00048947
11 *1278:B1 *1278:A2 9.00161e-06
12 *1278:B1 *1424:A1 0.000173255
13 *1424:A2 *1424:A1 0.000192205
14 *425:10 *426:12 0.000101615
15 *425:12 *426:12 0.000145765
16 *425:12 *426:14 0.000380315
17 *425:14 *426:14 7.28823e-05
18 *425:14 *426:18 0.000744726
19 *1278:B2 *1278:B1 7.95712e-05
20 *1358:I1 *1278:B1 0.000476519
21 *1358:I1 *1424:A2 0.000436469
22 *1374:A1 *425:18 0.000230457
23 *1481:I *1422:A1 0.000979482
24 *1508:D *1422:A1 0.000342814
25 *1510:D *425:10 4.54996e-05
26 *1641:I *425:18 0
27 *151:10 *425:10 0.000351534
28 *151:12 *425:14 2.63437e-05
29 *151:12 *425:18 0.000305538
30 *352:30 *1422:A1 0.000365445
31 *383:14 *1278:B1 7.6544e-05
*RES
1 *1508:Q *425:10 12.24 
2 *425:10 *425:12 1.35 
3 *425:12 *425:14 2.25 
4 *425:14 *425:18 8.01 
5 *425:18 *1424:A2 5.67 
6 *425:18 *1278:B1 7.2 
7 *425:14 *1422:A1 12.51 
8 *425:12 *1423:A2 9 
9 *425:10 *1426:A3 9 
*END

*D_NET *426 0.00829787
*CONN
*I *1426:A2 I *D gf180mcu_fd_sc_mcu7t5v0__nand3_1
*I *1423:A1 I *D gf180mcu_fd_sc_mcu7t5v0__nand2_1
*I *1278:A2 I *D gf180mcu_fd_sc_mcu7t5v0__oai22_1
*I *1424:A1 I *D gf180mcu_fd_sc_mcu7t5v0__xnor2_1
*I *1277:A2 I *D gf180mcu_fd_sc_mcu7t5v0__nand2_1
*I *1509:Q O *D gf180mcu_fd_sc_mcu7t5v0__dffrnq_1
*CAP
1 *1426:A2 0
2 *1423:A1 0
3 *1278:A2 0.000131434
4 *1424:A1 0.000357785
5 *1277:A2 0
6 *1509:Q 0.000195091
7 *426:29 0.000967666
8 *426:18 0.000495006
9 *426:14 3.04325e-05
10 *426:12 0.000208965
11 *426:12 *1259:I 0
12 *426:29 *1279:B1 5.27845e-05
13 *1242:I *426:29 8.94207e-06
14 *1278:B1 *1278:A2 9.00161e-06
15 *1278:B1 *1424:A1 0.000173255
16 *1278:B2 *1424:A1 0.000819549
17 *1290:A4 *1424:A1 0.0001725
18 *1290:A4 *426:29 9.87401e-05
19 *1358:I1 *1424:A1 1.23715e-05
20 *1424:A2 *1424:A1 0.000192205
21 *1425:A3 *1278:A2 9.04462e-05
22 *1425:A3 *1424:A1 8.99346e-05
23 *1425:A3 *426:29 0.000404627
24 *1481:I *426:29 0.000145762
25 *1508:D *426:29 0.000147623
26 *1508:RN *426:12 4.57916e-05
27 *1508:CLK *426:29 0.000120083
28 *1509:CLK *1278:A2 0.000176818
29 *1510:CLK *426:12 9.04462e-05
30 *151:10 *426:12 0.000247379
31 *151:10 *426:14 0.000453197
32 *151:10 *426:18 0.000635403
33 *151:12 *426:18 0.000101624
34 *151:12 *426:29 3.86527e-05
35 *282:8 *426:12 2.14664e-05
36 *313:35 *426:29 1.63813e-05
37 *347:34 *1424:A1 0
38 *347:43 *1424:A1 0
39 *383:14 *1278:A2 9.77245e-05
40 *383:14 *1424:A1 3.47782e-06
41 *425:10 *426:12 0.000101615
42 *425:12 *426:12 0.000145765
43 *425:12 *426:14 0.000380315
44 *425:14 *426:14 7.28823e-05
45 *425:14 *426:18 0.000744726
*RES
1 *1509:Q *426:12 11.07 
2 *426:12 *426:14 1.17 
3 *426:14 *426:18 6.39 
4 *426:18 *1277:A2 4.5 
5 *426:18 *426:29 8.46 
6 *426:29 *1424:A1 12.96 
7 *426:29 *1278:A2 10.35 
8 *426:14 *1423:A1 9 
9 *426:12 *1426:A2 9 
*END

*D_NET *427 0.009463
*CONN
*I *1426:A1 I *D gf180mcu_fd_sc_mcu7t5v0__nand3_1
*I *1259:I I *D gf180mcu_fd_sc_mcu7t5v0__clkinv_1
*I *1279:B1 I *D gf180mcu_fd_sc_mcu7t5v0__oai22_1
*I *1510:Q O *D gf180mcu_fd_sc_mcu7t5v0__dffrnq_1
*CAP
1 *1426:A1 1.96458e-05
2 *1259:I 0.000392602
3 *1279:B1 0.000496702
4 *1510:Q 0.00112514
5 *427:14 0.00091906
6 *427:12 0.00117454
7 *1290:A1 *1279:B1 0.000864114
8 *1290:A2 *1279:B1 9.04462e-05
9 *1422:A3 *1279:B1 2.93938e-05
10 *1425:A1 *1279:B1 0.000290753
11 *1508:D *1259:I 0
12 *1508:CLK *1279:B1 0.000104534
13 *1508:CLK *427:12 5.44679e-05
14 *1508:CLK *427:14 1.66633e-05
15 *1509:RN *1259:I 9.55009e-05
16 *1510:RN *427:12 6.7004e-06
17 *151:10 *1279:B1 0.000789343
18 *151:10 *427:12 0.000655983
19 *151:10 *427:14 0.000135496
20 *151:12 *1279:B1 0.00043264
21 *168:14 *1259:I 0.000247527
22 *282:8 *1259:I 3.7082e-05
23 *282:8 *1426:A1 8.49143e-05
24 *313:35 *1279:B1 0.000467603
25 *335:26 *1279:B1 0.000161713
26 *357:8 *1279:B1 3.25438e-05
27 *357:27 *1279:B1 0.000685102
28 *426:12 *1259:I 0
29 *426:29 *1279:B1 5.27845e-05
*RES
1 *1510:Q *427:12 16.83 
2 *427:12 *427:14 0.45 
3 *427:14 *1279:B1 16.92 
4 *427:14 *1259:I 12.42 
5 *427:12 *1426:A1 9.27 
*END

*D_NET *428 0.00485213
*CONN
*I *1258:I I *D gf180mcu_fd_sc_mcu7t5v0__clkinv_1
*I *1279:A2 I *D gf180mcu_fd_sc_mcu7t5v0__oai22_1
*I *1511:Q O *D gf180mcu_fd_sc_mcu7t5v0__dffrnq_1
*CAP
1 *1258:I 0.000102784
2 *1279:A2 0.000733577
3 *1511:Q 0.000230612
4 *428:8 0.00106697
5 *1279:A2 *429:10 0
6 *1279:A2 *429:18 0
7 *428:8 *429:10 0
8 *1240:I *1279:A2 6.17613e-06
9 *1274:B2 *1279:A2 0.000169524
10 *1280:B *1279:A2 0.000239033
11 *1290:A1 *1279:A2 2.14748e-05
12 *1428:A1 *1279:A2 0.000832265
13 *1430:A2 *1279:A2 0.000295931
14 *1466:I *1258:I 0.000119182
15 *1511:D *1279:A2 0.000205793
16 *149:8 *1279:A2 0.000257257
17 *167:8 *1279:A2 0.000134884
18 *167:10 *1279:A2 8.43025e-06
19 *282:21 *1279:A2 0.000428239
*RES
1 *1511:Q *428:8 10.53 
2 *428:8 *1279:A2 18 
3 *428:8 *1258:I 9.81 
*END

*D_NET *429 0.00700967
*CONN
*I *1434:A1 I *D gf180mcu_fd_sc_mcu7t5v0__nor2_1
*I *1282:B1 I *D gf180mcu_fd_sc_mcu7t5v0__aoi22_1
*I *1285:B1 I *D gf180mcu_fd_sc_mcu7t5v0__oai22_1
*I *1433:A1 I *D gf180mcu_fd_sc_mcu7t5v0__and2_1
*I *1512:Q O *D gf180mcu_fd_sc_mcu7t5v0__dffrnq_1
*CAP
1 *1434:A1 0
2 *1282:B1 4.93769e-05
3 *1285:B1 0.000150756
4 *1433:A1 0
5 *1512:Q 0.000592374
6 *429:29 0.000485022
7 *429:18 0.000745491
8 *429:10 0.00105298
9 *1240:I *429:18 1.18477e-05
10 *1276:A2 *429:18 5.06031e-06
11 *1276:A2 *429:29 6.75054e-06
12 *1279:A2 *429:10 0
13 *1279:A2 *429:18 0
14 *1282:A1 *1285:B1 0.000371456
15 *1282:B2 *1282:B1 0.000129618
16 *1282:B2 *1285:B1 7.21742e-05
17 *1282:B2 *429:29 9.30835e-05
18 *1283:A1 *429:29 2.14748e-05
19 *1433:A2 *429:18 0.000181774
20 *1435:A1 *429:29 0.000415035
21 *1466:I *429:10 4.76678e-05
22 *1598:I *429:18 0.000229402
23 *147:8 *1285:B1 0.000119878
24 *148:25 *1285:B1 0
25 *189:10 *429:29 2.98571e-05
26 *190:14 *1282:B1 0.000354738
27 *190:14 *1285:B1 3.19635e-05
28 *190:14 *429:29 0.000216305
29 *335:12 *1285:B1 0.000372606
30 *335:12 *429:29 0.000177167
31 *335:20 *429:18 9.04462e-05
32 *335:20 *429:29 0.000955367
33 *428:8 *429:10 0
*RES
1 *1512:Q *429:10 13.32 
2 *429:10 *429:18 8.19 
3 *429:18 *1433:A1 4.5 
4 *429:18 *429:29 4.23 
5 *429:29 *1285:B1 16.29 
6 *429:29 *1282:B1 5.49 
7 *429:10 *1434:A1 9 
*END

*D_NET *430 0.00980541
*CONN
*I *1282:A2 I *D gf180mcu_fd_sc_mcu7t5v0__aoi22_1
*I *1284:B1 I *D gf180mcu_fd_sc_mcu7t5v0__oai22_1
*I *1439:A2 I *D gf180mcu_fd_sc_mcu7t5v0__nand3_1
*I *1436:A1 I *D gf180mcu_fd_sc_mcu7t5v0__nand2_1
*I *1437:A1 I *D gf180mcu_fd_sc_mcu7t5v0__xnor2_1
*I *1513:Q O *D gf180mcu_fd_sc_mcu7t5v0__dffrnq_1
*CAP
1 *1282:A2 2.65826e-05
2 *1284:B1 0.000204897
3 *1439:A2 3.19264e-05
4 *1436:A1 0
5 *1437:A1 0.000116594
6 *1513:Q 0.000143669
7 *430:47 0.000360359
8 *430:36 0.000446478
9 *430:14 0.000266334
10 *430:8 0.00057908
11 *1437:A1 *431:29 0.00010781
12 *1439:A2 *1439:A1 3.97987e-05
13 *430:14 *1439:A1 0.000364888
14 *430:14 *431:25 6.87524e-05
15 *430:14 *431:29 0.000174497
16 *430:36 *1439:A1 0.000510023
17 *430:47 *432:8 7.94868e-06
18 *1282:A1 *1284:B1 3.98375e-05
19 *1436:A2 *1437:A1 0.0001981
20 *1437:A2 *1437:A1 0.000295732
21 *1438:A2 *1437:A1 9.39061e-05
22 *1438:A2 *430:8 3.55431e-05
23 *1438:A2 *430:14 0.000301607
24 *1438:A3 *430:8 6.0354e-06
25 *1439:A3 *430:47 0.000747296
26 *1442:A2 *1284:B1 0.000320262
27 *1442:A2 *430:47 0.00172656
28 *1443:A2 *430:14 0.00015547
29 *1467:I *430:36 3.22348e-05
30 *1469:I *1439:A2 7.191e-07
31 *1469:I *430:8 0.00010802
32 *1469:I *430:14 3.8796e-05
33 *1469:I *430:36 2.56915e-05
34 *1513:D *430:14 2.36954e-05
35 *1513:D *430:36 6.34901e-05
36 *1513:RN *430:36 0.000487336
37 *1515:RN *430:36 0.000193438
38 *1621:I *1282:A2 9.84908e-05
39 *1640:I *1284:B1 0.000310861
40 *1640:I *1437:A1 2.98728e-05
41 *146:19 *1284:B1 0.000182206
42 *189:10 *1282:A2 0
43 *287:27 *430:47 0.000749856
44 *287:33 *1437:A1 5.79792e-06
45 *336:17 *430:14 8.49208e-05
*RES
1 *1513:Q *430:8 10.35 
2 *430:8 *430:14 7.02 
3 *430:14 *1437:A1 15.48 
4 *430:14 *1436:A1 4.5 
5 *430:8 *430:36 8.55 
6 *430:36 *1439:A2 4.77 
7 *430:36 *430:47 9.09 
8 *430:47 *1284:B1 11.61 
9 *430:47 *1282:A2 9.27 
*END

*D_NET *431 0.0121675
*CONN
*I *1439:A1 I *D gf180mcu_fd_sc_mcu7t5v0__nand3_1
*I *1281:B1 I *D gf180mcu_fd_sc_mcu7t5v0__aoi22_1
*I *1284:A2 I *D gf180mcu_fd_sc_mcu7t5v0__oai22_1
*I *1440:A1 I *D gf180mcu_fd_sc_mcu7t5v0__xor2_1
*I *1514:Q O *D gf180mcu_fd_sc_mcu7t5v0__dffrnq_1
*CAP
1 *1439:A1 0.000631279
2 *1281:B1 0
3 *1284:A2 0.000185012
4 *1440:A1 8.39962e-05
5 *1514:Q 0.000558607
6 *431:29 0.000415053
7 *431:25 0.00110211
8 *431:10 0.000883397
9 *1284:A2 *1281:A2 9.3226e-06
10 *1281:A1 *431:29 0.000174506
11 *1281:B2 *1284:A2 0.00140579
12 *1378:A1 *431:29 0.000320271
13 *1437:A1 *431:29 0.00010781
14 *1438:A1 *1439:A1 6.78911e-05
15 *1438:A2 *431:29 1.52191e-05
16 *1439:A2 *1439:A1 3.97987e-05
17 *1440:A2 *431:25 0.000834753
18 *1441:A1 *1440:A1 0
19 *1441:A1 *431:10 0
20 *1443:A2 *431:25 1.23715e-05
21 *1469:I *431:29 0.000302945
22 *1477:I *431:29 8.429e-05
23 *1513:D *1439:A1 0.000426602
24 *1513:D *431:29 0.000890491
25 *1514:RN *431:10 1.26644e-05
26 *1515:RN *1439:A1 5.97457e-06
27 *1606:I *431:25 0.000945927
28 *189:10 *1284:A2 0.00099467
29 *314:6 *1439:A1 0.000132868
30 *316:8 *431:10 0
31 *316:25 *431:10 0
32 *316:25 *431:25 0
33 *317:13 *1439:A1 0
34 *336:17 *431:25 4.78302e-05
35 *356:8 *1284:A2 3.73774e-06
36 *381:10 *431:29 0.000354143
37 *430:14 *1439:A1 0.000364888
38 *430:14 *431:25 6.87524e-05
39 *430:14 *431:29 0.000174497
40 *430:36 *1439:A1 0.000510023
*RES
1 *1514:Q *431:10 12.78 
2 *431:10 *1440:A1 9.45 
3 *431:10 *431:25 12.69 
4 *431:25 *431:29 9.45 
5 *431:29 *1284:A2 8.55 
6 *431:29 *1281:B1 4.5 
7 *431:25 *1439:A1 15.57 
*END

*D_NET *432 0.00687687
*CONN
*I *1281:A2 I *D gf180mcu_fd_sc_mcu7t5v0__aoi22_1
*I *1442:A1 I *D gf180mcu_fd_sc_mcu7t5v0__xor2_1
*I *1285:A2 I *D gf180mcu_fd_sc_mcu7t5v0__oai22_1
*I *1289:A2 I *D gf180mcu_fd_sc_mcu7t5v0__oai21_1
*I *1515:Q O *D gf180mcu_fd_sc_mcu7t5v0__dffrnq_1
*CAP
1 *1281:A2 0.000286925
2 *1442:A1 0
3 *1285:A2 0
4 *1289:A2 0.000223724
5 *1515:Q 0.000644647
6 *432:34 0.000304154
7 *432:14 0.000802652
8 *432:8 0.0012408
9 *1236:I *432:14 5.05993e-05
10 *1284:A2 *1281:A2 9.3226e-06
11 *1285:A1 *1289:A2 0
12 *1286:A2 *1289:A2 0.00034795
13 *1287:C *1289:A2 0
14 *1289:A1 *1289:A2 2.96962e-05
15 *1442:A2 *1281:A2 1.07374e-05
16 *1442:A2 *432:8 0.000338254
17 *1442:A2 *432:34 2.31089e-05
18 *1443:A3 *432:8 0.000252906
19 *1484:I *1289:A2 0.000271813
20 *1484:I *432:14 4.91965e-05
21 *1515:D *432:8 0.000682113
22 *1515:CLK *1281:A2 0
23 *1586:I *432:14 4.14374e-05
24 *1600:I *432:8 0
25 *1600:I *432:14 0
26 *1640:I *432:8 0.000147371
27 *1640:I *432:14 0.00027186
28 *145:6 *1289:A2 1.58709e-05
29 *145:6 *432:14 0.00016058
30 *189:10 *1281:A2 0.000432417
31 *189:10 *432:34 9.85004e-05
32 *308:6 *1281:A2 0
33 *308:26 *1281:A2 0
34 *354:23 *432:14 9.2472e-05
35 *356:8 *1281:A2 3.98088e-05
36 *430:47 *432:8 7.94868e-06
*RES
1 *1515:Q *432:8 16.11 
2 *432:8 *432:14 9.54 
3 *432:14 *1289:A2 7.47 
4 *432:14 *1285:A2 4.5 
5 *432:8 *432:34 4.77 
6 *432:34 *1442:A1 4.5 
7 *432:34 *1281:A2 7.11 
*END
