*SPEF "ieee 1481-1999"
*DESIGN "digital_top"
*DATE "18:20:18 Friday August 28, 2026"
*VENDOR "The OpenROAD Project"
*PROGRAM "OpenROAD"
*VERSION "26Q1-1024-gdcf36133a"
*DESIGN_FLOW "NAME_SCOPE LOCAL" "PIN_CAP NONE"
*DIVIDER /
*DELIMITER :
*BUS_DELIMITER []
*T_UNIT 1 NS
*C_UNIT 1 PF
*R_UNIT 1 OHM
*L_UNIT 1 HENRY

*NAME_MAP
*3 cap_ctrl[0]
*4 cap_ctrl[1]
*5 cap_ctrl[2]
*6 clk
*7 comp_out
*8 en
*9 scl
*10 sda_in
*11 sda_oe
*12 sda_out
*13 trigger_out
*14 _000_
*15 _001_
*16 _002_
*17 _003_
*18 _004_
*19 _005_
*20 _006_
*21 _007_
*22 _008_
*23 _009_
*24 _010_
*25 _011_
*26 _012_
*27 _013_
*28 _014_
*29 _015_
*30 _016_
*31 _017_
*32 _018_
*33 _019_
*34 _020_
*35 _021_
*36 _022_
*37 _023_
*38 _024_
*39 _025_
*40 _026_
*41 _027_
*42 _028_
*43 _029_
*44 _030_
*45 _031_
*46 _032_
*47 _033_
*48 _034_
*49 _035_
*50 _036_
*51 _037_
*52 _038_
*53 _039_
*54 _040_
*55 _041_
*56 _042_
*57 _043_
*58 _044_
*59 _045_
*60 _046_
*61 _047_
*62 _048_
*63 _049_
*64 _050_
*65 _051_
*66 _052_
*67 _053_
*68 _054_
*69 _055_
*70 _056_
*71 _057_
*72 _058_
*73 _059_
*74 _060_
*75 _061_
*76 _062_
*77 _063_
*78 _064_
*79 _065_
*80 _066_
*81 _067_
*82 _068_
*83 _069_
*84 _070_
*85 _071_
*86 _072_
*87 _073_
*88 _074_
*89 _075_
*90 _076_
*91 _077_
*92 _078_
*93 _079_
*94 _080_
*95 _081_
*96 _082_
*97 _083_
*98 _084_
*99 _085_
*100 _086_
*101 _087_
*102 _088_
*103 _089_
*104 _090_
*105 _091_
*106 _092_
*107 _093_
*108 _094_
*109 _095_
*110 _096_
*111 _097_
*112 _098_
*113 _099_
*114 _100_
*115 _101_
*116 _102_
*117 _103_
*118 _104_
*119 _105_
*120 _106_
*121 _107_
*122 _108_
*123 _109_
*124 _110_
*125 _111_
*126 _112_
*127 _113_
*128 _114_
*129 _115_
*130 _116_
*131 _117_
*132 _118_
*133 _119_
*134 _120_
*135 _121_
*136 _122_
*137 _123_
*138 _124_
*139 _125_
*140 _126_
*141 _127_
*142 _128_
*143 _129_
*144 _130_
*145 _131_
*146 _132_
*147 _133_
*148 _134_
*149 _135_
*150 _136_
*151 _137_
*152 _138_
*153 _139_
*154 _140_
*155 _141_
*156 _142_
*157 _143_
*158 _144_
*159 _145_
*160 _146_
*161 _147_
*162 _148_
*163 _149_
*164 _150_
*165 _151_
*166 _152_
*167 _153_
*168 _154_
*169 _155_
*170 _156_
*171 _157_
*172 _158_
*173 _159_
*174 _160_
*175 _161_
*176 _162_
*177 _163_
*178 _164_
*179 _165_
*180 _166_
*181 _167_
*182 _168_
*183 _169_
*184 _170_
*185 _171_
*186 _172_
*187 _173_
*188 _174_
*189 _175_
*190 _176_
*191 _177_
*192 _178_
*193 _179_
*194 _180_
*195 _181_
*196 _182_
*197 _183_
*198 _184_
*199 _185_
*200 _186_
*201 _187_
*202 _188_
*203 _189_
*204 _190_
*205 _191_
*206 _192_
*207 _193_
*208 _194_
*209 _195_
*210 _196_
*211 _197_
*212 _198_
*213 _199_
*214 _200_
*215 _201_
*216 _202_
*217 _203_
*218 _204_
*219 _205_
*220 _206_
*221 _207_
*222 _208_
*223 _209_
*224 _210_
*225 _211_
*226 _212_
*227 _213_
*228 _214_
*229 _215_
*230 _216_
*231 _217_
*232 _218_
*233 _219_
*234 _220_
*235 _221_
*236 _222_
*237 _223_
*238 _224_
*239 _225_
*240 _226_
*241 _227_
*242 _228_
*243 _229_
*244 _230_
*245 _231_
*246 _232_
*247 _233_
*248 _234_
*249 _235_
*250 _236_
*251 _237_
*252 _238_
*253 _239_
*254 _240_
*255 _241_
*256 _242_
*257 _243_
*258 _244_
*259 _245_
*260 _246_
*261 _247_
*262 _248_
*263 _249_
*264 _250_
*265 _251_
*266 _252_
*267 _253_
*268 _254_
*269 _255_
*270 _256_
*271 _257_
*272 _258_
*273 _259_
*274 _260_
*275 _261_
*276 _262_
*277 _263_
*278 _264_
*279 _265_
*280 _266_
*281 _267_
*282 _268_
*283 _269_
*284 _270_
*285 _271_
*286 _272_
*287 _273_
*288 _274_
*289 _275_
*290 _276_
*291 _277_
*292 _278_
*293 _279_
*294 clknet_0_clk
*295 clknet_4_0_0_clk
*296 clknet_4_10_0_clk
*297 clknet_4_11_0_clk
*298 clknet_4_12_0_clk
*299 clknet_4_13_0_clk
*300 clknet_4_14_0_clk
*301 clknet_4_15_0_clk
*302 clknet_4_1_0_clk
*303 clknet_4_2_0_clk
*304 clknet_4_3_0_clk
*305 clknet_4_4_0_clk
*306 clknet_4_5_0_clk
*307 clknet_4_6_0_clk
*308 clknet_4_7_0_clk
*309 clknet_4_8_0_clk
*310 clknet_4_9_0_clk
*311 net1
*312 net10
*313 net11
*314 net12
*315 net13
*316 net14
*317 net15
*318 net16
*319 net17
*320 net18
*321 net19
*322 net2
*323 net20
*324 net21
*325 net22
*326 net23
*327 net24
*328 net25
*329 net26
*330 net27
*331 net28
*332 net29
*333 net3
*334 net30
*335 net31
*336 net32
*337 net33
*338 net34
*339 net35
*340 net36
*341 net37
*342 net38
*343 net39
*344 net4
*345 net40
*346 net41
*347 net42
*348 net43
*349 net44
*350 net45
*351 net46
*352 net47
*353 net48
*354 net49
*355 net5
*356 net50
*357 net51
*358 net52
*359 net53
*360 net54
*361 net55
*362 net56
*363 net57
*364 net58
*365 net59
*366 net6
*367 net60
*368 net61
*369 net62
*370 net63
*371 net7
*372 net8
*373 net9
*374 threshold_w\[0\]
*375 threshold_w\[1\]
*376 threshold_w\[2\]
*377 threshold_w\[3\]
*378 threshold_w\[4\]
*379 threshold_w\[5\]
*380 threshold_w\[6\]
*381 threshold_w\[7\]
*382 timeout_val_w\[0\]
*383 timeout_val_w\[1\]
*384 timeout_val_w\[2\]
*385 timeout_val_w\[3\]
*386 timeout_val_w\[4\]
*387 timeout_val_w\[5\]
*388 timeout_val_w\[6\]
*389 timeout_val_w\[7\]
*390 u_i2c_config\.bit_cnt\[0\]
*391 u_i2c_config\.bit_cnt\[1\]
*392 u_i2c_config\.bit_cnt\[2\]
*393 u_i2c_config\.bit_cnt\[3\]
*394 u_i2c_config\.parallel_data\[0\]
*395 u_i2c_config\.parallel_data\[1\]
*396 u_i2c_config\.parallel_data\[2\]
*397 u_i2c_config\.parallel_data\[3\]
*398 u_i2c_config\.parallel_data\[4\]
*399 u_i2c_config\.parallel_data\[5\]
*400 u_i2c_config\.parallel_data\[6\]
*401 u_i2c_config\.parallel_data\[7\]
*402 u_i2c_config\.reg_addr\[0\]
*403 u_i2c_config\.reg_addr\[1\]
*404 u_i2c_config\.scl_d1
*405 u_i2c_config\.scl_d2
*406 u_i2c_config\.sda_d1
*407 u_i2c_config\.sda_d2
*408 u_i2c_config\.state\[1\]
*409 u_i2c_config\.state\[2\]
*410 u_i2c_config\.state\[3\]
*411 u_i2c_config\.state\[4\]
*412 u_i2c_config\.state\[5\]
*413 u_i2c_config\.state\[6\]
*414 u_i2c_config\.write_en
*415 u_main_cnt\.count_reg\[0\]
*416 u_main_cnt\.count_reg\[1\]
*417 u_main_cnt\.count_reg\[2\]
*418 u_main_cnt\.count_reg\[3\]
*419 u_main_cnt\.count_reg\[4\]
*420 u_main_cnt\.count_reg\[5\]
*421 u_main_cnt\.count_reg\[6\]
*422 u_main_cnt\.count_reg\[7\]
*423 u_pulse_gen\.signal_d1
*424 u_pulse_gen\.signal_d2
*425 u_timeout_cnt\.timer_count\[0\]
*426 u_timeout_cnt\.timer_count\[1\]
*427 u_timeout_cnt\.timer_count\[2\]
*428 u_timeout_cnt\.timer_count\[3\]
*429 u_timeout_cnt\.timer_count\[4\]
*430 u_timeout_cnt\.timer_count\[5\]
*431 u_timeout_cnt\.timer_count\[6\]
*432 u_timeout_cnt\.timer_count\[7\]
*433 FILLER_0_10
*434 FILLER_0_104
*435 FILLER_0_106
*436 FILLER_0_127
*437 FILLER_0_138
*438 FILLER_0_14
*439 FILLER_0_16
*440 FILLER_0_2
*441 FILLER_0_33
*442 FILLER_0_36
*443 FILLER_0_70
*444 FILLER_0_76
*445 FILLER_10_10
*446 FILLER_10_111
*447 FILLER_10_126
*448 FILLER_10_14
*449 FILLER_10_177
*450 FILLER_10_179
*451 FILLER_10_184
*452 FILLER_10_2
*453 FILLER_11_128
*454 FILLER_11_142
*455 FILLER_11_175
*456 FILLER_11_183
*457 FILLER_11_187
*458 FILLER_11_54
*459 FILLER_11_88
*460 FILLER_12_104
*461 FILLER_12_115
*462 FILLER_12_136
*463 FILLER_12_157
*464 FILLER_12_30
*465 FILLER_12_37
*466 FILLER_12_57
*467 FILLER_12_59
*468 FILLER_13_137
*469 FILLER_13_139
*470 FILLER_13_2
*471 FILLER_13_68
*472 FILLER_14_177
*473 FILLER_14_179
*474 FILLER_14_184
*475 FILLER_14_2
*476 FILLER_14_37
*477 FILLER_14_83
*478 FILLER_15_135
*479 FILLER_15_151
*480 FILLER_15_153
*481 FILLER_15_2
*482 FILLER_15_44
*483 FILLER_15_66
*484 FILLER_15_92
*485 FILLER_16_104
*486 FILLER_16_111
*487 FILLER_16_117
*488 FILLER_16_173
*489 FILLER_16_18
*490 FILLER_16_185
*491 FILLER_16_187
*492 FILLER_16_2
*493 FILLER_16_37
*494 FILLER_16_39
*495 FILLER_16_50
*496 FILLER_16_64
*497 FILLER_17_134
*498 FILLER_17_138
*499 FILLER_17_142
*500 FILLER_17_146
*501 FILLER_17_187
*502 FILLER_17_2
*503 FILLER_17_51
*504 FILLER_17_53
*505 FILLER_18_104
*506 FILLER_18_124
*507 FILLER_18_126
*508 FILLER_18_161
*509 FILLER_18_177
*510 FILLER_18_179
*511 FILLER_18_184
*512 FILLER_18_2
*513 FILLER_18_6
*514 FILLER_18_61
*515 FILLER_19_129
*516 FILLER_19_142
*517 FILLER_19_2
*518 FILLER_19_52
*519 FILLER_19_54
*520 FILLER_19_72
*521 FILLER_1_119
*522 FILLER_1_137
*523 FILLER_1_139
*524 FILLER_1_146
*525 FILLER_1_151
*526 FILLER_1_155
*527 FILLER_1_160
*528 FILLER_1_176
*529 FILLER_1_18
*530 FILLER_1_184
*531 FILLER_1_34
*532 FILLER_1_38
*533 FILLER_1_78
*534 FILLER_1_83
*535 FILLER_20_10
*536 FILLER_20_132
*537 FILLER_20_14
*538 FILLER_20_155
*539 FILLER_20_177
*540 FILLER_20_179
*541 FILLER_20_184
*542 FILLER_20_2
*543 FILLER_20_37
*544 FILLER_20_39
*545 FILLER_20_79
*546 FILLER_21_153
*547 FILLER_21_38
*548 FILLER_21_72
*549 FILLER_22_107
*550 FILLER_22_18
*551 FILLER_22_185
*552 FILLER_22_187
*553 FILLER_23_121
*554 FILLER_23_138
*555 FILLER_23_51
*556 FILLER_23_53
*557 FILLER_23_76
*558 FILLER_23_80
*559 FILLER_23_82
*560 FILLER_24_142
*561 FILLER_24_171
*562 FILLER_24_186
*563 FILLER_24_2
*564 FILLER_24_53
*565 FILLER_24_57
*566 FILLER_24_59
*567 FILLER_24_6
*568 FILLER_24_8
*569 FILLER_24_96
*570 FILLER_25_10
*571 FILLER_25_14
*572 FILLER_25_16
*573 FILLER_25_2
*574 FILLER_25_69
*575 FILLER_25_72
*576 FILLER_25_77
*577 FILLER_25_81
*578 FILLER_25_86
*579 FILLER_25_94
*580 FILLER_25_96
*581 FILLER_26_10
*582 FILLER_26_103
*583 FILLER_26_131
*584 FILLER_26_17
*585 FILLER_26_174
*586 FILLER_26_177
*587 FILLER_26_179
*588 FILLER_26_184
*589 FILLER_26_2
*590 FILLER_26_21
*591 FILLER_26_37
*592 FILLER_26_86
*593 FILLER_26_94
*594 FILLER_26_98
*595 FILLER_27_117
*596 FILLER_27_119
*597 FILLER_27_128
*598 FILLER_27_142
*599 FILLER_27_146
*600 FILLER_27_160
*601 FILLER_27_168
*602 FILLER_27_42
*603 FILLER_27_72
*604 FILLER_27_80
*605 FILLER_27_82
*606 FILLER_28_111
*607 FILLER_28_115
*608 FILLER_28_139
*609 FILLER_28_152
*610 FILLER_28_164
*611 FILLER_28_172
*612 FILLER_28_174
*613 FILLER_28_177
*614 FILLER_28_179
*615 FILLER_28_184
*616 FILLER_28_2
*617 FILLER_28_37
*618 FILLER_28_63
*619 FILLER_29_102
*620 FILLER_29_107
*621 FILLER_29_111
*622 FILLER_29_36
*623 FILLER_29_42
*624 FILLER_29_44
*625 FILLER_29_50
*626 FILLER_29_58
*627 FILLER_29_66
*628 FILLER_29_78
*629 FILLER_29_94
*630 FILLER_2_107
*631 FILLER_2_155
*632 FILLER_2_171
*633 FILLER_2_177
*634 FILLER_2_185
*635 FILLER_2_187
*636 FILLER_2_2
*637 FILLER_2_34
*638 FILLER_2_37
*639 FILLER_2_56
*640 FILLER_30_104
*641 FILLER_30_139
*642 FILLER_30_155
*643 FILLER_30_16
*644 FILLER_30_164
*645 FILLER_30_172
*646 FILLER_30_174
*647 FILLER_30_177
*648 FILLER_30_179
*649 FILLER_30_18
*650 FILLER_30_184
*651 FILLER_30_2
*652 FILLER_30_45
*653 FILLER_30_85
*654 FILLER_31_122
*655 FILLER_31_2
*656 FILLER_31_4
*657 FILLER_31_72
*658 FILLER_31_76
*659 FILLER_31_78
*660 FILLER_31_87
*661 FILLER_32_103
*662 FILLER_32_107
*663 FILLER_32_115
*664 FILLER_32_123
*665 FILLER_32_159
*666 FILLER_32_177
*667 FILLER_32_18
*668 FILLER_32_185
*669 FILLER_32_187
*670 FILLER_32_34
*671 FILLER_32_37
*672 FILLER_32_60
*673 FILLER_32_86
*674 FILLER_32_90
*675 FILLER_33_129
*676 FILLER_33_138
*677 FILLER_33_154
*678 FILLER_33_186
*679 FILLER_33_83
*680 FILLER_33_87
*681 FILLER_34_102
*682 FILLER_34_104
*683 FILLER_34_107
*684 FILLER_34_123
*685 FILLER_34_127
*686 FILLER_34_129
*687 FILLER_34_14
*688 FILLER_34_156
*689 FILLER_34_172
*690 FILLER_34_174
*691 FILLER_34_177
*692 FILLER_34_185
*693 FILLER_34_187
*694 FILLER_34_2
*695 FILLER_34_34
*696 FILLER_34_37
*697 FILLER_34_80
*698 FILLER_35_10
*699 FILLER_35_121
*700 FILLER_35_125
*701 FILLER_35_130
*702 FILLER_35_138
*703 FILLER_35_14
*704 FILLER_35_142
*705 FILLER_35_174
*706 FILLER_35_182
*707 FILLER_35_186
*708 FILLER_35_2
*709 FILLER_35_23
*710 FILLER_35_27
*711 FILLER_35_60
*712 FILLER_35_62
*713 FILLER_35_67
*714 FILLER_35_69
*715 FILLER_35_76
*716 FILLER_35_84
*717 FILLER_35_86
*718 FILLER_36_141
*719 FILLER_36_173
*720 FILLER_36_177
*721 FILLER_36_185
*722 FILLER_36_187
*723 FILLER_36_2
*724 FILLER_36_37
*725 FILLER_36_4
*726 FILLER_36_77
*727 FILLER_36_84
*728 FILLER_36_88
*729 FILLER_36_97
*730 FILLER_37_107
*731 FILLER_37_139
*732 FILLER_37_142
*733 FILLER_37_174
*734 FILLER_37_182
*735 FILLER_37_186
*736 FILLER_37_38
*737 FILLER_37_40
*738 FILLER_37_55
*739 FILLER_37_63
*740 FILLER_37_67
*741 FILLER_37_69
*742 FILLER_37_72
*743 FILLER_37_74
*744 FILLER_37_85
*745 FILLER_37_87
*746 FILLER_37_98
*747 FILLER_38_100
*748 FILLER_38_104
*749 FILLER_38_107
*750 FILLER_38_109
*751 FILLER_38_114
*752 FILLER_38_146
*753 FILLER_38_15
*754 FILLER_38_162
*755 FILLER_38_170
*756 FILLER_38_174
*757 FILLER_38_177
*758 FILLER_38_185
*759 FILLER_38_187
*760 FILLER_38_2
*761 FILLER_38_31
*762 FILLER_38_37
*763 FILLER_38_4
*764 FILLER_38_48
*765 FILLER_38_56
*766 FILLER_39_120
*767 FILLER_39_136
*768 FILLER_39_142
*769 FILLER_39_174
*770 FILLER_39_18
*771 FILLER_39_182
*772 FILLER_39_186
*773 FILLER_39_2
*774 FILLER_39_26
*775 FILLER_39_34
*776 FILLER_39_78
*777 FILLER_3_138
*778 FILLER_3_2
*779 FILLER_3_34
*780 FILLER_3_69
*781 FILLER_3_80
*782 FILLER_3_82
*783 FILLER_40_103
*784 FILLER_40_107
*785 FILLER_40_171
*786 FILLER_40_177
*787 FILLER_40_185
*788 FILLER_40_187
*789 FILLER_40_2
*790 FILLER_40_34
*791 FILLER_40_37
*792 FILLER_40_45
*793 FILLER_40_53
*794 FILLER_40_57
*795 FILLER_40_79
*796 FILLER_40_95
*797 FILLER_41_10
*798 FILLER_41_136
*799 FILLER_41_14
*800 FILLER_41_142
*801 FILLER_41_174
*802 FILLER_41_182
*803 FILLER_41_186
*804 FILLER_41_2
*805 FILLER_41_50
*806 FILLER_41_66
*807 FILLER_41_72
*808 FILLER_42_101
*809 FILLER_42_107
*810 FILLER_42_171
*811 FILLER_42_177
*812 FILLER_42_185
*813 FILLER_42_187
*814 FILLER_42_2
*815 FILLER_42_34
*816 FILLER_42_37
*817 FILLER_43_136
*818 FILLER_43_142
*819 FILLER_43_174
*820 FILLER_43_182
*821 FILLER_43_186
*822 FILLER_43_2
*823 FILLER_43_66
*824 FILLER_43_72
*825 FILLER_44_101
*826 FILLER_44_107
*827 FILLER_44_171
*828 FILLER_44_177
*829 FILLER_44_18
*830 FILLER_44_185
*831 FILLER_44_187
*832 FILLER_44_34
*833 FILLER_44_37
*834 FILLER_45_136
*835 FILLER_45_142
*836 FILLER_45_174
*837 FILLER_45_182
*838 FILLER_45_186
*839 FILLER_45_2
*840 FILLER_45_66
*841 FILLER_45_72
*842 FILLER_46_101
*843 FILLER_46_107
*844 FILLER_46_171
*845 FILLER_46_177
*846 FILLER_46_185
*847 FILLER_46_187
*848 FILLER_46_2
*849 FILLER_46_34
*850 FILLER_46_37
*851 FILLER_47_136
*852 FILLER_47_142
*853 FILLER_47_174
*854 FILLER_47_182
*855 FILLER_47_186
*856 FILLER_47_2
*857 FILLER_47_66
*858 FILLER_47_72
*859 FILLER_48_101
*860 FILLER_48_107
*861 FILLER_48_171
*862 FILLER_48_177
*863 FILLER_48_185
*864 FILLER_48_187
*865 FILLER_48_2
*866 FILLER_48_34
*867 FILLER_48_37
*868 FILLER_49_136
*869 FILLER_49_142
*870 FILLER_49_174
*871 FILLER_49_182
*872 FILLER_49_186
*873 FILLER_49_2
*874 FILLER_49_66
*875 FILLER_49_72
*876 FILLER_4_102
*877 FILLER_4_104
*878 FILLER_4_122
*879 FILLER_4_165
*880 FILLER_4_173
*881 FILLER_4_177
*882 FILLER_4_179
*883 FILLER_4_184
*884 FILLER_4_2
*885 FILLER_4_34
*886 FILLER_4_37
*887 FILLER_4_39
*888 FILLER_50_101
*889 FILLER_50_107
*890 FILLER_50_171
*891 FILLER_50_177
*892 FILLER_50_185
*893 FILLER_50_187
*894 FILLER_50_2
*895 FILLER_50_34
*896 FILLER_50_37
*897 FILLER_51_136
*898 FILLER_51_142
*899 FILLER_51_174
*900 FILLER_51_182
*901 FILLER_51_186
*902 FILLER_51_2
*903 FILLER_51_66
*904 FILLER_51_72
*905 FILLER_52_101
*906 FILLER_52_107
*907 FILLER_52_171
*908 FILLER_52_177
*909 FILLER_52_185
*910 FILLER_52_187
*911 FILLER_52_2
*912 FILLER_52_34
*913 FILLER_52_37
*914 FILLER_53_136
*915 FILLER_53_142
*916 FILLER_53_174
*917 FILLER_53_182
*918 FILLER_53_186
*919 FILLER_53_2
*920 FILLER_53_66
*921 FILLER_53_72
*922 FILLER_54_104
*923 FILLER_54_138
*924 FILLER_54_172
*925 FILLER_54_18
*926 FILLER_54_36
*927 FILLER_54_70
*928 FILLER_5_105
*929 FILLER_5_107
*930 FILLER_5_132
*931 FILLER_5_134
*932 FILLER_5_18
*933 FILLER_5_2
*934 FILLER_5_26
*935 FILLER_5_72
*936 FILLER_6_133
*937 FILLER_6_135
*938 FILLER_6_172
*939 FILLER_6_174
*940 FILLER_6_18
*941 FILLER_6_185
*942 FILLER_6_187
*943 FILLER_6_2
*944 FILLER_6_37
*945 FILLER_6_39
*946 FILLER_7_18
*947 FILLER_7_2
*948 FILLER_7_22
*949 FILLER_7_60
*950 FILLER_7_72
*951 FILLER_7_74
*952 FILLER_8_104
*953 FILLER_8_125
*954 FILLER_8_150
*955 FILLER_8_171
*956 FILLER_8_177
*957 FILLER_8_18
*958 FILLER_8_185
*959 FILLER_8_187
*960 FILLER_8_2
*961 FILLER_8_26
*962 FILLER_8_37
*963 FILLER_8_39
*964 FILLER_9_10
*965 FILLER_9_105
*966 FILLER_9_117
*967 FILLER_9_128
*968 FILLER_9_14
*969 FILLER_9_142
*970 FILLER_9_151
*971 FILLER_9_153
*972 FILLER_9_2
*973 FILLER_9_65
*974 FILLER_9_72
*975 PHY_EDGE_ROW_0_Left_55
*976 PHY_EDGE_ROW_0_Right_0
*977 PHY_EDGE_ROW_10_Left_65
*978 PHY_EDGE_ROW_10_Right_10
*979 PHY_EDGE_ROW_11_Left_66
*980 PHY_EDGE_ROW_11_Right_11
*981 PHY_EDGE_ROW_12_Left_67
*982 PHY_EDGE_ROW_12_Right_12
*983 PHY_EDGE_ROW_13_Left_68
*984 PHY_EDGE_ROW_13_Right_13
*985 PHY_EDGE_ROW_14_Left_69
*986 PHY_EDGE_ROW_14_Right_14
*987 PHY_EDGE_ROW_15_Left_70
*988 PHY_EDGE_ROW_15_Right_15
*989 PHY_EDGE_ROW_16_Left_71
*990 PHY_EDGE_ROW_16_Right_16
*991 PHY_EDGE_ROW_17_Left_72
*992 PHY_EDGE_ROW_17_Right_17
*993 PHY_EDGE_ROW_18_Left_73
*994 PHY_EDGE_ROW_18_Right_18
*995 PHY_EDGE_ROW_19_Left_74
*996 PHY_EDGE_ROW_19_Right_19
*997 PHY_EDGE_ROW_1_Left_56
*998 PHY_EDGE_ROW_1_Right_1
*999 PHY_EDGE_ROW_20_Left_75
*1000 PHY_EDGE_ROW_20_Right_20
*1001 PHY_EDGE_ROW_21_Left_76
*1002 PHY_EDGE_ROW_21_Right_21
*1003 PHY_EDGE_ROW_22_Left_77
*1004 PHY_EDGE_ROW_22_Right_22
*1005 PHY_EDGE_ROW_23_Left_78
*1006 PHY_EDGE_ROW_23_Right_23
*1007 PHY_EDGE_ROW_24_Left_79
*1008 PHY_EDGE_ROW_24_Right_24
*1009 PHY_EDGE_ROW_25_Left_80
*1010 PHY_EDGE_ROW_25_Right_25
*1011 PHY_EDGE_ROW_26_Left_81
*1012 PHY_EDGE_ROW_26_Right_26
*1013 PHY_EDGE_ROW_27_Left_82
*1014 PHY_EDGE_ROW_27_Right_27
*1015 PHY_EDGE_ROW_28_Left_83
*1016 PHY_EDGE_ROW_28_Right_28
*1017 PHY_EDGE_ROW_29_Left_84
*1018 PHY_EDGE_ROW_29_Right_29
*1019 PHY_EDGE_ROW_2_Left_57
*1020 PHY_EDGE_ROW_2_Right_2
*1021 PHY_EDGE_ROW_30_Left_85
*1022 PHY_EDGE_ROW_30_Right_30
*1023 PHY_EDGE_ROW_31_Left_86
*1024 PHY_EDGE_ROW_31_Right_31
*1025 PHY_EDGE_ROW_32_Left_87
*1026 PHY_EDGE_ROW_32_Right_32
*1027 PHY_EDGE_ROW_33_Left_88
*1028 PHY_EDGE_ROW_33_Right_33
*1029 PHY_EDGE_ROW_34_Left_89
*1030 PHY_EDGE_ROW_34_Right_34
*1031 PHY_EDGE_ROW_35_Left_90
*1032 PHY_EDGE_ROW_35_Right_35
*1033 PHY_EDGE_ROW_36_Left_91
*1034 PHY_EDGE_ROW_36_Right_36
*1035 PHY_EDGE_ROW_37_Left_92
*1036 PHY_EDGE_ROW_37_Right_37
*1037 PHY_EDGE_ROW_38_Left_93
*1038 PHY_EDGE_ROW_38_Right_38
*1039 PHY_EDGE_ROW_39_Left_94
*1040 PHY_EDGE_ROW_39_Right_39
*1041 PHY_EDGE_ROW_3_Left_58
*1042 PHY_EDGE_ROW_3_Right_3
*1043 PHY_EDGE_ROW_40_Left_95
*1044 PHY_EDGE_ROW_40_Right_40
*1045 PHY_EDGE_ROW_41_Left_96
*1046 PHY_EDGE_ROW_41_Right_41
*1047 PHY_EDGE_ROW_42_Left_97
*1048 PHY_EDGE_ROW_42_Right_42
*1049 PHY_EDGE_ROW_43_Left_98
*1050 PHY_EDGE_ROW_43_Right_43
*1051 PHY_EDGE_ROW_44_Left_99
*1052 PHY_EDGE_ROW_44_Right_44
*1053 PHY_EDGE_ROW_45_Left_100
*1054 PHY_EDGE_ROW_45_Right_45
*1055 PHY_EDGE_ROW_46_Left_101
*1056 PHY_EDGE_ROW_46_Right_46
*1057 PHY_EDGE_ROW_47_Left_102
*1058 PHY_EDGE_ROW_47_Right_47
*1059 PHY_EDGE_ROW_48_Left_103
*1060 PHY_EDGE_ROW_48_Right_48
*1061 PHY_EDGE_ROW_49_Left_104
*1062 PHY_EDGE_ROW_49_Right_49
*1063 PHY_EDGE_ROW_4_Left_59
*1064 PHY_EDGE_ROW_4_Right_4
*1065 PHY_EDGE_ROW_50_Left_105
*1066 PHY_EDGE_ROW_50_Right_50
*1067 PHY_EDGE_ROW_51_Left_106
*1068 PHY_EDGE_ROW_51_Right_51
*1069 PHY_EDGE_ROW_52_Left_107
*1070 PHY_EDGE_ROW_52_Right_52
*1071 PHY_EDGE_ROW_53_Left_108
*1072 PHY_EDGE_ROW_53_Right_53
*1073 PHY_EDGE_ROW_54_Left_109
*1074 PHY_EDGE_ROW_54_Right_54
*1075 PHY_EDGE_ROW_5_Left_60
*1076 PHY_EDGE_ROW_5_Right_5
*1077 PHY_EDGE_ROW_6_Left_61
*1078 PHY_EDGE_ROW_6_Right_6
*1079 PHY_EDGE_ROW_7_Left_62
*1080 PHY_EDGE_ROW_7_Right_7
*1081 PHY_EDGE_ROW_8_Left_63
*1082 PHY_EDGE_ROW_8_Right_8
*1083 PHY_EDGE_ROW_9_Left_64
*1084 PHY_EDGE_ROW_9_Right_9
*1085 TAP_TAPCELL_ROW_0_110
*1086 TAP_TAPCELL_ROW_0_111
*1087 TAP_TAPCELL_ROW_0_112
*1088 TAP_TAPCELL_ROW_0_113
*1089 TAP_TAPCELL_ROW_0_114
*1090 TAP_TAPCELL_ROW_10_137
*1091 TAP_TAPCELL_ROW_10_138
*1092 TAP_TAPCELL_ROW_10_139
*1093 TAP_TAPCELL_ROW_11_140
*1094 TAP_TAPCELL_ROW_11_141
*1095 TAP_TAPCELL_ROW_12_142
*1096 TAP_TAPCELL_ROW_12_143
*1097 TAP_TAPCELL_ROW_12_144
*1098 TAP_TAPCELL_ROW_13_145
*1099 TAP_TAPCELL_ROW_13_146
*1100 TAP_TAPCELL_ROW_14_147
*1101 TAP_TAPCELL_ROW_14_148
*1102 TAP_TAPCELL_ROW_14_149
*1103 TAP_TAPCELL_ROW_15_150
*1104 TAP_TAPCELL_ROW_15_151
*1105 TAP_TAPCELL_ROW_16_152
*1106 TAP_TAPCELL_ROW_16_153
*1107 TAP_TAPCELL_ROW_16_154
*1108 TAP_TAPCELL_ROW_17_155
*1109 TAP_TAPCELL_ROW_17_156
*1110 TAP_TAPCELL_ROW_18_157
*1111 TAP_TAPCELL_ROW_18_158
*1112 TAP_TAPCELL_ROW_18_159
*1113 TAP_TAPCELL_ROW_19_160
*1114 TAP_TAPCELL_ROW_19_161
*1115 TAP_TAPCELL_ROW_1_115
*1116 TAP_TAPCELL_ROW_1_116
*1117 TAP_TAPCELL_ROW_20_162
*1118 TAP_TAPCELL_ROW_20_163
*1119 TAP_TAPCELL_ROW_20_164
*1120 TAP_TAPCELL_ROW_21_165
*1121 TAP_TAPCELL_ROW_21_166
*1122 TAP_TAPCELL_ROW_22_167
*1123 TAP_TAPCELL_ROW_22_168
*1124 TAP_TAPCELL_ROW_22_169
*1125 TAP_TAPCELL_ROW_23_170
*1126 TAP_TAPCELL_ROW_23_171
*1127 TAP_TAPCELL_ROW_24_172
*1128 TAP_TAPCELL_ROW_24_173
*1129 TAP_TAPCELL_ROW_24_174
*1130 TAP_TAPCELL_ROW_25_175
*1131 TAP_TAPCELL_ROW_25_176
*1132 TAP_TAPCELL_ROW_26_177
*1133 TAP_TAPCELL_ROW_26_178
*1134 TAP_TAPCELL_ROW_26_179
*1135 TAP_TAPCELL_ROW_27_180
*1136 TAP_TAPCELL_ROW_27_181
*1137 TAP_TAPCELL_ROW_28_182
*1138 TAP_TAPCELL_ROW_28_183
*1139 TAP_TAPCELL_ROW_28_184
*1140 TAP_TAPCELL_ROW_29_185
*1141 TAP_TAPCELL_ROW_29_186
*1142 TAP_TAPCELL_ROW_2_117
*1143 TAP_TAPCELL_ROW_2_118
*1144 TAP_TAPCELL_ROW_2_119
*1145 TAP_TAPCELL_ROW_30_187
*1146 TAP_TAPCELL_ROW_30_188
*1147 TAP_TAPCELL_ROW_30_189
*1148 TAP_TAPCELL_ROW_31_190
*1149 TAP_TAPCELL_ROW_31_191
*1150 TAP_TAPCELL_ROW_32_192
*1151 TAP_TAPCELL_ROW_32_193
*1152 TAP_TAPCELL_ROW_32_194
*1153 TAP_TAPCELL_ROW_33_195
*1154 TAP_TAPCELL_ROW_33_196
*1155 TAP_TAPCELL_ROW_34_197
*1156 TAP_TAPCELL_ROW_34_198
*1157 TAP_TAPCELL_ROW_34_199
*1158 TAP_TAPCELL_ROW_35_200
*1159 TAP_TAPCELL_ROW_35_201
*1160 TAP_TAPCELL_ROW_36_202
*1161 TAP_TAPCELL_ROW_36_203
*1162 TAP_TAPCELL_ROW_36_204
*1163 TAP_TAPCELL_ROW_37_205
*1164 TAP_TAPCELL_ROW_37_206
*1165 TAP_TAPCELL_ROW_38_207
*1166 TAP_TAPCELL_ROW_38_208
*1167 TAP_TAPCELL_ROW_38_209
*1168 TAP_TAPCELL_ROW_39_210
*1169 TAP_TAPCELL_ROW_39_211
*1170 TAP_TAPCELL_ROW_3_120
*1171 TAP_TAPCELL_ROW_3_121
*1172 TAP_TAPCELL_ROW_40_212
*1173 TAP_TAPCELL_ROW_40_213
*1174 TAP_TAPCELL_ROW_40_214
*1175 TAP_TAPCELL_ROW_41_215
*1176 TAP_TAPCELL_ROW_41_216
*1177 TAP_TAPCELL_ROW_42_217
*1178 TAP_TAPCELL_ROW_42_218
*1179 TAP_TAPCELL_ROW_42_219
*1180 TAP_TAPCELL_ROW_43_220
*1181 TAP_TAPCELL_ROW_43_221
*1182 TAP_TAPCELL_ROW_44_222
*1183 TAP_TAPCELL_ROW_44_223
*1184 TAP_TAPCELL_ROW_44_224
*1185 TAP_TAPCELL_ROW_45_225
*1186 TAP_TAPCELL_ROW_45_226
*1187 TAP_TAPCELL_ROW_46_227
*1188 TAP_TAPCELL_ROW_46_228
*1189 TAP_TAPCELL_ROW_46_229
*1190 TAP_TAPCELL_ROW_47_230
*1191 TAP_TAPCELL_ROW_47_231
*1192 TAP_TAPCELL_ROW_48_232
*1193 TAP_TAPCELL_ROW_48_233
*1194 TAP_TAPCELL_ROW_48_234
*1195 TAP_TAPCELL_ROW_49_235
*1196 TAP_TAPCELL_ROW_49_236
*1197 TAP_TAPCELL_ROW_4_122
*1198 TAP_TAPCELL_ROW_4_123
*1199 TAP_TAPCELL_ROW_4_124
*1200 TAP_TAPCELL_ROW_50_237
*1201 TAP_TAPCELL_ROW_50_238
*1202 TAP_TAPCELL_ROW_50_239
*1203 TAP_TAPCELL_ROW_51_240
*1204 TAP_TAPCELL_ROW_51_241
*1205 TAP_TAPCELL_ROW_52_242
*1206 TAP_TAPCELL_ROW_52_243
*1207 TAP_TAPCELL_ROW_52_244
*1208 TAP_TAPCELL_ROW_53_245
*1209 TAP_TAPCELL_ROW_53_246
*1210 TAP_TAPCELL_ROW_54_247
*1211 TAP_TAPCELL_ROW_54_248
*1212 TAP_TAPCELL_ROW_54_249
*1213 TAP_TAPCELL_ROW_54_250
*1214 TAP_TAPCELL_ROW_54_251
*1215 TAP_TAPCELL_ROW_5_125
*1216 TAP_TAPCELL_ROW_5_126
*1217 TAP_TAPCELL_ROW_6_127
*1218 TAP_TAPCELL_ROW_6_128
*1219 TAP_TAPCELL_ROW_6_129
*1220 TAP_TAPCELL_ROW_7_130
*1221 TAP_TAPCELL_ROW_7_131
*1222 TAP_TAPCELL_ROW_8_132
*1223 TAP_TAPCELL_ROW_8_133
*1224 TAP_TAPCELL_ROW_8_134
*1225 TAP_TAPCELL_ROW_9_135
*1226 TAP_TAPCELL_ROW_9_136
*1227 _280_
*1228 _281_
*1229 _282_
*1230 _283_
*1231 _284_
*1232 _285_
*1233 _286_
*1234 _287_
*1235 _288_
*1236 _289_
*1237 _290_
*1238 _291_
*1239 _292_
*1240 _293_
*1241 _294_
*1242 _295_
*1243 _296_
*1244 _297_
*1245 _298_
*1246 _299_
*1247 _300_
*1248 _301_
*1249 _302_
*1250 _303_
*1251 _304_
*1252 _305_
*1253 _306_
*1254 _307_
*1255 _308_
*1256 _309_
*1257 _310_
*1258 _311_
*1259 _312_
*1260 _313_
*1261 _314_
*1262 _315_
*1263 _316_
*1264 _317_
*1265 _318_
*1266 _319_
*1267 _320_
*1268 _321_
*1269 _322_
*1270 _323_
*1271 _324_
*1272 _325_
*1273 _326_
*1274 _327_
*1275 _328_
*1276 _329_
*1277 _330_
*1278 _331_
*1279 _332_
*1280 _333_
*1281 _334_
*1282 _335_
*1283 _336_
*1284 _337_
*1285 _338_
*1286 _339_
*1287 _340_
*1288 _341_
*1289 _342_
*1290 _343_
*1291 _344_
*1292 _345_
*1293 _346_
*1294 _347_
*1295 _348_
*1296 _349_
*1297 _350_
*1298 _351_
*1299 _352_
*1300 _353_
*1301 _354_
*1302 _355_
*1303 _356_
*1304 _357_
*1305 _358_
*1306 _359_
*1307 _360_
*1308 _361_
*1309 _362_
*1310 _363_
*1311 _364_
*1312 _365_
*1313 _366_
*1314 _367_
*1315 _368_
*1316 _369_
*1317 _370_
*1318 _371_
*1319 _372_
*1320 _373_
*1321 _374_
*1322 _375_
*1323 _376_
*1324 _377_
*1325 _378_
*1326 _379_
*1327 _380_
*1328 _381_
*1329 _382_
*1330 _383_
*1331 _384_
*1332 _385_
*1333 _386_
*1334 _387_
*1335 _388_
*1336 _389_
*1337 _390_
*1338 _391_
*1339 _392_
*1340 _393_
*1341 _394_
*1342 _395_
*1343 _396_
*1344 _397_
*1345 _398_
*1346 _399_
*1347 _400_
*1348 _401_
*1349 _402_
*1350 _403_
*1351 _404_
*1352 _405_
*1353 _406_
*1354 _407_
*1355 _408_
*1356 _409_
*1357 _410_
*1358 _411_
*1359 _412_
*1360 _413_
*1361 _414_
*1362 _415_
*1363 _416_
*1364 _417_
*1365 _418_
*1366 _419_
*1367 _420_
*1368 _421_
*1369 _422_
*1370 _423_
*1371 _424_
*1372 _425_
*1373 _426_
*1374 _427_
*1375 _428_
*1376 _429_
*1377 _430_
*1378 _431_
*1379 _432_
*1380 _433_
*1381 _434_
*1382 _435_
*1383 _436_
*1384 _437_
*1385 _438_
*1386 _439_
*1387 _440_
*1388 _441_
*1389 _442_
*1390 _443_
*1391 _444_
*1392 _445_
*1393 _446_
*1394 _447_
*1395 _448_
*1396 _449_
*1397 _450_
*1398 _451_
*1399 _452_
*1400 _453_
*1401 _454_
*1402 _455_
*1403 _456_
*1404 _457_
*1405 _458_
*1406 _459_
*1407 _460_
*1408 _461_
*1409 _462_
*1410 _463_
*1411 _464_
*1412 _465_
*1413 _466_
*1414 _467_
*1415 _468_
*1416 _469_
*1417 _470_
*1418 _471_
*1419 _472_
*1420 _473_
*1421 _474_
*1422 _475_
*1423 _476_
*1424 _477_
*1425 _478_
*1426 _479_
*1427 _480_
*1428 _481_
*1429 _482_
*1430 _483_
*1431 _484_
*1432 _485_
*1433 _486_
*1434 _487_
*1435 _488_
*1436 _489_
*1437 _490_
*1438 _491_
*1439 _492_
*1440 _493_
*1441 _494_
*1442 _495_
*1443 _496_
*1444 _497_
*1445 _498_
*1446 _499_
*1447 _500_
*1448 _501_
*1449 _502_
*1450 _503_
*1451 _504_
*1452 _505_
*1453 _506_
*1454 _507_
*1455 _508_
*1456 _509_
*1457 _510_
*1458 _511_
*1459 _512_
*1460 _513_
*1461 _514_
*1462 _515_
*1463 _516_
*1464 _517_
*1465 _518_
*1466 _519_
*1467 _520_
*1468 _521_
*1469 _522_
*1470 _523_
*1471 _524_
*1472 _525_
*1473 _526_
*1474 _527_
*1475 _528_
*1476 _529_
*1477 _530_
*1478 _531_
*1479 _532_
*1480 _533_
*1481 _534_
*1482 _535_
*1483 _536_
*1484 _537_
*1485 _538_
*1486 _539_
*1487 _540_
*1488 _541_
*1489 _542_
*1490 _543_
*1491 _544_
*1492 _545_
*1493 _546_
*1494 _547_
*1495 _548_
*1496 _549_
*1497 _550_
*1498 _551_
*1499 _552_
*1500 _553_
*1501 _554_
*1502 _555_
*1503 _556_
*1504 _557_
*1505 _558_
*1506 _559_
*1507 _560_
*1508 _561_
*1509 _562_
*1510 _563_
*1511 _564_
*1512 _565_
*1513 _566_
*1514 _567_
*1515 _568_
*1516 _569_
*1517 _570_
*1518 _571_
*1519 _572_
*1520 _573_
*1521 _574_
*1522 _575_
*1523 _576_
*1524 _577_
*1525 _578_
*1526 _579_
*1527 _580_
*1528 _581_
*1529 _582_
*1530 _583_
*1531 _584_
*1532 _585_
*1533 _586_
*1534 _587_
*1535 _588_
*1536 _589_
*1537 _590_
*1538 _591_
*1539 _592_
*1540 _593_
*1541 _594_
*1542 _595_
*1543 _596_
*1544 _597_
*1545 _598_
*1546 _599_
*1547 _600_
*1548 _601_
*1549 _602_
*1550 _603_
*1551 _604_
*1552 _605_
*1553 _606_
*1554 _607_
*1555 _608_
*1556 _609_
*1557 _610_
*1558 _611_
*1559 _612_
*1560 _613_
*1561 _614_
*1562 _615_
*1563 _616_
*1564 _617_
*1565 _618_
*1566 _619_
*1567 _620_
*1568 _621_
*1569 _622_
*1570 _623_
*1571 _624_
*1572 clkbuf_0_clk
*1573 clkbuf_4_0_0_clk
*1574 clkbuf_4_10_0_clk
*1575 clkbuf_4_11_0_clk
*1576 clkbuf_4_12_0_clk
*1577 clkbuf_4_13_0_clk
*1578 clkbuf_4_14_0_clk
*1579 clkbuf_4_15_0_clk
*1580 clkbuf_4_1_0_clk
*1581 clkbuf_4_2_0_clk
*1582 clkbuf_4_3_0_clk
*1583 clkbuf_4_4_0_clk
*1584 clkbuf_4_5_0_clk
*1585 clkbuf_4_6_0_clk
*1586 clkbuf_4_7_0_clk
*1587 clkbuf_4_8_0_clk
*1588 clkbuf_4_9_0_clk
*1589 clkload0
*1590 clkload1
*1591 clkload10
*1592 clkload11
*1593 clkload12
*1594 clkload13
*1595 clkload2
*1596 clkload3
*1597 clkload4
*1598 clkload5
*1599 clkload6
*1600 clkload7
*1601 clkload8
*1602 clkload9
*1603 fanout11
*1604 fanout12
*1605 fanout13
*1606 fanout14
*1607 fanout15
*1608 fanout16
*1609 fanout17
*1610 fanout20
*1611 fanout21
*1612 fanout22
*1613 fanout23
*1614 fanout24
*1615 fanout25
*1616 fanout26
*1617 fanout27
*1618 fanout28
*1619 fanout29
*1620 fanout30
*1621 fanout31
*1622 fanout32
*1623 fanout33
*1624 fanout34
*1625 fanout35
*1626 fanout36
*1627 fanout37
*1628 fanout38
*1629 fanout39
*1630 fanout40
*1631 fanout41
*1632 fanout42
*1633 fanout43
*1634 fanout44
*1635 fanout45
*1636 fanout46
*1637 fanout47
*1638 fanout48
*1639 fanout49
*1640 fanout50
*1641 fanout51
*1642 fanout52
*1643 fanout53
*1644 fanout54
*1645 fanout55
*1646 fanout56
*1647 fanout57
*1648 fanout58
*1649 fanout59
*1650 fanout60
*1651 fanout61
*1652 fanout62
*1653 fanout63
*1654 input1
*1655 input2
*1656 input3
*1657 input4
*1658 max_cap18
*1659 output10
*1660 output5
*1661 output6
*1662 output7
*1663 output8
*1664 output9
*1665 wire19

*PORTS
cap_ctrl[0] O
cap_ctrl[1] O
cap_ctrl[2] O
clk I
comp_out I
en I
scl I
sda_in I
sda_oe O
sda_out O
trigger_out O

*D_NET *3 0.00178487
*CONN
*P cap_ctrl[0] O
*I *1660:Z O *D gf180mcu_fd_sc_mcu7t5v0__dlyb_1
*CAP
1 cap_ctrl[0] 0.000887064
2 *1660:Z 0.000887064
3 cap_ctrl[0] *1632:I 0
4 cap_ctrl[0] *1660:I 0
5 cap_ctrl[0] *311:26 1.07369e-05
*RES
1 *1660:Z cap_ctrl[0] 11.832 
*END

*D_NET *4 0.00251996
*CONN
*P cap_ctrl[1] O
*I *1661:Z O *D gf180mcu_fd_sc_mcu7t5v0__dlyb_1
*CAP
1 cap_ctrl[1] 0.000976537
2 *1661:Z 0.000976537
3 cap_ctrl[1] *1637:I 0.000566888
*RES
1 *1661:Z cap_ctrl[1] 12.872 
*END

*D_NET *5 0.00175851
*CONN
*P cap_ctrl[2] O
*I *1662:Z O *D gf180mcu_fd_sc_mcu7t5v0__dlyb_1
*CAP
1 cap_ctrl[2] 0.000879257
2 *1662:Z 0.000879257
*RES
1 *1662:Z cap_ctrl[2] 11.52 
*END

*D_NET *6 0.00806388
*CONN
*P clk I
*I *1572:I I *D gf180mcu_fd_sc_mcu7t5v0__clkbuf_16
*CAP
1 clk 0.00256711
2 *1572:I 0.00256711
3 *1572:I *1257:I 4.25834e-05
4 *1572:I *1264:A2 0.000166992
5 *1572:I *1272:B1 2.76714e-05
6 *1572:I *1272:B2 0.0001646
7 *1572:I *1272:C2 2.14087e-05
8 *1572:I *1295:A1 0
9 *1572:I *1295:A3 2.01691e-05
10 *1572:I *1295:A4 7.53222e-05
11 *1572:I *1302:A3 0
12 *1572:I *1391:A3 5.12872e-06
13 *1572:I *1396:A3 0
14 *1572:I *1447:I 0.000340307
15 *1572:I *1579:I 0.000272985
16 *1572:I *155:25 5.56832e-05
17 *1572:I *166:6 8.01745e-05
18 *1572:I *201:14 3.60303e-05
19 *1572:I *294:161 3.17907e-05
20 *1572:I *294:171 0.00031515
21 *1572:I *316:42 0
22 *1572:I *316:57 0.00066212
23 *1572:I *319:10 0.000214059
24 *1572:I *368:36 0.000189884
25 *1572:I *418:12 0
26 *1572:I *420:30 0.0002076
*RES
1 clk *1572:I 34.7994 
*END

*D_NET *7 0.0017438
*CONN
*P comp_out I
*I *1654:I I *D gf180mcu_fd_sc_mcu7t5v0__dlyb_1
*CAP
1 comp_out 0.000871901
2 *1654:I 0.000871901
*RES
1 comp_out *1654:I 11.832 
*END

*D_NET *8 0.000967513
*CONN
*P en I
*I *1655:I I *D gf180mcu_fd_sc_mcu7t5v0__dlyb_1
*CAP
1 en 0.000483757
2 *1655:I 0.000483757
*RES
1 en *1655:I 13.108 
*END

*D_NET *9 0.00109758
*CONN
*P scl I
*I *1656:I I *D gf180mcu_fd_sc_mcu7t5v0__dlyb_1
*CAP
1 scl 0.000515457
2 *1656:I 0.000515457
3 *1656:I *1571:D 4.84332e-05
4 *1656:I *1571:CLK 1.823e-05
*RES
1 scl *1656:I 13.316 
*END

*D_NET *10 0.000778062
*CONN
*P sda_in I
*I *1657:I I *D gf180mcu_fd_sc_mcu7t5v0__dlyb_1
*CAP
1 sda_in 0.000389031
2 *1657:I 0.000389031
*RES
1 sda_in *1657:I 12.38 
*END

*D_NET *11 0.00134352
*CONN
*P sda_oe O
*I *1663:Z O *D gf180mcu_fd_sc_mcu7t5v0__dlyb_1
*CAP
1 sda_oe 0.000671761
2 *1663:Z 0.000671761
*RES
1 *1663:Z sda_oe 14.044 
*END

*D_NET *12 0.000988213
*CONN
*P sda_out O
*I *1664:Z O *D gf180mcu_fd_sc_mcu7t5v0__dlyb_1
*CAP
1 sda_out 0.000449033
2 *1664:Z 0.000449033
3 sda_out *1561:CLK 9.01468e-05
*RES
1 *1664:Z sda_out 12.796 
*END

*D_NET *13 0.00104932
*CONN
*P trigger_out O
*I *1659:Z O *D gf180mcu_fd_sc_mcu7t5v0__dlyb_1
*CAP
1 trigger_out 0.000524659
2 *1659:Z 0.000524659
*RES
1 *1659:Z trigger_out 13.212 
*END

*D_NET *14 0.000690348
*CONN
*I *1559:D I *D gf180mcu_fd_sc_mcu7t5v0__dffrnq_1
*I *1421:ZN O *D gf180mcu_fd_sc_mcu7t5v0__nand2_1
*CAP
1 *1559:D 0.000277459
2 *1421:ZN 0.000277459
3 *1559:D *1412:A2 0
4 *1559:D *1421:A2 0.000103933
5 *1559:D *1559:CLK 0
6 *1559:D *1568:D 3.14958e-05
*RES
1 *1421:ZN *1559:D 11.496 
*END

*D_NET *15 0.00142122
*CONN
*I *1560:D I *D gf180mcu_fd_sc_mcu7t5v0__dffrnq_1
*I *1419:ZN O *D gf180mcu_fd_sc_mcu7t5v0__nand2_1
*CAP
1 *1560:D 0.000194485
2 *1419:ZN 0.000194485
3 *1560:D *1419:A2 0.000241565
4 *1560:D *1561:CLK 0.000790681
*RES
1 *1419:ZN *1560:D 12.12 
*END

*D_NET *16 0.000420779
*CONN
*I *1561:D I *D gf180mcu_fd_sc_mcu7t5v0__dffrnq_1
*I *1415:ZN O *D gf180mcu_fd_sc_mcu7t5v0__nand2_1
*CAP
1 *1561:D 0.000118244
2 *1415:ZN 0.000118244
3 *1561:D *1412:A1 2.36218e-05
4 *1561:D *1412:A2 2.10549e-05
5 *1561:D *1414:A2 1.71326e-05
6 *1561:D *1415:A1 9.09864e-05
7 *1561:D *1561:CLK 3.14958e-05
*RES
1 *1415:ZN *1561:D 10.144 
*END

*D_NET *17 0.00611942
*CONN
*I *1562:D I *D gf180mcu_fd_sc_mcu7t5v0__dffrnq_1
*I *1410:ZN O *D gf180mcu_fd_sc_mcu7t5v0__oai32_1
*CAP
1 *1562:D 0.00110685
2 *1410:ZN 0.00110685
3 *1562:D *1406:A1 8.86782e-05
4 *1562:D *1410:B1 0.000313748
5 *1562:D *1410:B2 0.000122244
6 *1562:D *1421:A2 0.00035011
7 *1562:D *1444:I0 9.80196e-06
8 *1562:D *1452:I 2.82894e-06
9 *1562:D *1562:RN 0.000264635
10 *1562:D *1565:CLK 1.83317e-05
11 *1562:D *1620:I 0.000546284
12 *1562:D *217:16 0.00215835
13 *1562:D *405:10 3.07018e-05
*RES
1 *1410:ZN *1562:D 30.792 
*END

*D_NET *18 0.000920184
*CONN
*I *1563:D I *D gf180mcu_fd_sc_mcu7t5v0__dffrnq_1
*I *1409:ZN O *D gf180mcu_fd_sc_mcu7t5v0__oai22_1
*CAP
1 *1563:D 9.47653e-05
2 *1409:ZN 9.47653e-05
3 *1563:D *1409:A1 0.000395417
4 *1563:D *1626:I 0.000297825
5 *1563:D *272:31 2.81522e-06
6 *1563:D *339:30 3.4596e-05
*RES
1 *1409:ZN *1563:D 10.768 
*END

*D_NET *19 0.000464698
*CONN
*I *1564:D I *D gf180mcu_fd_sc_mcu7t5v0__dffrnq_1
*I *1408:ZN O *D gf180mcu_fd_sc_mcu7t5v0__oai22_1
*CAP
1 *1564:D 0.000130667
2 *1408:ZN 0.000130667
3 *1564:D *1626:I 0
4 *1564:D *1663:I 0.000203364
*RES
1 *1408:ZN *1564:D 10.352 
*END

*D_NET *20 0.00574403
*CONN
*I *1568:D I *D gf180mcu_fd_sc_mcu7t5v0__dffrnq_1
*I *1412:Z O *D gf180mcu_fd_sc_mcu7t5v0__and2_1
*CAP
1 *1568:D 0.00108893
2 *1412:Z 0.00108893
3 *1568:D *1421:A2 0.000419265
4 *1568:D *1460:I 0.000591484
5 *1568:D *1535:CLK 4.21691e-05
6 *1568:D *1567:CLK 0.000158905
7 *1568:D *1570:D 0.00065147
8 *1568:D *1645:I 0
9 *1568:D *1647:I 0
10 *1568:D *1651:I 0
11 *1568:D *239:12 0.000435763
12 *1568:D *239:16 0.00106088
13 *1568:D *309:6 9.80245e-05
14 *1568:D *360:8 7.67119e-05
15 *1568:D *360:25 0
16 *1559:D *1568:D 3.14958e-05
*RES
1 *1412:Z *1568:D 22.208 
*END

*D_NET *21 0.00228574
*CONN
*I *1508:D I *D gf180mcu_fd_sc_mcu7t5v0__dffrnq_1
*I *1422:ZN O *D gf180mcu_fd_sc_mcu7t5v0__nor3_1
*CAP
1 *1508:D 0.00068489
2 *1422:ZN 0.00068489
3 *1508:D *1259:I 0
4 *1508:D *1280:A1 0.000400942
5 *1508:D *1422:A1 0.000356265
6 *1508:D *1481:I 5.35362e-06
7 *1508:D *168:14 0
8 *1508:D *426:29 0.000153403
*RES
1 *1422:ZN *1508:D 15.032 
*END

*D_NET *22 0.00116704
*CONN
*I *1509:D I *D gf180mcu_fd_sc_mcu7t5v0__dffrnq_1
*I *1425:ZN O *D gf180mcu_fd_sc_mcu7t5v0__nor3_1
*CAP
1 *1509:D 0.000214705
2 *1425:ZN 0.000214705
3 *1509:D *1290:A4 3.4596e-05
4 *1509:D *1422:A3 0.000360562
5 *1509:D *1637:I 0.000342471
*RES
1 *1425:ZN *1509:D 11.912 
*END

*D_NET *23 0.00144923
*CONN
*I *1510:D I *D gf180mcu_fd_sc_mcu7t5v0__dffrnq_1
*I *1429:ZN O *D gf180mcu_fd_sc_mcu7t5v0__nor3_1
*CAP
1 *1510:D 0.00055691
2 *1429:ZN 0.00055691
3 *1510:D *1429:A1 7.39118e-06
4 *1510:D *1429:A2 4.63309e-05
5 *1510:D *1432:A1 0
6 *1510:D *1432:A4 3.28735e-05
7 *1510:D *1508:RN 0.000133717
8 *1510:D *1510:CLK 1.05221e-05
9 *1510:D *151:10 0
10 *1510:D *306:6 6.57563e-06
11 *1510:D *313:27 5.26269e-05
12 *1510:D *425:10 4.53712e-05
*RES
1 *1429:ZN *1510:D 12.952 
*END

*D_NET *24 0.00189529
*CONN
*I *1511:D I *D gf180mcu_fd_sc_mcu7t5v0__dffrnq_1
*I *1432:ZN O *D gf180mcu_fd_sc_mcu7t5v0__nor4_1
*CAP
1 *1511:D 0.000210132
2 *1432:ZN 0.000210132
3 *1511:D *1279:A2 0.000214713
4 *1511:D *1430:A1 8.10143e-05
5 *1511:D *1430:A2 0.000257552
6 *1511:D *167:8 0.000534088
7 *1511:D *167:10 0.000367033
8 *1511:D *313:27 2.06289e-05
*RES
1 *1432:ZN *1511:D 21.328 
*END

*D_NET *25 0.00156212
*CONN
*I *1512:D I *D gf180mcu_fd_sc_mcu7t5v0__dffrnq_1
*I *1435:ZN O *D gf180mcu_fd_sc_mcu7t5v0__nor4_1
*CAP
1 *1512:D 0.000343295
2 *1435:ZN 0.000343295
3 *1512:D *1435:A4 0.000199988
4 *1512:D *1607:I 0.000123485
5 *1512:D *190:14 2.05781e-05
6 *1512:D *287:10 0.000133732
7 *1512:D *313:10 0.000397744
*RES
1 *1435:ZN *1512:D 21.328 
*END

*D_NET *26 0.00362596
*CONN
*I *1513:D I *D gf180mcu_fd_sc_mcu7t5v0__dffrnq_1
*I *1438:ZN O *D gf180mcu_fd_sc_mcu7t5v0__nor3_1
*CAP
1 *1513:D 0.000226436
2 *1438:ZN 0.000226436
3 *1513:D *1438:A1 4.49163e-05
4 *1513:D *1438:A2 1.12327e-05
5 *1513:D *1439:A1 0.000489078
6 *1513:D *1468:I 2.9722e-05
7 *1513:D *1469:I 0.00148642
8 *1513:D *430:14 2.46957e-05
9 *1513:D *430:36 6.64873e-05
10 *1513:D *431:29 0.00102054
*RES
1 *1438:ZN *1513:D 23.2 
*END

*D_NET *27 0.00109056
*CONN
*I *1514:D I *D gf180mcu_fd_sc_mcu7t5v0__dffrnq_1
*I *1441:ZN O *D gf180mcu_fd_sc_mcu7t5v0__nor3_1
*CAP
1 *1514:D 0.000489443
2 *1441:ZN 0.000489443
3 *1514:D *1441:A3 7.13605e-05
4 *1514:D *1621:I 0
5 *1514:D *1640:I 2.73715e-06
6 *1514:D *336:6 3.75723e-05
*RES
1 *1441:ZN *1514:D 12.848 
*END

*D_NET *28 0.00218819
*CONN
*I *1515:D I *D gf180mcu_fd_sc_mcu7t5v0__dffrnq_1
*I *1443:ZN O *D gf180mcu_fd_sc_mcu7t5v0__nor3_1
*CAP
1 *1515:D 9.47576e-05
2 *1443:ZN 9.47576e-05
3 *1515:D *1443:A3 0.00103597
4 *1515:D *1606:I 0.000159517
5 *1515:D *287:33 2.14739e-05
6 *1515:D *432:8 0.000781715
*RES
1 *1443:ZN *1515:D 21.12 
*END

*D_NET *29 0.00276749
*CONN
*I *1554:RN I *D gf180mcu_fd_sc_mcu7t5v0__dffrnq_1
*I *1444:S I *D gf180mcu_fd_sc_mcu7t5v0__mux2_2
*I *1260:ZN O *D gf180mcu_fd_sc_mcu7t5v0__clkinv_1
*CAP
1 *1554:RN 0.000364505
2 *1444:S 2.16748e-05
3 *1260:ZN 0.00011876
4 *29:8 0.00050494
5 *1444:S *1444:I1 0.00028351
6 *1444:S *1554:D 7.75876e-05
7 *1554:RN *1249:I 0
8 *1554:RN *1260:I 0
9 *1554:RN *1444:I1 0.00080879
10 *1554:RN *1554:D 0.000229772
11 *1554:RN *1650:I 5.13239e-06
12 *1554:RN *367:23 0
13 *1554:RN *418:6 0
14 *29:8 *1260:I 0.000317207
15 *29:8 *1444:I0 3.56133e-05
16 *29:8 *1444:I1 0
*RES
1 *1260:ZN *29:8 10.144 
2 *29:8 *1444:S 9.728 
3 *29:8 *1554:RN 12.952 
*END

*D_NET *30 0.000524782
*CONN
*I *1555:RN I *D gf180mcu_fd_sc_mcu7t5v0__dffrnq_1
*I *1445:ZN O *D gf180mcu_fd_sc_mcu7t5v0__clkinv_1
*CAP
1 *1555:RN 0.00015408
2 *1445:ZN 0.00015408
3 *1555:RN *1402:A1 3.57634e-06
4 *1555:RN *1402:A2 0
5 *1555:RN *1555:D 6.41811e-05
6 *1555:RN *301:48 0.000148864
*RES
1 *1445:ZN *1555:RN 10.56 
*END

*D_NET *31 0.000485706
*CONN
*I *1556:RN I *D gf180mcu_fd_sc_mcu7t5v0__dffrnq_1
*I *1446:ZN O *D gf180mcu_fd_sc_mcu7t5v0__clkinv_1
*CAP
1 *1556:RN 0.000242853
2 *1446:ZN 0.000242853
*RES
1 *1446:ZN *1556:RN 10.56 
*END

*D_NET *32 0.000485706
*CONN
*I *1557:RN I *D gf180mcu_fd_sc_mcu7t5v0__dffrnq_1
*I *1447:ZN O *D gf180mcu_fd_sc_mcu7t5v0__clkinv_1
*CAP
1 *1557:RN 0.000242853
2 *1447:ZN 0.000242853
*RES
1 *1447:ZN *1557:RN 10.56 
*END

*D_NET *33 0.00176984
*CONN
*I *1558:RN I *D gf180mcu_fd_sc_mcu7t5v0__dffrnq_1
*I *1448:ZN O *D gf180mcu_fd_sc_mcu7t5v0__clkinv_1
*CAP
1 *1558:RN 0.000343713
2 *1448:ZN 0.000343713
3 *1558:RN *1551:D 0.000265501
4 *1558:RN *1558:D 0.000120244
5 *1558:RN *1608:I 4.91701e-05
6 *1558:RN *316:42 0.000585142
7 *1558:RN *415:29 6.23601e-05
*RES
1 *1448:ZN *1558:RN 22.992 
*END

*D_NET *34 0.000702562
*CONN
*I *1559:RN I *D gf180mcu_fd_sc_mcu7t5v0__dffrnq_1
*I *1449:ZN O *D gf180mcu_fd_sc_mcu7t5v0__clkinv_1
*CAP
1 *1559:RN 0.000255989
2 *1449:ZN 0.000255989
3 *1559:RN *1449:I 0
4 *1559:RN *1457:I 0
5 *1559:RN *1645:I 0.000190584
6 *1559:RN *159:6 0
*RES
1 *1449:ZN *1559:RN 11.08 
*END

*D_NET *35 0.000611191
*CONN
*I *1560:RN I *D gf180mcu_fd_sc_mcu7t5v0__dffrnq_1
*I *1450:ZN O *D gf180mcu_fd_sc_mcu7t5v0__clkinv_1
*CAP
1 *1560:RN 0.000163699
2 *1450:ZN 0.000163699
3 *1560:RN *237:29 0.000239765
4 *1560:RN *361:22 3.93494e-05
5 *1560:RN *361:37 4.67771e-06
*RES
1 *1450:ZN *1560:RN 10.248 
*END

*D_NET *36 0.00192877
*CONN
*I *1561:RN I *D gf180mcu_fd_sc_mcu7t5v0__dffrnq_1
*I *1451:ZN O *D gf180mcu_fd_sc_mcu7t5v0__clkinv_1
*CAP
1 *1561:RN 0.000511833
2 *1451:ZN 0.000511833
3 *1561:RN *1308:A3 4.39481e-05
4 *1561:RN *209:12 2.87304e-05
5 *1561:RN *237:6 0
6 *1561:RN *237:29 0.000239765
7 *1561:RN *361:10 0.000592665
*RES
1 *1451:ZN *1561:RN 13.68 
*END

*D_NET *37 0.00416026
*CONN
*I *1562:RN I *D gf180mcu_fd_sc_mcu7t5v0__dffrnq_1
*I *1452:ZN O *D gf180mcu_fd_sc_mcu7t5v0__clkinv_1
*CAP
1 *1562:RN 0.000662084
2 *1452:ZN 0.000662084
3 *1562:RN *1518:CLK 1.71326e-05
4 *1562:RN *1569:D 0.000102563
5 *1562:RN *233:18 0.00164763
6 *1562:RN *337:19 0.000786187
7 *1562:RN *411:19 1.7942e-05
8 *1562:D *1562:RN 0.000264635
*RES
1 *1452:ZN *1562:RN 26.632 
*END

*D_NET *38 0.000382892
*CONN
*I *1563:RN I *D gf180mcu_fd_sc_mcu7t5v0__dffrnq_1
*I *1453:ZN O *D gf180mcu_fd_sc_mcu7t5v0__clkinv_1
*CAP
1 *1563:RN 0.000155476
2 *1453:ZN 0.000155476
3 *1563:RN *1328:A2 1.29379e-05
4 *1563:RN *1646:I 5.90026e-05
*RES
1 *1453:ZN *1563:RN 10.248 
*END

*D_NET *39 0.000323738
*CONN
*I *1564:RN I *D gf180mcu_fd_sc_mcu7t5v0__dffrnq_1
*I *1454:ZN O *D gf180mcu_fd_sc_mcu7t5v0__clkinv_1
*CAP
1 *1564:RN 0.000161869
2 *1454:ZN 0.000161869
3 *1564:RN *1646:I 0
*RES
1 *1454:ZN *1564:RN 10.04 
*END

*D_NET *40 0.00079284
*CONN
*I *1565:RN I *D gf180mcu_fd_sc_mcu7t5v0__dffrnq_1
*I *1455:ZN O *D gf180mcu_fd_sc_mcu7t5v0__clkinv_1
*CAP
1 *1565:RN 0.000349329
2 *1455:ZN 0.000349329
3 *1565:RN *423:12 9.41826e-05
*RES
1 *1455:ZN *1565:RN 11.496 
*END

*D_NET *41 0.000726447
*CONN
*I *1566:RN I *D gf180mcu_fd_sc_mcu7t5v0__dffrnq_1
*I *1456:ZN O *D gf180mcu_fd_sc_mcu7t5v0__clkinv_1
*CAP
1 *1566:RN 0.00015767
2 *1456:ZN 0.00015767
3 *1566:RN *1257:I 0.000115061
4 *1566:RN *1269:A2 0.000179963
5 *1566:RN *364:13 2.50972e-05
6 *1566:RN *376:14 9.09864e-05
*RES
1 *1456:ZN *1566:RN 19.872 
*END

*D_NET *42 0.00206631
*CONN
*I *1567:SETN I *D gf180mcu_fd_sc_mcu7t5v0__dffsnq_1
*I *1457:ZN O *D gf180mcu_fd_sc_mcu7t5v0__clkinv_1
*CAP
1 *1567:SETN 0.000398299
2 *1457:ZN 0.000398299
3 *1567:SETN *1250:I 0.00073518
4 *1567:SETN *1421:A2 0
5 *1567:SETN *406:10 1.78817e-06
6 *1567:SETN *406:12 5.72561e-05
7 *1567:SETN *406:36 0.000475486
*RES
1 *1457:ZN *1567:SETN 21.952 
*END

*D_NET *43 0.00227149
*CONN
*I *1568:RN I *D gf180mcu_fd_sc_mcu7t5v0__dffrnq_1
*I *1458:ZN O *D gf180mcu_fd_sc_mcu7t5v0__clkinv_1
*CAP
1 *1568:RN 0.00103378
2 *1458:ZN 0.00103378
3 *1568:RN *1343:A2 0
4 *1568:RN *1568:CLK 0.000169099
5 *1568:RN *1652:I 2.66703e-05
6 *1568:RN *239:16 8.1598e-06
7 *1568:RN *239:33 0
*RES
1 *1458:ZN *1568:RN 25.072 
*END

*D_NET *44 0.000353004
*CONN
*I *1569:SETN I *D gf180mcu_fd_sc_mcu7t5v0__dffsnq_1
*I *1459:ZN O *D gf180mcu_fd_sc_mcu7t5v0__clkinv_1
*CAP
1 *1569:SETN 0.000149214
2 *1459:ZN 0.000149214
3 *1569:SETN *1646:I 5.45754e-05
4 *1569:SETN *298:25 0
*RES
1 *1459:ZN *1569:SETN 10.144 
*END

*D_NET *45 0.00183727
*CONN
*I *1570:SETN I *D gf180mcu_fd_sc_mcu7t5v0__dffsnq_1
*I *1460:ZN O *D gf180mcu_fd_sc_mcu7t5v0__clkinv_1
*CAP
1 *1570:SETN 0.000239942
2 *1460:ZN 0.000239942
3 *1570:SETN *1460:I 0.000703196
4 *1570:SETN *360:8 9.41008e-05
5 *1570:SETN *360:21 0.000402936
6 *1570:SETN *360:41 0.000157149
*RES
1 *1460:ZN *1570:SETN 21.328 
*END

*D_NET *46 0.0015945
*CONN
*I *1571:SETN I *D gf180mcu_fd_sc_mcu7t5v0__dffsnq_1
*I *1461:ZN O *D gf180mcu_fd_sc_mcu7t5v0__clkinv_1
*CAP
1 *1571:SETN 0.000272074
2 *1461:ZN 0.000272074
3 *1571:SETN *1461:I 4.54885e-05
4 *1571:SETN *1490:I 0.000669585
5 *1571:SETN *1536:RN 9.09749e-05
6 *1571:SETN *1571:CLK 3.04625e-05
7 *1571:SETN *349:8 2.72796e-06
8 *1571:SETN *349:23 0.000110544
9 *1571:SETN *395:10 0.000100568
*RES
1 *1461:ZN *1571:SETN 21.224 
*END

*D_NET *47 0.00124065
*CONN
*I *1508:RN I *D gf180mcu_fd_sc_mcu7t5v0__dffrnq_1
*I *1462:ZN O *D gf180mcu_fd_sc_mcu7t5v0__clkinv_1
*CAP
1 *1508:RN 0.000507682
2 *1462:ZN 0.000507682
3 *1508:RN *1509:RN 0
4 *1508:RN *1510:CLK 4.53712e-05
5 *1508:RN *426:12 4.61933e-05
6 *1510:D *1508:RN 0.000133717
*RES
1 *1462:ZN *1508:RN 12.64 
*END

*D_NET *48 0.000278513
*CONN
*I *1509:RN I *D gf180mcu_fd_sc_mcu7t5v0__dffrnq_1
*I *1463:ZN O *D gf180mcu_fd_sc_mcu7t5v0__clkinv_1
*CAP
1 *1509:RN 8.89721e-05
2 *1463:ZN 8.89721e-05
3 *1509:RN *1259:I 0.000100568
4 *1508:RN *1509:RN 0
*RES
1 *1463:ZN *1509:RN 9.728 
*END

*D_NET *49 0.000281721
*CONN
*I *1510:RN I *D gf180mcu_fd_sc_mcu7t5v0__dffrnq_1
*I *1464:ZN O *D gf180mcu_fd_sc_mcu7t5v0__clkinv_1
*CAP
1 *1510:RN 0.000137625
2 *1464:ZN 0.000137625
3 *1510:RN *427:12 6.47033e-06
*RES
1 *1464:ZN *1510:RN 9.728 
*END

*D_NET *50 0.000853425
*CONN
*I *1511:RN I *D gf180mcu_fd_sc_mcu7t5v0__dffrnq_1
*I *1465:ZN O *D gf180mcu_fd_sc_mcu7t5v0__clkinv_1
*CAP
1 *1511:RN 0.000137117
2 *1465:ZN 0.000137117
3 *1511:RN *1466:I 0.000579191
*RES
1 *1465:ZN *1511:RN 10.56 
*END

*D_NET *51 0.000410637
*CONN
*I *1512:RN I *D gf180mcu_fd_sc_mcu7t5v0__dffrnq_1
*I *1466:ZN O *D gf180mcu_fd_sc_mcu7t5v0__clkinv_1
*CAP
1 *1512:RN 7.25679e-05
2 *1466:ZN 7.25679e-05
3 *1512:RN *1466:I 0.000265501
*RES
1 *1466:ZN *1512:RN 9.728 
*END

*D_NET *52 0.00122121
*CONN
*I *1513:RN I *D gf180mcu_fd_sc_mcu7t5v0__dffrnq_1
*I *1467:ZN O *D gf180mcu_fd_sc_mcu7t5v0__clkinv_1
*CAP
1 *1513:RN 5.11985e-05
2 *1467:ZN 5.11985e-05
3 *1513:RN *1467:I 0.000178541
4 *1513:RN *1468:I 0.000380864
5 *1513:RN *430:36 0.000559405
*RES
1 *1467:ZN *1513:RN 10.56 
*END

*D_NET *53 0.000527364
*CONN
*I *1514:RN I *D gf180mcu_fd_sc_mcu7t5v0__dffrnq_1
*I *1468:ZN O *D gf180mcu_fd_sc_mcu7t5v0__clkinv_1
*CAP
1 *1514:RN 0.000138399
2 *1468:ZN 0.000138399
3 *1514:RN *316:25 0.000237629
4 *1514:RN *431:10 1.29379e-05
*RES
1 *1468:ZN *1514:RN 10.56 
*END

*D_NET *54 0.000946532
*CONN
*I *1515:RN I *D gf180mcu_fd_sc_mcu7t5v0__dffrnq_1
*I *1469:ZN O *D gf180mcu_fd_sc_mcu7t5v0__clkinv_1
*CAP
1 *1515:RN 0.000273359
2 *1469:ZN 0.000273359
3 *1515:RN *1439:A1 6.18411e-06
4 *1515:RN *1469:I 0.000189938
5 *1515:RN *430:36 0.000203691
*RES
1 *1469:ZN *1515:RN 11.392 
*END

*D_NET *55 0.000993507
*CONN
*I *1516:SETN I *D gf180mcu_fd_sc_mcu7t5v0__dffsnq_1
*I *1470:ZN O *D gf180mcu_fd_sc_mcu7t5v0__clkinv_1
*CAP
1 *1516:SETN 0.000215641
2 *1470:ZN 0.000215641
3 *1516:SETN *1610:I 0.000146025
4 *1516:SETN *311:36 0.0004162
5 *1516:SETN *359:14 0
*RES
1 *1470:ZN *1516:SETN 11.496 
*END

*D_NET *56 0.00052763
*CONN
*I *1517:RN I *D gf180mcu_fd_sc_mcu7t5v0__dffrnq_1
*I *1471:ZN O *D gf180mcu_fd_sc_mcu7t5v0__clkinv_1
*CAP
1 *1517:RN 0.000138078
2 *1471:ZN 0.000138078
3 *1517:RN *1267:B1 1.67036e-05
4 *1517:RN *1270:A1 2.80993e-05
5 *1517:RN *1270:B1 3.30867e-05
6 *1517:RN *294:161 0.000173585
*RES
1 *1471:ZN *1517:RN 19.56 
*END

*D_NET *57 0.00049806
*CONN
*I *1518:SETN I *D gf180mcu_fd_sc_mcu7t5v0__dffsnq_1
*I *1472:ZN O *D gf180mcu_fd_sc_mcu7t5v0__clkinv_1
*CAP
1 *1518:SETN 0.000169272
2 *1472:ZN 0.000169272
3 *1518:SETN *359:26 0.000159517
4 *1518:SETN *376:10 0
*RES
1 *1472:ZN *1518:SETN 10.456 
*END

*D_NET *58 0.000826043
*CONN
*I *1519:RN I *D gf180mcu_fd_sc_mcu7t5v0__dffrnq_1
*I *1473:ZN O *D gf180mcu_fd_sc_mcu7t5v0__clkinv_1
*CAP
1 *1519:RN 0.000272653
2 *1473:ZN 0.000272653
3 *1519:RN *1262:A4 1.12327e-05
4 *1519:RN *1473:I 0.000119242
5 *1519:RN *1474:I 0.000150262
*RES
1 *1473:ZN *1519:RN 11.08 
*END

*D_NET *59 0.00267953
*CONN
*I *1520:RN I *D gf180mcu_fd_sc_mcu7t5v0__dffrnq_1
*I *1474:ZN O *D gf180mcu_fd_sc_mcu7t5v0__clkinv_1
*CAP
1 *1520:RN 0.000487352
2 *1474:ZN 0.000487352
3 *1520:RN *1381:B 1.49279e-05
4 *1520:RN *1384:I0 7.84575e-05
5 *1520:RN *1386:A1 0.00150992
6 *1520:RN *1519:D 4.90573e-05
7 *1520:RN *378:25 5.24641e-05
*RES
1 *1474:ZN *1520:RN 23.72 
*END

*D_NET *60 0.000415693
*CONN
*I *1521:RN I *D gf180mcu_fd_sc_mcu7t5v0__dffrnq_1
*I *1475:ZN O *D gf180mcu_fd_sc_mcu7t5v0__clkinv_1
*CAP
1 *1521:RN 0.000114731
2 *1475:ZN 0.000114731
3 *1521:RN *154:23 0.000100568
4 *1521:RN *294:7 2.94992e-05
5 *1521:RN *364:6 5.61634e-05
*RES
1 *1475:ZN *1521:RN 10.248 
*END

*D_NET *61 0.000842344
*CONN
*I *1522:RN I *D gf180mcu_fd_sc_mcu7t5v0__dffrnq_1
*I *1476:ZN O *D gf180mcu_fd_sc_mcu7t5v0__clkinv_1
*CAP
1 *1522:RN 0.000115674
2 *1476:ZN 0.000115674
3 *1522:RN *1476:I 0.000497696
4 *1522:RN *308:35 0.0001133
*RES
1 *1476:ZN *1522:RN 10.664 
*END

*D_NET *62 0.000742194
*CONN
*I *1523:RN I *D gf180mcu_fd_sc_mcu7t5v0__dffrnq_1
*I *1477:ZN O *D gf180mcu_fd_sc_mcu7t5v0__clkinv_1
*CAP
1 *1523:RN 0.000371097
2 *1477:ZN 0.000371097
*RES
1 *1477:ZN *1523:RN 11.704 
*END

*D_NET *63 0.00300846
*CONN
*I *1524:RN I *D gf180mcu_fd_sc_mcu7t5v0__dffrnq_1
*I *1478:ZN O *D gf180mcu_fd_sc_mcu7t5v0__clkinv_1
*CAP
1 *1524:RN 0.000353067
2 *1478:ZN 0.000353067
3 *1524:RN *1373:A1 0
4 *1524:RN *1373:A2 3.83663e-05
5 *1524:RN *1533:CLK 0.000934795
6 *1524:RN *1653:I 0.000435879
7 *1524:RN *305:20 0.000415983
8 *1524:RN *347:14 0.000427051
9 *1524:RN *371:6 5.02468e-05
*RES
1 *1478:ZN *1524:RN 22.784 
*END

*D_NET *64 0.00355805
*CONN
*I *1525:RN I *D gf180mcu_fd_sc_mcu7t5v0__dffrnq_1
*I *1479:ZN O *D gf180mcu_fd_sc_mcu7t5v0__clkinv_1
*CAP
1 *1525:RN 0.000529493
2 *1479:ZN 0.000529493
3 *1525:RN *1243:I 0.000579191
4 *1525:RN *1278:B2 4.57026e-05
5 *1525:RN *1373:A1 8.16884e-06
6 *1525:RN *1374:A1 0.000749383
7 *1525:RN *1533:RN 0
8 *1525:RN *1653:I 0.00108863
9 *1525:RN *347:8 2.79867e-05
10 *1525:RN *371:6 0
*RES
1 *1479:ZN *1525:RN 24.24 
*END

*D_NET *65 0.00395495
*CONN
*I *1526:RN I *D gf180mcu_fd_sc_mcu7t5v0__dffrnq_1
*I *1480:ZN O *D gf180mcu_fd_sc_mcu7t5v0__clkinv_1
*CAP
1 *1526:RN 0.000287013
2 *1480:ZN 0.000287013
3 *1526:RN *1653:I 0.0015295
4 *1526:RN *342:50 1.5675e-05
5 *1526:RN *347:43 0.00183575
*RES
1 *1480:ZN *1526:RN 14.824 
*END

*D_NET *66 0.00240604
*CONN
*I *1527:RN I *D gf180mcu_fd_sc_mcu7t5v0__dffrnq_1
*I *1481:ZN O *D gf180mcu_fd_sc_mcu7t5v0__clkinv_1
*CAP
1 *1527:RN 0.000293985
2 *1481:ZN 0.000293985
3 *1527:RN *1292:B1 0.000367233
4 *1527:RN *1292:B2 0.000337769
5 *1527:RN *1369:A1 0.000106926
6 *1527:RN *1369:A2 4.3257e-05
7 *1527:RN *1481:I 0
8 *1527:RN *1530:RN 0.000807021
9 *1527:RN *1607:I 1.23748e-05
10 *1527:RN *148:25 0.000143493
*RES
1 *1481:ZN *1527:RN 22.576 
*END

*D_NET *67 0.00096111
*CONN
*I *1528:RN I *D gf180mcu_fd_sc_mcu7t5v0__dffrnq_1
*I *1482:ZN O *D gf180mcu_fd_sc_mcu7t5v0__clkinv_1
*CAP
1 *1528:RN 0.000315603
2 *1482:ZN 0.000315603
3 *1528:RN *1527:D 8.51851e-06
4 *1528:RN *1614:I 0.000126046
5 *1528:RN *1616:I 0.000134833
6 *1528:RN *294:9 4.48311e-05
7 *1528:RN *342:50 1.5675e-05
*RES
1 *1482:ZN *1528:RN 11.704 
*END

*D_NET *68 0.00284087
*CONN
*I *1529:SETN I *D gf180mcu_fd_sc_mcu7t5v0__dffsnq_1
*I *1483:ZN O *D gf180mcu_fd_sc_mcu7t5v0__clkinv_1
*CAP
1 *1529:SETN 0.000540074
2 *1483:ZN 0.000540074
3 *1529:SETN *1364:B 0.000213482
4 *1529:SETN *1368:A1 0
5 *1529:SETN *1530:CLK 0.000148864
6 *1529:SETN *330:6 0.000509988
7 *1529:SETN *330:10 0.000509988
8 *1529:SETN *342:50 0.000226085
9 *1529:SETN *386:10 0.000152316
*RES
1 *1483:ZN *1529:SETN 25.28 
*END

*D_NET *69 0.003015
*CONN
*I *1530:RN I *D gf180mcu_fd_sc_mcu7t5v0__dffrnq_1
*I *1484:ZN O *D gf180mcu_fd_sc_mcu7t5v0__clkinv_1
*CAP
1 *1530:RN 0.000435829
2 *1484:ZN 0.000435829
3 *1530:RN *1291:A1 0.000579191
4 *1530:RN *1291:A2 0.000579191
5 *1530:RN *1292:B2 3.42651e-05
6 *1530:RN *1363:A1 1.16343e-05
7 *1530:RN *1369:A1 2.82894e-06
8 *1530:RN *1370:A1 0
9 *1530:RN *148:25 0.000129211
10 *1530:RN *357:27 0
11 *1527:RN *1530:RN 0.000807021
*RES
1 *1484:ZN *1530:RN 23.408 
*END

*D_NET *70 0.00174372
*CONN
*I *1531:SETN I *D gf180mcu_fd_sc_mcu7t5v0__dffsnq_1
*I *1485:ZN O *D gf180mcu_fd_sc_mcu7t5v0__clkinv_1
*CAP
1 *1531:SETN 0.000466951
2 *1485:ZN 0.000466951
3 *1531:SETN *1291:A1 2.43266e-05
4 *1531:SETN *1379:A1 0.000438808
5 *1531:SETN *1474:I 0
6 *1531:SETN *1523:CLK 8.58959e-05
7 *1531:SETN *354:23 9.57648e-05
8 *1531:SETN *354:29 0.000165023
*RES
1 *1485:ZN *1531:SETN 22.264 
*END

*D_NET *71 0.00332336
*CONN
*I *1532:RN I *D gf180mcu_fd_sc_mcu7t5v0__dffrnq_1
*I *1486:ZN O *D gf180mcu_fd_sc_mcu7t5v0__clkinv_1
*CAP
1 *1532:RN 0.000606199
2 *1486:ZN 0.000606199
3 *1532:RN *1358:S 8.58618e-05
4 *1532:RN *1376:B 0.00117761
5 *1532:RN *1524:D 0.00052233
6 *1532:RN *1636:I 3.96072e-05
7 *1532:RN *1641:I 0
8 *1532:RN *311:26 0
9 *1532:RN *345:56 0.000183497
10 *1532:RN *348:33 0.000102056
11 *1532:RN *355:10 0
*RES
1 *1486:ZN *1532:RN 24.76 
*END

*D_NET *72 0.000573751
*CONN
*I *1533:RN I *D gf180mcu_fd_sc_mcu7t5v0__dffrnq_1
*I *1487:ZN O *D gf180mcu_fd_sc_mcu7t5v0__clkinv_1
*CAP
1 *1533:RN 0.000286875
2 *1487:ZN 0.000286875
3 *1533:RN *1661:I 0
4 *1525:RN *1533:RN 0
*RES
1 *1487:ZN *1533:RN 10.872 
*END

*D_NET *73 0.00120177
*CONN
*I *1534:RN I *D gf180mcu_fd_sc_mcu7t5v0__dffrnq_1
*I *1488:ZN O *D gf180mcu_fd_sc_mcu7t5v0__clkinv_1
*CAP
1 *1534:RN 0.000432564
2 *1488:ZN 0.000432564
3 *1534:RN *1375:A2 1.63326e-05
4 *1534:RN *1488:I 0.000190116
5 *1534:RN *1533:CLK 6.95001e-05
6 *1534:RN *1662:I 0
7 *1534:RN *347:14 6.06951e-05
8 *1534:RN *371:6 0
*RES
1 *1488:ZN *1534:RN 12.12 
*END

*D_NET *74 0.000730103
*CONN
*I *1535:RN I *D gf180mcu_fd_sc_mcu7t5v0__dffrnq_1
*I *1489:ZN O *D gf180mcu_fd_sc_mcu7t5v0__clkinv_1
*CAP
1 *1535:RN 0.000240828
2 *1489:ZN 0.000240828
3 *1535:RN *1516:D 3.08183e-05
4 *1535:RN *334:8 3.4596e-05
5 *1535:RN *334:27 0
6 *1535:RN *406:10 0.000183033
*RES
1 *1489:ZN *1535:RN 11.288 
*END

*D_NET *75 0.00215197
*CONN
*I *1536:RN I *D gf180mcu_fd_sc_mcu7t5v0__dffrnq_1
*I *1490:ZN O *D gf180mcu_fd_sc_mcu7t5v0__clkinv_1
*CAP
1 *1536:RN 0.000268109
2 *1490:ZN 0.000268109
3 *1536:RN *1353:I1 5.47431e-06
4 *1536:RN *1490:I 0.000476164
5 *1536:RN *1536:D 0.000100568
6 *1536:RN *349:8 0.000839313
7 *1536:RN *395:10 0.000103256
8 *1571:SETN *1536:RN 9.09749e-05
*RES
1 *1490:ZN *1536:RN 12.952 
*END

*D_NET *76 0.00150562
*CONN
*I *1537:RN I *D gf180mcu_fd_sc_mcu7t5v0__dffrnq_1
*I *1491:ZN O *D gf180mcu_fd_sc_mcu7t5v0__clkinv_1
*CAP
1 *1537:RN 0.000470113
2 *1491:ZN 0.000470113
3 *1537:RN *1357:I0 0.000241038
4 *1537:RN *1532:CLK 7.87019e-05
5 *1537:RN *341:18 0
6 *1537:RN *370:10 0.000245659
*RES
1 *1491:ZN *1537:RN 22.368 
*END

*D_NET *77 0.0053763
*CONN
*I *1538:RN I *D gf180mcu_fd_sc_mcu7t5v0__dffrnq_1
*I *1492:ZN O *D gf180mcu_fd_sc_mcu7t5v0__clkinv_1
*CAP
1 *1538:RN 0.000644316
2 *1492:ZN 0.000644316
3 *1538:RN *1353:I0 1.61674e-05
4 *1538:RN *1371:A2 0.00271127
5 *1538:RN *1372:B 2.65937e-05
6 *1538:RN *1492:I 0.000633008
7 *1538:RN *311:26 3.11243e-05
8 *1538:RN *341:12 0.00042999
9 *1538:RN *341:42 3.09073e-06
10 *1538:RN *348:55 0.000236426
*RES
1 *1492:ZN *1538:RN 27.152 
*END

*D_NET *78 0.000555401
*CONN
*I *1539:RN I *D gf180mcu_fd_sc_mcu7t5v0__dffrnq_1
*I *1493:ZN O *D gf180mcu_fd_sc_mcu7t5v0__clkinv_1
*CAP
1 *1539:RN 0.000107237
2 *1493:ZN 0.000107237
3 *1539:RN *1490:I 6.17397e-05
4 *1539:RN *1493:I 1.36858e-05
5 *1539:RN *331:16 0.000265501
*RES
1 *1493:ZN *1539:RN 10.248 
*END

*D_NET *79 0.00279601
*CONN
*I *1540:RN I *D gf180mcu_fd_sc_mcu7t5v0__dffrnq_1
*I *1494:ZN O *D gf180mcu_fd_sc_mcu7t5v0__clkinv_1
*CAP
1 *1540:RN 0.000972285
2 *1494:ZN 0.000972285
3 *1540:RN *1235:I 6.83697e-05
4 *1540:RN *1384:I0 1.80647e-05
5 *1540:RN *1494:I 0.00034366
6 *1540:RN *311:26 7.45646e-05
7 *1540:RN *311:36 0
8 *1540:RN *332:16 0.000335549
9 *1540:RN *399:8 1.12327e-05
*RES
1 *1494:ZN *1540:RN 17.528 
*END

*D_NET *80 0.00445945
*CONN
*I *1541:RN I *D gf180mcu_fd_sc_mcu7t5v0__dffrnq_1
*I *1495:ZN O *D gf180mcu_fd_sc_mcu7t5v0__clkinv_1
*CAP
1 *1541:RN 0.000553871
2 *1495:ZN 0.000553871
3 *1541:RN *1360:A1 0.000405865
4 *1541:RN *1539:CLK 0.000242266
5 *1541:RN *1541:D 0.000500945
6 *1541:RN *1541:CLK 6.64873e-05
7 *1541:RN *1544:RN 2.34455e-06
8 *1541:RN *1581:I 3.20057e-06
9 *1541:RN *1617:I 0.000144333
10 *1541:RN *1634:I 0.00136547
11 *1541:RN *1635:I 0.000323759
12 *1541:RN *1652:I 1.35124e-05
13 *1541:RN *141:25 0.000283521
*RES
1 *1495:ZN *1541:RN 25.696 
*END

*D_NET *81 0.00160736
*CONN
*I *1542:RN I *D gf180mcu_fd_sc_mcu7t5v0__dffrnq_1
*I *1496:ZN O *D gf180mcu_fd_sc_mcu7t5v0__clkinv_1
*CAP
1 *1542:RN 0.000431749
2 *1496:ZN 0.000431749
3 *1542:RN *1362:A2 1.26329e-05
4 *1542:RN *1362:B 0.000328278
5 *1542:RN *1519:CLK 4.81167e-05
6 *1542:RN *1531:D 2.89755e-05
7 *1542:RN *294:7 0
8 *1542:RN *329:16 0.000325862
*RES
1 *1496:ZN *1542:RN 13.056 
*END

*D_NET *82 0.00133063
*CONN
*I *1543:RN I *D gf180mcu_fd_sc_mcu7t5v0__dffrnq_1
*I *1497:ZN O *D gf180mcu_fd_sc_mcu7t5v0__clkinv_1
*CAP
1 *1543:RN 0.000346958
2 *1497:ZN 0.000346958
3 *1543:RN *1343:A1 0.000105844
4 *1543:RN *1356:A2 0.000247057
5 *1543:RN *1388:A1 0
6 *1543:RN *1497:I 0.000213155
7 *1543:RN *1630:I 7.0656e-05
*RES
1 *1497:ZN *1543:RN 20.912 
*END

*D_NET *83 0.00201846
*CONN
*I *1544:RN I *D gf180mcu_fd_sc_mcu7t5v0__dffrnq_1
*I *1498:ZN O *D gf180mcu_fd_sc_mcu7t5v0__clkinv_1
*CAP
1 *1544:RN 0.000613951
2 *1498:ZN 0.000613951
3 *1544:RN *1232:I 0.000171329
4 *1544:RN *1377:A1 2.21365e-05
5 *1544:RN *1539:CLK 2.46351e-05
6 *1544:RN *1541:CLK 6.37346e-05
7 *1544:RN *1629:I 0.000250091
8 *1544:RN *141:10 0.000256285
9 *1541:RN *1544:RN 2.34455e-06
*RES
1 *1498:ZN *1544:RN 14.512 
*END

*D_NET *84 0.00152646
*CONN
*I *1545:SETN I *D gf180mcu_fd_sc_mcu7t5v0__dffsnq_1
*I *1499:ZN O *D gf180mcu_fd_sc_mcu7t5v0__clkinv_1
*CAP
1 *1545:SETN 0.000398675
2 *1499:ZN 0.000398675
3 *1545:SETN *1408:A1 0
4 *1545:SETN *1546:D 0.000705229
5 *1545:SETN *361:51 2.38773e-05
*RES
1 *1499:ZN *1545:SETN 12.64 
*END

*D_NET *85 0.000460865
*CONN
*I *1546:RN I *D gf180mcu_fd_sc_mcu7t5v0__dffrnq_1
*I *1500:ZN O *D gf180mcu_fd_sc_mcu7t5v0__clkinv_1
*CAP
1 *1546:RN 0.000172336
2 *1500:ZN 0.000172336
3 *1546:RN *1626:I 1.29379e-05
4 *1546:RN *1663:I 0.000103256
*RES
1 *1500:ZN *1546:RN 10.56 
*END

*D_NET *86 0.000423355
*CONN
*I *1547:RN I *D gf180mcu_fd_sc_mcu7t5v0__dffrnq_1
*I *1501:ZN O *D gf180mcu_fd_sc_mcu7t5v0__clkinv_1
*CAP
1 *1547:RN 0.000148478
2 *1501:ZN 0.000148478
3 *1547:RN *1329:A2 0
4 *1547:RN *1548:CLK 0.000126399
*RES
1 *1501:ZN *1547:RN 10.352 
*END

*D_NET *87 0.00039647
*CONN
*I *1548:RN I *D gf180mcu_fd_sc_mcu7t5v0__dffrnq_1
*I *1502:ZN O *D gf180mcu_fd_sc_mcu7t5v0__clkinv_1
*CAP
1 *1548:RN 0.000198235
2 *1502:ZN 0.000198235
3 *1548:RN *391:10 0
*RES
1 *1502:ZN *1548:RN 10.352 
*END

*D_NET *88 0.001062
*CONN
*I *1549:RN I *D gf180mcu_fd_sc_mcu7t5v0__dffrnq_1
*I *1503:ZN O *D gf180mcu_fd_sc_mcu7t5v0__clkinv_1
*CAP
1 *1549:RN 0.000257547
2 *1503:ZN 0.000257547
3 *1549:RN *1502:I 5.90026e-05
4 *1549:RN *1549:D 0.000185757
5 *1549:RN *1578:I 0.000302151
*RES
1 *1503:ZN *1549:RN 21.536 
*END

*D_NET *89 0.000442096
*CONN
*I *1550:RN I *D gf180mcu_fd_sc_mcu7t5v0__dffrnq_1
*I *1504:ZN O *D gf180mcu_fd_sc_mcu7t5v0__clkinv_1
*CAP
1 *1550:RN 0.000191968
2 *1504:ZN 0.000191968
3 *1550:RN *1502:I 0
4 *1550:RN *1503:I 2.47364e-05
5 *1550:RN *367:47 3.34231e-05
*RES
1 *1504:ZN *1550:RN 10.352 
*END

*D_NET *90 0.000526356
*CONN
*I *1551:RN I *D gf180mcu_fd_sc_mcu7t5v0__dffrnq_1
*I *1505:ZN O *D gf180mcu_fd_sc_mcu7t5v0__clkinv_1
*CAP
1 *1551:RN 8.46087e-05
2 *1505:ZN 8.46087e-05
3 *1551:RN *1505:I 3.42651e-05
4 *1551:RN *1552:CLK 2.01691e-05
5 *1551:RN *1558:CLK 3.06285e-05
6 *1551:RN *365:23 0.000272076
*RES
1 *1505:ZN *1551:RN 10.04 
*END

*D_NET *91 0.00198167
*CONN
*I *1552:RN I *D gf180mcu_fd_sc_mcu7t5v0__dffrnq_1
*I *1506:ZN O *D gf180mcu_fd_sc_mcu7t5v0__clkinv_1
*CAP
1 *1552:RN 0.000505279
2 *1506:ZN 0.000505279
3 *1552:RN *1609:I 0.000193597
4 *1552:RN *1621:I 6.69436e-05
5 *1552:RN *1649:I 1.23748e-05
6 *1552:RN *336:6 0
7 *1552:RN *365:10 0.000698193
*RES
1 *1506:ZN *1552:RN 23.616 
*END

*D_NET *92 0.000410637
*CONN
*I *1553:RN I *D gf180mcu_fd_sc_mcu7t5v0__dffrnq_1
*I *1507:ZN O *D gf180mcu_fd_sc_mcu7t5v0__clkinv_1
*CAP
1 *1553:RN 7.25679e-05
2 *1507:ZN 7.25679e-05
3 *1553:RN *1227:I 0
4 *1553:RN *1269:A1 0
5 *1553:RN *364:20 0.000265501
*RES
1 *1507:ZN *1553:RN 9.728 
*END

*D_NET *93 0.0028728
*CONN
*I *1554:D I *D gf180mcu_fd_sc_mcu7t5v0__dffrnq_1
*I *1404:ZN O *D gf180mcu_fd_sc_mcu7t5v0__nor4_1
*CAP
1 *1554:D 0.000964152
2 *1404:ZN 0.000964152
3 *1554:D *1391:A2 1.23478e-05
4 *1554:D *1401:A2 2.50257e-05
5 *1554:D *1404:A2 7.2883e-05
6 *1554:D *1404:A4 4.30651e-05
7 *1554:D *1444:I1 0.000201957
8 *1554:D *1650:I 0.00017113
9 *1554:D *312:16 8.39223e-05
10 *1554:D *418:6 2.68044e-05
11 *1444:S *1554:D 7.75876e-05
12 *1554:RN *1554:D 0.000229772
*RES
1 *1404:ZN *1554:D 26.632 
*END

*D_NET *94 0.00229459
*CONN
*I *1555:D I *D gf180mcu_fd_sc_mcu7t5v0__dffrnq_1
*I *1402:ZN O *D gf180mcu_fd_sc_mcu7t5v0__nor3_1
*CAP
1 *1555:D 0.000371755
2 *1402:ZN 0.000371755
3 *1555:D *1401:A1 0
4 *1555:D *1402:A1 0.00133865
5 *1555:D *1402:A3 0.000100342
6 *1555:D *1445:I 4.78993e-05
7 *1555:D *420:14 0
8 *1555:RN *1555:D 6.41811e-05
*RES
1 *1402:ZN *1555:D 22.784 
*END

*D_NET *95 0.000541192
*CONN
*I *1556:D I *D gf180mcu_fd_sc_mcu7t5v0__dffrnq_1
*I *1400:ZN O *D gf180mcu_fd_sc_mcu7t5v0__nor3_1
*CAP
1 *1556:D 0.000240871
2 *1400:ZN 0.000240871
3 *1556:D *1557:CLK 2.7239e-05
4 *1556:D *419:10 3.22108e-05
*RES
1 *1400:ZN *1556:D 10.664 
*END

*D_NET *96 0.0015778
*CONN
*I *1557:D I *D gf180mcu_fd_sc_mcu7t5v0__dffrnq_1
*I *1398:ZN O *D gf180mcu_fd_sc_mcu7t5v0__nor3_1
*CAP
1 *1557:D 0.000192703
2 *1398:ZN 0.000192703
3 *1557:D *1400:A1 0.000560736
4 *1557:D *1400:A2 0.000103788
5 *1557:D *315:34 0.00047924
6 *1557:D *316:57 3.4596e-05
7 *1557:D *318:36 1.40331e-05
*RES
1 *1398:ZN *1557:D 11.496 
*END

*D_NET *97 0.00173787
*CONN
*I *1558:D I *D gf180mcu_fd_sc_mcu7t5v0__dffrnq_1
*I *1396:ZN O *D gf180mcu_fd_sc_mcu7t5v0__nor3_1
*CAP
1 *1558:D 0.000240357
2 *1396:ZN 0.000240357
3 *1558:D *1294:A2 2.37133e-06
4 *1558:D *316:42 2.21751e-05
5 *1558:D *318:19 0.000497696
6 *1558:D *415:12 0
7 *1558:D *415:29 0.000614671
8 *1558:RN *1558:D 0.000120244
*RES
1 *1396:ZN *1558:D 21.328 
*END

*D_NET *98 0.00128962
*CONN
*I *1516:D I *D gf180mcu_fd_sc_mcu7t5v0__dffsnq_1
*I *1390:Z O *D gf180mcu_fd_sc_mcu7t5v0__mux2_2
*CAP
1 *1516:D 0.000268373
2 *1390:Z 0.000268373
3 *1516:D *1355:I0 1.07369e-05
4 *1516:D *1489:I 8.14679e-05
5 *1516:D *1516:CLK 0.000419265
6 *1516:D *334:27 0.000191446
7 *1516:D *406:10 1.91439e-05
8 *1535:RN *1516:D 3.08183e-05
*RES
1 *1390:Z *1516:D 12.224 
*END

*D_NET *99 0.00322356
*CONN
*I *1517:D I *D gf180mcu_fd_sc_mcu7t5v0__dffrnq_1
*I *1389:ZN O *D gf180mcu_fd_sc_mcu7t5v0__oai21_1
*CAP
1 *1517:D 0.000689997
2 *1389:ZN 0.000689997
3 *1517:D *1263:A1 0.000663752
4 *1517:D *1388:A1 1.6659e-05
5 *1517:D *1389:A1 0.000663752
6 *1517:D *1521:CLK 8.52736e-05
7 *1517:D *1611:I 0
8 *1517:D *323:38 8.10026e-05
9 *1517:D *374:19 0.000189647
10 *1517:D *374:27 0.000143482
*RES
1 *1389:ZN *1517:D 25.176 
*END

*D_NET *100 0.00186681
*CONN
*I *1518:D I *D gf180mcu_fd_sc_mcu7t5v0__dffsnq_1
*I *1387:Z O *D gf180mcu_fd_sc_mcu7t5v0__mux2_2
*CAP
1 *1518:D 0.000571868
2 *1387:Z 0.000571868
3 *1518:D *1517:CLK 0.000125933
4 *1518:D *1521:CLK 1.46474e-05
5 *1518:D *1587:I 7.3514e-05
6 *1518:D *1610:I 0.0001133
7 *1518:D *294:99 0.0003899
8 *1518:D *359:26 5.78216e-06
9 *1518:D *363:52 0
*RES
1 *1387:Z *1518:D 23.408 
*END

*D_NET *101 0.000681525
*CONN
*I *1519:D I *D gf180mcu_fd_sc_mcu7t5v0__dffrnq_1
*I *1386:ZN O *D gf180mcu_fd_sc_mcu7t5v0__oai21_1
*CAP
1 *1519:D 0.000277372
2 *1386:ZN 0.000277372
3 *1519:D *1388:A1 7.77243e-05
4 *1519:D *294:7 0
5 *1519:D *325:10 0
6 *1520:RN *1519:D 4.90573e-05
*RES
1 *1386:ZN *1519:D 20.08 
*END

*D_NET *102 0.00137779
*CONN
*I *1520:D I *D gf180mcu_fd_sc_mcu7t5v0__dffrnq_1
*I *1384:Z O *D gf180mcu_fd_sc_mcu7t5v0__mux2_2
*CAP
1 *1520:D 0.000435602
2 *1384:Z 0.000435602
3 *1520:D *1343:A1 0
4 *1520:D *1384:I0 1.823e-05
5 *1520:D *1384:I1 4.33994e-05
6 *1520:D *1520:CLK 7.86954e-06
7 *1520:D *144:8 0
8 *1520:D *144:25 0.000159505
9 *1520:D *233:18 0.000256274
10 *1520:D *324:26 8.77606e-06
11 *1520:D *398:44 1.25277e-05
*RES
1 *1384:Z *1520:D 21.328 
*END

*D_NET *103 0.00130186
*CONN
*I *1521:D I *D gf180mcu_fd_sc_mcu7t5v0__dffrnq_1
*I *1383:ZN O *D gf180mcu_fd_sc_mcu7t5v0__oai21_1
*CAP
1 *1521:D 0.000152883
2 *1383:ZN 0.000152883
3 *1521:D *1384:I0 0.000198334
4 *1521:D *1387:I1 4.18042e-05
5 *1521:D *1521:CLK 6.18411e-06
6 *1521:D *1612:I 3.597e-05
7 *1521:D *324:26 0.000680568
8 *1521:D *325:10 3.32327e-05
*RES
1 *1383:ZN *1521:D 20.6 
*END

*D_NET *104 0.000475368
*CONN
*I *1522:D I *D gf180mcu_fd_sc_mcu7t5v0__dffrnq_1
*I *1381:ZN O *D gf180mcu_fd_sc_mcu7t5v0__oai21_1
*CAP
1 *1522:D 0.000153135
2 *1381:ZN 0.000153135
3 *1522:D *1381:A1 0.000169099
*RES
1 *1381:ZN *1522:D 10.456 
*END

*D_NET *105 0.000506476
*CONN
*I *1523:D I *D gf180mcu_fd_sc_mcu7t5v0__dffrnq_1
*I *1379:ZN O *D gf180mcu_fd_sc_mcu7t5v0__aoi21_1
*CAP
1 *1523:D 0.000220811
2 *1379:ZN 0.000220811
3 *1523:D *1381:A2 6.8199e-07
4 *1523:D *325:23 6.41721e-05
*RES
1 *1379:ZN *1523:D 10.664 
*END

*D_NET *106 0.00234011
*CONN
*I *1524:D I *D gf180mcu_fd_sc_mcu7t5v0__dffrnq_1
*I *1376:ZN O *D gf180mcu_fd_sc_mcu7t5v0__aoi21_1
*CAP
1 *1524:D 0.000208048
2 *1376:ZN 0.000208048
3 *1524:D *1358:S 0.000810629
4 *1524:D *1641:I 0
5 *1524:D *326:41 0.000106908
6 *1524:D *345:56 5.27594e-05
7 *1524:D *348:33 0.000106908
8 *1524:D *358:14 0.000324476
9 *1532:RN *1524:D 0.00052233
*RES
1 *1376:ZN *1524:D 21.432 
*END

*D_NET *107 0.00144648
*CONN
*I *1525:D I *D gf180mcu_fd_sc_mcu7t5v0__dffrnq_1
*I *1374:ZN O *D gf180mcu_fd_sc_mcu7t5v0__aoi21_1
*CAP
1 *1525:D 0.000252234
2 *1374:ZN 0.000252234
3 *1525:D *1243:I 0.000376466
4 *1525:D *1278:B2 7.11788e-06
5 *1525:D *1358:I0 1.57245e-05
6 *1525:D *1358:S 0.000102598
7 *1525:D *1373:A1 5.89482e-05
8 *1525:D *1374:A1 0.000271634
9 *1525:D *1376:A1 0.000109521
*RES
1 *1374:ZN *1525:D 21.12 
*END

*D_NET *108 0.00145063
*CONN
*I *1526:D I *D gf180mcu_fd_sc_mcu7t5v0__dffrnq_1
*I *1372:ZN O *D gf180mcu_fd_sc_mcu7t5v0__aoi21_1
*CAP
1 *1526:D 0.000432643
2 *1372:ZN 0.000432643
3 *1526:D *1372:A1 0.000102518
4 *1526:D *311:26 9.48851e-05
5 *1526:D *326:8 0.000269899
6 *1526:D *348:55 0.000102989
7 *1526:D *396:14 1.50543e-05
*RES
1 *1372:ZN *1526:D 21.432 
*END

*D_NET *109 0.00308079
*CONN
*I *1527:D I *D gf180mcu_fd_sc_mcu7t5v0__dffrnq_1
*I *1370:ZN O *D gf180mcu_fd_sc_mcu7t5v0__aoi21_1
*CAP
1 *1527:D 0.000464
2 *1370:ZN 0.000464
3 *1527:D *1368:A1 0.000832916
4 *1527:D *1482:I 5.13239e-06
5 *1527:D *1614:I 0.000346618
6 *1527:D *294:9 0
7 *1527:D *294:19 0
8 *1527:D *342:50 0.000959605
9 *1527:D *347:43 0
10 *1528:RN *1527:D 8.51851e-06
*RES
1 *1370:ZN *1527:D 22.992 
*END

*D_NET *110 0.000658235
*CONN
*I *1528:D I *D gf180mcu_fd_sc_mcu7t5v0__dffrnq_1
*I *1368:ZN O *D gf180mcu_fd_sc_mcu7t5v0__aoi21_1
*CAP
1 *1528:D 7.55999e-05
2 *1368:ZN 7.55999e-05
3 *1528:D *1368:A2 0.0004162
4 *1528:D *1368:B 9.0835e-05
*RES
1 *1368:ZN *1528:D 10.144 
*END

*D_NET *111 0.000758464
*CONN
*I *1529:D I *D gf180mcu_fd_sc_mcu7t5v0__dffsnq_1
*I *1366:ZN O *D gf180mcu_fd_sc_mcu7t5v0__oai21_1
*CAP
1 *1529:D 0.000114218
2 *1366:ZN 0.000114218
3 *1529:D *1330:A4 3.46716e-05
4 *1529:D *1347:A1 7.60808e-05
5 *1529:D *345:35 0.000419276
*RES
1 *1366:ZN *1529:D 10.456 
*END

*D_NET *112 0.000478587
*CONN
*I *1530:D I *D gf180mcu_fd_sc_mcu7t5v0__dffrnq_1
*I *1364:ZN O *D gf180mcu_fd_sc_mcu7t5v0__aoi21_1
*CAP
1 *1530:D 0.000203414
2 *1364:ZN 0.000203414
3 *1530:D *1364:B 7.17602e-05
4 *1530:D *1530:CLK 0
*RES
1 *1364:ZN *1530:D 10.664 
*END

*D_NET *113 0.00185238
*CONN
*I *1531:D I *D gf180mcu_fd_sc_mcu7t5v0__dffsnq_1
*I *1362:ZN O *D gf180mcu_fd_sc_mcu7t5v0__oai21_1
*CAP
1 *1531:D 0.000440939
2 *1362:ZN 0.000440939
3 *1531:D *1361:A1 2.91365e-05
4 *1531:D *1361:A2 0.000260055
5 *1531:D *1362:A2 0.000103788
6 *1531:D *1616:I 0.000157062
7 *1531:D *294:7 5.00508e-06
8 *1531:D *329:16 0.000147762
9 *1531:D *350:8 0.00023872
10 *1542:RN *1531:D 2.89755e-05
*RES
1 *1362:ZN *1531:D 13.472 
*END

*D_NET *114 0.000743624
*CONN
*I *1532:D I *D gf180mcu_fd_sc_mcu7t5v0__dffrnq_1
*I *1359:Z O *D gf180mcu_fd_sc_mcu7t5v0__mux2_2
*CAP
1 *1532:D 0.000156197
2 *1359:Z 0.000156197
3 *1532:D *1357:I0 0.000428493
4 *1532:D *1532:CLK 2.73715e-06
*RES
1 *1359:Z *1532:D 10.664 
*END

*D_NET *115 0.00473355
*CONN
*I *1533:D I *D gf180mcu_fd_sc_mcu7t5v0__dffrnq_1
*I *1358:Z O *D gf180mcu_fd_sc_mcu7t5v0__mux2_2
*CAP
1 *1533:D 0.000772253
2 *1358:Z 0.000772253
3 *1533:D *1358:I1 9.57622e-05
4 *1533:D *1425:A3 9.40934e-05
5 *1533:D *1479:I 6.08108e-05
6 *1533:D *1509:CLK 0.000944197
7 *1533:D *1637:I 0.000114701
8 *1533:D *1641:I 0.00065147
9 *1533:D *1653:I 0.000853491
10 *1533:D *1661:I 0.000241804
11 *1533:D *1662:I 0
12 *1533:D *347:34 4.94991e-05
13 *1533:D *352:8 4.16074e-05
14 *1533:D *352:30 4.16074e-05
*RES
1 *1358:Z *1533:D 28.504 
*END

*D_NET *116 0.00175182
*CONN
*I *1534:D I *D gf180mcu_fd_sc_mcu7t5v0__dffrnq_1
*I *1357:Z O *D gf180mcu_fd_sc_mcu7t5v0__mux2_2
*CAP
1 *1534:D 0.000268499
2 *1357:Z 0.000268499
3 *1534:D *1357:I0 0
4 *1534:D *1357:S 1.84122e-05
5 *1534:D *1359:I0 0.000769958
6 *1534:D *1359:I1 0.000146434
7 *1534:D *1359:S 1.71326e-05
8 *1534:D *1653:I 6.40114e-06
9 *1534:D *1660:I 6.41721e-05
10 *1534:D *355:10 0.000192311
*RES
1 *1357:Z *1534:D 21.64 
*END

*D_NET *117 0.00093573
*CONN
*I *1535:D I *D gf180mcu_fd_sc_mcu7t5v0__dffrnq_1
*I *1355:Z O *D gf180mcu_fd_sc_mcu7t5v0__mux2_2
*CAP
1 *1535:D 0.000124642
2 *1355:Z 0.000124642
3 *1535:D *1355:I0 0
4 *1535:D *1355:S 0.000686446
*RES
1 *1355:Z *1535:D 19.768 
*END

*D_NET *118 0.00293322
*CONN
*I *1536:D I *D gf180mcu_fd_sc_mcu7t5v0__dffrnq_1
*I *1354:Z O *D gf180mcu_fd_sc_mcu7t5v0__mux2_2
*CAP
1 *1536:D 0.000620045
2 *1354:Z 0.000620045
3 *1536:D *1353:I1 4.81384e-05
4 *1536:D *1353:S 0.000594916
5 *1536:D *1492:I 0
6 *1536:D *1589:I 0
7 *1536:D *295:22 0
8 *1536:D *331:20 0.000949505
9 *1536:D *349:23 0
10 *1536:RN *1536:D 0.000100568
*RES
1 *1354:Z *1536:D 23.616 
*END

*D_NET *119 0.000710975
*CONN
*I *1537:D I *D gf180mcu_fd_sc_mcu7t5v0__dffrnq_1
*I *1353:Z O *D gf180mcu_fd_sc_mcu7t5v0__mux2_2
*CAP
1 *1537:D 0.000113953
2 *1353:Z 0.000113953
3 *1537:D *1532:CLK 5.45754e-05
4 *1537:D *1537:CLK 0.000428493
*RES
1 *1353:Z *1537:D 10.456 
*END

*D_NET *120 0.00147767
*CONN
*I *1538:D I *D gf180mcu_fd_sc_mcu7t5v0__dffrnq_1
*I *1352:Z O *D gf180mcu_fd_sc_mcu7t5v0__mux2_2
*CAP
1 *1538:D 0.000416641
2 *1352:Z 0.000416641
3 *1538:D *1532:CLK 1.12191e-05
4 *1538:D *1652:I 0.000166218
5 *1538:D *295:18 0.000466947
*RES
1 *1352:Z *1538:D 12.432 
*END

*D_NET *121 0.00158302
*CONN
*I *1539:D I *D gf180mcu_fd_sc_mcu7t5v0__dffrnq_1
*I *1351:Z O *D gf180mcu_fd_sc_mcu7t5v0__mux2_2
*CAP
1 *1539:D 0.000287503
2 *1351:Z 0.000287503
3 *1539:D *1539:CLK 6.8199e-07
4 *1539:D *1652:I 7.11701e-05
5 *1539:D *331:18 0.000271764
6 *1539:D *331:20 0.00052233
7 *1539:D *342:10 0.000142073
*RES
1 *1351:Z *1539:D 21.12 
*END

*D_NET *122 0.000655781
*CONN
*I *1540:D I *D gf180mcu_fd_sc_mcu7t5v0__dffrnq_1
*I *1350:ZN O *D gf180mcu_fd_sc_mcu7t5v0__oai21_1
*CAP
1 *1540:D 9.45699e-05
2 *1350:ZN 9.45699e-05
3 *1540:D *1630:I 5.6593e-05
4 *1540:D *334:27 0.000410048
*RES
1 *1350:ZN *1540:D 10.144 
*END

*D_NET *123 0.00106
*CONN
*I *1541:D I *D gf180mcu_fd_sc_mcu7t5v0__dffrnq_1
*I *1348:ZN O *D gf180mcu_fd_sc_mcu7t5v0__aoi21_1
*CAP
1 *1541:D 0.000268442
2 *1348:ZN 0.000268442
3 *1541:D *1652:I 2.21714e-05
4 *1541:RN *1541:D 0.000500945
*RES
1 *1348:ZN *1541:D 11.496 
*END

*D_NET *124 0.00442676
*CONN
*I *1542:D I *D gf180mcu_fd_sc_mcu7t5v0__dffrnq_1
*I *1346:ZN O *D gf180mcu_fd_sc_mcu7t5v0__oai21_1
*CAP
1 *1542:D 0.000813199
2 *1346:ZN 0.000813199
3 *1542:D *1346:A1 0.000143008
4 *1542:D *1346:B 0.000706109
5 *1542:D *1385:A1 0.000296976
6 *1542:D *1387:I1 0.000229428
7 *1542:D *1388:A1 0.000188231
8 *1542:D *1494:I 0.000424968
9 *1542:D *1581:I 0.000705945
10 *1542:D *1596:I 5.13977e-05
11 *1542:D *143:12 0
12 *1542:D *332:16 5.42966e-05
*RES
1 *1346:ZN *1542:D 36.568 
*END

*D_NET *125 0.000472864
*CONN
*I *1543:D I *D gf180mcu_fd_sc_mcu7t5v0__dffrnq_1
*I *1344:ZN O *D gf180mcu_fd_sc_mcu7t5v0__aoi21_1
*CAP
1 *1543:D 0.000186431
2 *1344:ZN 0.000186431
3 *1543:D *1568:CLK 8.28681e-05
4 *1543:D *303:13 1.71326e-05
5 *1543:D *349:43 0
*RES
1 *1344:ZN *1543:D 10.456 
*END

*D_NET *126 0.000961901
*CONN
*I *1544:D I *D gf180mcu_fd_sc_mcu7t5v0__dffrnq_1
*I *1342:ZN O *D gf180mcu_fd_sc_mcu7t5v0__aoi21_1
*CAP
1 *1544:D 0.000292964
2 *1342:ZN 0.000292964
3 *1544:D *1342:A2 0.000186465
4 *1544:D *303:6 0.000126399
5 *1544:D *303:13 1.12327e-05
6 *1544:D *349:43 5.18778e-05
*RES
1 *1342:ZN *1544:D 11.6 
*END

*D_NET *127 0.000627511
*CONN
*I *1545:D I *D gf180mcu_fd_sc_mcu7t5v0__dffsnq_1
*I *1339:ZN O *D gf180mcu_fd_sc_mcu7t5v0__nor2_1
*CAP
1 *1545:D 0.000101025
2 *1339:ZN 0.000101025
3 *1545:D *1339:A2 0.000419276
4 *1545:D *296:38 6.18411e-06
*RES
1 *1339:ZN *1545:D 10.144 
*END

*D_NET *128 0.00363025
*CONN
*I *1546:D I *D gf180mcu_fd_sc_mcu7t5v0__dffrnq_1
*I *1337:ZN O *D gf180mcu_fd_sc_mcu7t5v0__nor2_1
*CAP
1 *1546:D 0.000741105
2 *1337:ZN 0.000741105
3 *1546:D *1408:A1 0
4 *1546:D *1500:I 0.000151966
5 *1546:D *1546:CLK 0.000213199
6 *1546:D *361:51 0.00107765
7 *1545:SETN *1546:D 0.000705229
*RES
1 *1337:ZN *1546:D 17.528 
*END

*D_NET *129 0.00116814
*CONN
*I *1547:D I *D gf180mcu_fd_sc_mcu7t5v0__dffrnq_1
*I *1329:ZN O *D gf180mcu_fd_sc_mcu7t5v0__nor2_1
*CAP
1 *1547:D 0.00031887
2 *1329:ZN 0.00031887
3 *1547:D *1329:A1 0.000419276
4 *1547:D *1646:I 4.13954e-05
5 *1547:D *413:12 6.97265e-05
*RES
1 *1329:ZN *1547:D 21.12 
*END

*D_NET *130 0.000692978
*CONN
*I *1548:D I *D gf180mcu_fd_sc_mcu7t5v0__dffrnq_1
*I *1327:ZN O *D gf180mcu_fd_sc_mcu7t5v0__aoi21_1
*CAP
1 *1548:D 0.000346489
2 *1327:ZN 0.000346489
3 *1548:D *1548:CLK 0
*RES
1 *1327:ZN *1548:D 20.496 
*END

*D_NET *131 0.00196225
*CONN
*I *1549:D I *D gf180mcu_fd_sc_mcu7t5v0__dffrnq_1
*I *1325:ZN O *D gf180mcu_fd_sc_mcu7t5v0__nor2_1
*CAP
1 *1549:D 0.000646494
2 *1325:ZN 0.000646494
3 *1549:D *1318:A1 0.000199988
4 *1549:D *1578:I 0
5 *1549:D *391:10 0
6 *1549:D *391:12 0
7 *1549:D *392:8 0.000283521
8 *1549:RN *1549:D 0.000185757
*RES
1 *1325:ZN *1549:D 24.76 
*END

*D_NET *132 0.000743397
*CONN
*I *1550:D I *D gf180mcu_fd_sc_mcu7t5v0__dffrnq_1
*I *1322:ZN O *D gf180mcu_fd_sc_mcu7t5v0__oai22_1
*CAP
1 *1550:D 0.000157452
2 *1322:ZN 0.000157452
3 *1550:D *1322:A1 0.000428493
*RES
1 *1322:ZN *1550:D 10.664 
*END

*D_NET *133 0.00157455
*CONN
*I *1551:D I *D gf180mcu_fd_sc_mcu7t5v0__dffrnq_1
*I *1302:ZN O *D gf180mcu_fd_sc_mcu7t5v0__nor3_1
*CAP
1 *1551:D 0.000389686
2 *1302:ZN 0.000389686
3 *1551:D *1395:A1 4.11062e-06
4 *1551:D *1608:I 0.000195711
5 *1551:D *1621:I 0.000118194
6 *1551:D *201:14 0.000211657
7 *1558:RN *1551:D 0.000265501
*RES
1 *1302:ZN *1551:D 13.056 
*END

*D_NET *134 0.000683045
*CONN
*I *1552:D I *D gf180mcu_fd_sc_mcu7t5v0__dffrnq_1
*I *1300:ZN O *D gf180mcu_fd_sc_mcu7t5v0__nor3_1
*CAP
1 *1552:D 9.53512e-05
2 *1300:ZN 9.53512e-05
3 *1552:D *1552:CLK 0.000185664
4 *1552:D *365:23 0.000306679
*RES
1 *1300:ZN *1552:D 10.768 
*END

*D_NET *135 0.00270861
*CONN
*I *1553:D I *D gf180mcu_fd_sc_mcu7t5v0__dffrnq_1
*I *1298:ZN O *D gf180mcu_fd_sc_mcu7t5v0__nor4_1
*CAP
1 *1553:D 0.000899894
2 *1298:ZN 0.000899894
3 *1553:D *1257:I 6.35093e-06
4 *1553:D *1269:A2 0
5 *1553:D *1297:A2 0.000419276
6 *1553:D *1298:A4 0.000265501
7 *1553:D *1444:I0 0
8 *1553:D *1447:I 1.75485e-05
9 *1553:D *1455:I 0
10 *1553:D *364:24 6.35457e-05
11 *1553:D *376:10 0
12 *1553:D *418:12 3.511e-05
13 *1553:D *423:12 0.000101487
*RES
1 *1298:ZN *1553:D 26.32 
*END

*D_NET *136 0.0047021
*CONN
*I *1391:A1 I *D gf180mcu_fd_sc_mcu7t5v0__nor3_1
*I *1297:A1 I *D gf180mcu_fd_sc_mcu7t5v0__and2_1
*I *1296:A1 I *D gf180mcu_fd_sc_mcu7t5v0__nor2_1
*I *1227:ZN O *D gf180mcu_fd_sc_mcu7t5v0__clkinv_1
*CAP
1 *1391:A1 3.18844e-05
2 *1297:A1 0.000134285
3 *1296:A1 0.000214529
4 *1227:ZN 0
5 *136:19 0.000251351
6 *136:6 0.00029971
7 *1296:A1 *1260:I 0
8 *1296:A1 *1447:I 4.17612e-05
9 *1296:A1 *204:10 0.000511067
10 *1296:A1 *364:24 0.000447626
11 *1296:A1 *418:12 1.88182e-05
12 *1297:A1 *1297:A2 0.000569953
13 *1297:A1 *1579:I 6.23713e-05
14 *1297:A1 *294:171 0
15 *1297:A1 *316:57 6.32781e-05
16 *1391:A1 *1447:I 0.000631861
17 *1391:A1 *203:26 0.000667744
18 *136:19 *1298:A3 0.000101151
19 *136:19 *1447:I 0.000457065
20 *136:19 *203:26 0.000179413
21 *136:19 *204:10 1.823e-05
*RES
1 *1227:ZN *136:6 9 
2 *136:6 *1296:A1 11.912 
3 *136:6 *136:19 1.352 
4 *136:19 *1297:A1 10.872 
5 *136:19 *1391:A1 10.768 
*END

*D_NET *137 0.00935063
*CONN
*I *1301:A1 I *D gf180mcu_fd_sc_mcu7t5v0__xor2_1
*I *1267:B2 I *D gf180mcu_fd_sc_mcu7t5v0__oai221_1
*I *1270:A1 I *D gf180mcu_fd_sc_mcu7t5v0__aoi221_1
*I *1228:ZN O *D gf180mcu_fd_sc_mcu7t5v0__clkinv_1
*CAP
1 *1301:A1 0
2 *1267:B2 0
3 *1270:A1 0.000569413
4 *1228:ZN 0.000474289
5 *137:20 0.000678678
6 *137:14 0.000583553
7 *1270:A1 *1267:A2 0.000355296
8 *1270:A1 *1267:B1 0.00211823
9 *1270:A1 *1270:C 1.23682e-05
10 *1270:A1 *1272:C2 0
11 *1270:A1 *1651:I 8.44565e-06
12 *1270:A1 *294:161 4.31567e-05
13 *1270:A1 *374:27 1.07369e-05
14 *1270:A1 *375:8 0.000236426
15 *1270:A1 *416:28 3.35189e-05
16 *1270:A1 *418:12 1.96881e-05
17 *137:14 *1228:I 0.000582267
18 *137:14 *1257:I 2.01852e-05
19 *137:14 *1265:A2 0.000301795
20 *137:14 *1267:C 7.22679e-05
21 *137:14 *1295:A4 0.000154193
22 *137:14 *157:12 0.000428493
23 *137:14 *166:6 1.02346e-05
24 *137:14 *201:14 0.00078415
25 *137:14 *299:35 0.000187281
26 *137:14 *420:30 0
27 *137:20 *1264:A1 1.61811e-05
28 *137:20 *1265:A2 4.29477e-05
29 *137:20 *1267:A2 0.000355286
30 *137:20 *1267:B1 8.35223e-05
31 *137:20 *1267:C 0.000500772
32 *137:20 *157:12 0.000639156
33 *1517:RN *1270:A1 2.80993e-05
*RES
1 *1228:ZN *137:14 19.844 
2 *137:14 *137:20 7.204 
3 *137:20 *1270:A1 15.864 
4 *137:20 *1267:B2 9 
5 *137:14 *1301:A1 4.5 
*END

*D_NET *138 0.00188279
*CONN
*I *1322:A1 I *D gf180mcu_fd_sc_mcu7t5v0__oai22_1
*I *1229:ZN O *D gf180mcu_fd_sc_mcu7t5v0__clkinv_1
*CAP
1 *1322:A1 0.000204874
2 *1229:ZN 0.000204874
3 *1322:A1 *1554:CLK 0.000118787
4 *1322:A1 *300:10 0.000428493
5 *1322:A1 *300:12 0.000406983
6 *1322:A1 *393:10 9.02895e-05
7 *1550:D *1322:A1 0.000428493
*RES
1 *1229:ZN *1322:A1 21.12 
*END

*D_NET *139 0.00101099
*CONN
*I *1323:A1 I *D gf180mcu_fd_sc_mcu7t5v0__nor2_1
*I *1230:ZN O *D gf180mcu_fd_sc_mcu7t5v0__clkinv_1
*CAP
1 *1323:A1 0.000121696
2 *1230:ZN 0.000121696
3 *1323:A1 *1318:A3 1.12327e-05
4 *1323:A1 *1319:B 1.71326e-05
5 *1323:A1 *1328:A2 0.00049943
6 *1323:A1 *1548:CLK 0
7 *1323:A1 *227:8 0.000188403
8 *1323:A1 *321:25 5.13977e-05
*RES
1 *1230:ZN *1323:A1 10.872 
*END

*D_NET *140 0.000394917
*CONN
*I *1339:A1 I *D gf180mcu_fd_sc_mcu7t5v0__nor2_1
*I *1231:ZN O *D gf180mcu_fd_sc_mcu7t5v0__clkinv_1
*CAP
1 *1339:A1 0.000187524
2 *1231:ZN 0.000187524
3 *1339:A1 *1339:A2 1.71326e-05
4 *1339:A1 *1659:I 0
5 *1339:A1 *1664:I 2.73715e-06
*RES
1 *1231:ZN *1339:A1 10.664 
*END

*D_NET *141 0.00546677
*CONN
*I *1360:A1 I *D gf180mcu_fd_sc_mcu7t5v0__nand3_1
*I *1377:A1 I *D gf180mcu_fd_sc_mcu7t5v0__and3_1
*I *1342:A1 I *D gf180mcu_fd_sc_mcu7t5v0__aoi21_1
*I *1232:ZN O *D gf180mcu_fd_sc_mcu7t5v0__clkinv_1
*CAP
1 *1360:A1 0.000117084
2 *1377:A1 0.000320737
3 *1342:A1 0.000911923
4 *1232:ZN 7.99158e-05
5 *141:25 0.000488555
6 *141:10 0.00104257
7 *1342:A1 *1341:A1 8.73875e-05
8 *1342:A1 *1581:I 3.41096e-05
9 *1342:A1 *1634:I 0.000228483
10 *1360:A1 *1581:I 5.68596e-05
11 *1360:A1 *1596:I 9.09864e-05
12 *1360:A1 *1652:I 0.000256285
13 *1377:A1 *1232:I 0.0002623
14 *1377:A1 *1360:A3 0.000401498
15 *1377:A1 *1652:I 5.37778e-05
16 *141:25 *1581:I 5.12018e-05
17 *141:25 *1634:I 1.52889e-05
18 *1541:RN *1360:A1 0.000405865
19 *1541:RN *141:25 0.000283521
20 *1544:RN *1377:A1 2.21365e-05
21 *1544:RN *141:10 0.000256285
*RES
1 *1232:ZN *141:10 10.04 
2 *141:10 *1342:A1 14.72 
3 *141:10 *141:25 0.936 
4 *141:25 *1377:A1 12.848 
5 *141:25 *1360:A1 10.872 
*END

*D_NET *142 0.00732843
*CONN
*I *1356:A2 I *D gf180mcu_fd_sc_mcu7t5v0__nand3_1
*I *1377:A2 I *D gf180mcu_fd_sc_mcu7t5v0__and3_1
*I *1344:A1 I *D gf180mcu_fd_sc_mcu7t5v0__aoi21_1
*I *1233:ZN O *D gf180mcu_fd_sc_mcu7t5v0__clkinv_1
*CAP
1 *1356:A2 0.000152518
2 *1377:A2 0.000262711
3 *1344:A1 0.000192431
4 *1233:ZN 0
5 *142:8 0.0004952
6 *142:6 0.000192577
7 *1344:A1 *1343:A2 0.0018455
8 *1344:A1 *1344:B 0.00176198
9 *1344:A1 *1458:I 7.29199e-05
10 *1344:A1 *1497:I 7.70281e-05
11 *1356:A2 *1497:I 0.000108107
12 *1356:A2 *1630:I 1.26329e-05
13 *1356:A2 *334:31 0
14 *1356:A2 *414:8 0.000397755
15 *1377:A2 *1233:I 0.000266826
16 *1377:A2 *1360:A2 0.000349814
17 *1377:A2 *1360:A3 4.07478e-05
18 *1377:A2 *1652:I 0.000774475
19 *1377:A2 *414:8 8.1598e-06
20 *142:8 *1497:I 6.99894e-05
21 *1543:RN *1356:A2 0.000247057
*RES
1 *1233:ZN *142:6 9 
2 *142:6 *142:8 0.52 
3 *142:8 *1344:A1 14.72 
4 *142:8 *1377:A2 12.432 
5 *142:6 *1356:A2 10.872 
*END

*D_NET *143 0.00875197
*CONN
*I *1379:A1 I *D gf180mcu_fd_sc_mcu7t5v0__aoi21_1
*I *1362:A1 I *D gf180mcu_fd_sc_mcu7t5v0__oai21_1
*I *1331:A3 I *D gf180mcu_fd_sc_mcu7t5v0__nor4_1
*I *1346:A1 I *D gf180mcu_fd_sc_mcu7t5v0__oai21_1
*I *1234:ZN O *D gf180mcu_fd_sc_mcu7t5v0__clkinv_1
*CAP
1 *1379:A1 0.000339216
2 *1362:A1 0
3 *1331:A3 0
4 *1346:A1 0.000478336
5 *1234:ZN 7.10309e-05
6 *143:12 0.00132922
7 *143:10 0.00109269
8 *143:8 0.000652048
9 *1346:A1 *1331:A2 0.000188231
10 *1346:A1 *1346:B 2.02858e-05
11 *1346:A1 *1385:A1 1.42728e-05
12 *1346:A1 *1388:A1 0
13 *1346:A1 *1596:I 0.000105345
14 *1346:A1 *245:24 0.000205674
15 *1379:A1 *1378:A2 0.000292328
16 *1379:A1 *1585:I 0
17 *1379:A1 *325:10 0
18 *1379:A1 *325:19 0
19 *1379:A1 *329:10 0.000310596
20 *1379:A1 *354:29 3.16659e-05
21 *143:8 *1385:A1 0.000419276
22 *143:8 *294:7 9.23885e-05
23 *143:10 *1234:I 2.81613e-05
24 *143:10 *1385:A1 2.68644e-05
25 *143:10 *325:10 0
26 *143:10 *329:10 0.000832926
27 *143:12 *1331:A2 0.000310585
28 *143:12 *1385:A1 0.000331993
29 *143:12 *1388:A1 0
30 *143:12 *1494:I 0.000115856
31 *143:12 *325:10 0
32 *143:12 *331:10 0.000881167
33 *1531:SETN *1379:A1 0.000438808
34 *1542:D *1346:A1 0.000143008
35 *1542:D *143:12 0
*RES
1 *1234:ZN *143:8 10.144 
2 *143:8 *143:10 2.6 
3 *143:10 *143:12 7.384 
4 *143:12 *1346:A1 12.744 
5 *143:12 *1331:A3 9 
6 *143:10 *1362:A1 9 
7 *143:8 *1379:A1 12.432 
*END

*D_NET *144 0.0127874
*CONN
*I *1330:A1 I *D gf180mcu_fd_sc_mcu7t5v0__nor4_1
*I *1348:A1 I *D gf180mcu_fd_sc_mcu7t5v0__aoi21_1
*I *1366:A1 I *D gf180mcu_fd_sc_mcu7t5v0__oai21_1
*I *1350:A1 I *D gf180mcu_fd_sc_mcu7t5v0__oai21_1
*I *1235:ZN O *D gf180mcu_fd_sc_mcu7t5v0__clkinv_1
*CAP
1 *1330:A1 0
2 *1348:A1 0
3 *1366:A1 0.00029043
4 *1350:A1 0.000252339
5 *1235:ZN 0.000190947
6 *144:41 0.00121062
7 *144:25 0.0012658
8 *144:8 0.000788902
9 *1350:A1 *1384:I1 6.17392e-05
10 *1350:A1 *1619:I 2.46957e-05
11 *1350:A1 *1630:I 2.38773e-05
12 *1350:A1 *1652:I 8.21146e-06
13 *1350:A1 *334:31 0.000220531
14 *1366:A1 *1347:A1 7.11788e-06
15 *1366:A1 *1367:A2 0.000115856
16 *1366:A1 *1368:B 0.000531148
17 *1366:A1 *1490:I 0.000872934
18 *1366:A1 *1623:I 0.000265836
19 *1366:A1 *1652:I 0.000488468
20 *1366:A1 *245:24 6.09945e-05
21 *1366:A1 *328:10 7.29199e-05
22 *1366:A1 *397:39 6.28659e-05
23 *144:8 *1384:I1 0.000155851
24 *144:8 *1619:I 0.000631613
25 *144:8 *324:26 0.000749394
26 *144:25 *1332:A1 0.000264374
27 *144:25 *1332:A2 0
28 *144:25 *1349:A2 0.000569964
29 *144:25 *1384:I1 3.42651e-05
30 *144:25 *1623:I 0.000162373
31 *144:25 *233:18 3.18325e-05
32 *144:25 *398:44 0.000102989
33 *144:41 *1332:A1 0.000345199
34 *144:41 *1346:A2 1.28148e-05
35 *144:41 *1348:A2 3.62815e-05
36 *144:41 *1623:I 0.00073577
37 *144:41 *1652:I 0.000387139
38 *144:41 *245:24 0
39 *144:41 *304:19 0.000520846
40 *144:41 *304:23 0.00019369
41 *144:41 *332:16 0.000490944
42 *144:41 *398:27 0.000386336
43 *1520:D *144:8 0
44 *1520:D *144:25 0.000159505
*RES
1 *1235:ZN *144:8 13.056 
2 *144:8 *1350:A1 11.08 
3 *144:8 *144:25 8.868 
4 *144:25 *144:41 26.736 
5 *144:41 *1366:A1 18.7 
6 *144:41 *1348:A1 4.5 
7 *144:25 *1330:A1 4.5 
*END

*D_NET *145 0.00428125
*CONN
*I *1281:A1 I *D gf180mcu_fd_sc_mcu7t5v0__aoi22_1
*I *1289:A1 I *D gf180mcu_fd_sc_mcu7t5v0__oai21_1
*I *1285:A1 I *D gf180mcu_fd_sc_mcu7t5v0__oai22_1
*I *1236:ZN O *D gf180mcu_fd_sc_mcu7t5v0__clkinv_1
*CAP
1 *1281:A1 0.000516964
2 *1289:A1 0.000197444
3 *1285:A1 3.0305e-05
4 *1236:ZN 0
5 *145:6 0.000658364
6 *145:4 0.000947579
7 *1281:A1 *1281:B2 0
8 *1281:A1 *1378:A1 0.000304622
9 *1281:A1 *1477:I 0.000841723
10 *1281:A1 *1586:I 3.01315e-05
11 *1281:A1 *354:23 0
12 *1281:A1 *354:53 1.42728e-05
13 *1281:A1 *431:29 0.000199998
14 *1285:A1 *1289:A2 0
15 *1289:A1 *1285:B2 3.26676e-05
16 *1289:A1 *1286:A2 5.60123e-05
17 *1289:A1 *1289:A2 3.05186e-05
18 *1289:A1 *148:25 6.14449e-05
19 *1289:A1 *192:10 0
20 *145:6 *1236:I 0.000113016
21 *145:6 *1281:B2 0
22 *145:6 *1284:B2 5.6593e-05
23 *145:6 *1289:A2 1.63544e-05
24 *145:6 *192:10 0
25 *145:6 *354:23 8.21146e-06
26 *145:6 *432:14 0.000165033
*RES
1 *1236:ZN *145:4 4.5 
2 *145:4 *145:6 3.432 
3 *145:6 *1285:A1 4.812 
4 *145:6 *1289:A1 6.372 
5 *145:4 *1281:A1 18.804 
*END

*D_NET *146 0.0072268
*CONN
*I *1281:B2 I *D gf180mcu_fd_sc_mcu7t5v0__aoi22_1
*I *1284:A1 I *D gf180mcu_fd_sc_mcu7t5v0__oai22_1
*I *1364:A1 I *D gf180mcu_fd_sc_mcu7t5v0__aoi21_1
*I *1237:ZN O *D gf180mcu_fd_sc_mcu7t5v0__clkinv_1
*CAP
1 *1281:B2 0.000457053
2 *1284:A1 0
3 *1364:A1 0.00042137
4 *1237:ZN 0
5 *146:19 0.000588705
6 *146:6 0.000553023
7 *1281:B2 *1284:A2 0.00161343
8 *1281:B2 *1284:B2 1.78817e-06
9 *1281:B2 *1586:I 6.25168e-05
10 *1281:B2 *192:10 8.21146e-06
11 *1364:A1 *1237:I 0.000832926
12 *1364:A1 *1238:I 8.77606e-06
13 *1364:A1 *1291:A2 0.000501776
14 *1364:A1 *1361:A1 0
15 *1364:A1 *1363:A2 0.000904691
16 *1364:A1 *1639:I 0.000142811
17 *1364:A1 *1640:I 0.000146161
18 *1364:A1 *147:8 1.42358e-05
19 *1364:A1 *387:12 0.000497537
20 *1364:A1 *389:8 0
21 *146:19 *1282:A1 5.76352e-05
22 *146:19 *1284:B1 0.000208806
23 *146:19 *1640:I 0.000149173
24 *146:19 *147:8 5.61752e-05
25 *1281:A1 *1281:B2 0
26 *145:6 *1281:B2 0
*RES
1 *1237:ZN *146:6 9 
2 *146:6 *1364:A1 16.176 
3 *146:6 *146:19 6.476 
4 *146:19 *1284:A1 4.5 
5 *146:19 *1281:B2 9.284 
*END

*D_NET *147 0.00285438
*CONN
*I *1282:A1 I *D gf180mcu_fd_sc_mcu7t5v0__aoi22_1
*I *1284:B2 I *D gf180mcu_fd_sc_mcu7t5v0__oai22_1
*I *1238:ZN O *D gf180mcu_fd_sc_mcu7t5v0__clkinv_1
*CAP
1 *1282:A1 0.000339521
2 *1284:B2 0.00016611
3 *1238:ZN 0.000322746
4 *147:8 0.000828376
5 *1282:A1 *1284:B1 4.08508e-05
6 *1282:A1 *1285:B1 0.000393435
7 *1282:A1 *1621:I 4.91818e-05
8 *1282:A1 *190:14 0.000256285
9 *1282:A1 *335:12 2.54037e-05
10 *1284:B2 *189:10 0
11 *1284:B2 *192:10 2.32529e-05
12 *147:8 *1237:I 9.51777e-05
13 *147:8 *1285:B1 0.00012761
14 *147:8 *148:25 0
15 *1281:B2 *1284:B2 1.78817e-06
16 *1364:A1 *147:8 1.42358e-05
17 *145:6 *1284:B2 5.6593e-05
18 *146:19 *1282:A1 5.76352e-05
19 *146:19 *147:8 5.61752e-05
*RES
1 *1238:ZN *147:8 11.808 
2 *147:8 *1284:B2 10.144 
3 *147:8 *1282:A1 12.744 
*END

*D_NET *148 0.00780399
*CONN
*I *1285:B2 I *D gf180mcu_fd_sc_mcu7t5v0__oai22_1
*I *1282:B2 I *D gf180mcu_fd_sc_mcu7t5v0__aoi22_1
*I *1368:A1 I *D gf180mcu_fd_sc_mcu7t5v0__aoi21_1
*I *1239:ZN O *D gf180mcu_fd_sc_mcu7t5v0__clkinv_1
*CAP
1 *1285:B2 6.56111e-05
2 *1282:B2 0.000454089
3 *1368:A1 0.000920764
4 *1239:ZN 0
5 *148:25 0.00137644
6 *148:4 0.0017775
7 *1282:B2 *1282:B1 0.000136
8 *1282:B2 *1285:B1 7.32863e-05
9 *1282:B2 *1286:A1 4.19394e-05
10 *1282:B2 *1607:I 0
11 *1282:B2 *1621:I 0
12 *1282:B2 *189:10 0.000266192
13 *1282:B2 *190:14 0.000419193
14 *1282:B2 *429:29 9.59267e-05
15 *1285:B2 *192:10 2.16279e-05
16 *1368:A1 *1370:B 0.000181349
17 *1368:A1 *1573:I 0
18 *1368:A1 *1614:I 5.06028e-05
19 *1368:A1 *342:50 9.52568e-05
20 *1368:A1 *386:10 0
21 *148:25 *1238:I 0
22 *148:25 *1239:I 0.00019377
23 *148:25 *1285:B1 0
24 *148:25 *1286:A1 0.000322862
25 *148:25 *1289:B 1.07369e-05
26 *148:25 *1292:A2 3.48625e-05
27 *148:25 *1363:A1 1.26446e-05
28 *148:25 *1607:I 1.92092e-05
29 *148:25 *192:10 3.43925e-05
30 *1289:A1 *1285:B2 3.26676e-05
31 *1289:A1 *148:25 6.14449e-05
32 *1527:D *1368:A1 0.000832916
33 *1527:RN *148:25 0.000143493
34 *1529:SETN *1368:A1 0
35 *1530:RN *148:25 0.000129211
36 *147:8 *148:25 0
*RES
1 *1239:ZN *148:4 4.5 
2 *148:4 *1368:A1 21.508 
3 *148:4 *148:25 16.176 
4 *148:25 *1282:B2 18.076 
5 *148:25 *1285:B2 5.02 
*END

*D_NET *149 0.00810991
*CONN
*I *1279:A1 I *D gf180mcu_fd_sc_mcu7t5v0__oai22_1
*I *1370:A1 I *D gf180mcu_fd_sc_mcu7t5v0__aoi21_1
*I *1240:ZN O *D gf180mcu_fd_sc_mcu7t5v0__clkinv_1
*CAP
1 *1279:A1 0
2 *1370:A1 0.000622687
3 *1240:ZN 0.000352622
4 *149:8 0.000975309
5 *1370:A1 *1279:B2 0.000157853
6 *1370:A1 *1369:A1 0.00115502
7 *1370:A1 *1369:A2 0.00261166
8 *1370:A1 *1370:B 0.000410048
9 *1370:A1 *1387:I1 0.000184094
10 *1370:A1 *1484:I 5.39368e-06
11 *1370:A1 *1613:I 0.000218157
12 *1370:A1 *294:19 0
13 *1370:A1 *330:10 0.000268613
14 *1370:A1 *385:10 0.000159376
15 *1370:A1 *385:28 3.35294e-05
16 *149:8 *1240:I 0.000439896
17 *149:8 *1279:A2 0.00026275
18 *149:8 *1280:B 2.97128e-06
19 *149:8 *294:19 0
20 *149:8 *385:28 0.000249932
21 *1530:RN *1370:A1 0
*RES
1 *1240:ZN *149:8 13.472 
2 *149:8 *1370:A1 21.272 
3 *149:8 *1279:A1 9 
*END

*D_NET *150 0.00704763
*CONN
*I *1372:A1 I *D gf180mcu_fd_sc_mcu7t5v0__aoi21_1
*I *1279:B2 I *D gf180mcu_fd_sc_mcu7t5v0__oai22_1
*I *1241:ZN O *D gf180mcu_fd_sc_mcu7t5v0__clkinv_1
*CAP
1 *1372:A1 0.000752146
2 *1279:B2 0.000301485
3 *1241:ZN 0.00030416
4 *150:6 0.00135779
5 *1279:B2 *1369:A2 0.000158209
6 *1279:B2 *294:19 0.000105572
7 *1279:B2 *305:10 1.95034e-05
8 *1372:A1 *1369:A2 0.0027105
9 *1372:A1 *1371:A2 0.000208806
10 *1372:A1 *1597:I 2.42026e-05
11 *1372:A1 *294:19 3.44266e-05
12 *1372:A1 *305:10 9.50858e-05
13 *1372:A1 *326:10 0.000540577
14 *150:6 *1597:I 4.08451e-05
15 *150:6 *294:19 0.000101131
16 *150:6 *347:43 2.98154e-06
17 *150:6 *384:10 2.98389e-05
18 *1370:A1 *1279:B2 0.000157853
19 *1526:D *1372:A1 0.000102518
*RES
1 *1241:ZN *150:6 6.684 
2 *150:6 *1279:B2 17.14 
3 *150:6 *1372:A1 23.068 
*END

*D_NET *151 0.013237
*CONN
*I *1277:A1 I *D gf180mcu_fd_sc_mcu7t5v0__nand2_1
*I *1278:A1 I *D gf180mcu_fd_sc_mcu7t5v0__oai22_1
*I *1374:A1 I *D gf180mcu_fd_sc_mcu7t5v0__aoi21_1
*I *1242:ZN O *D gf180mcu_fd_sc_mcu7t5v0__clkinv_1
*CAP
1 *1277:A1 0
2 *1278:A1 0.000187831
3 *1374:A1 0.000485931
4 *1242:ZN 0.000599146
5 *151:12 0.000916836
6 *151:10 0.00084222
7 *1278:A1 *1509:CLK 0.00103808
8 *1278:A1 *1637:I 0.00103808
9 *1278:A1 *294:19 7.98709e-05
10 *1278:A1 *384:19 0.000438798
11 *1374:A1 *1278:B2 0
12 *1374:A1 *1290:A4 0.00019161
13 *1374:A1 *1358:I0 0.000976446
14 *1374:A1 *1358:S 3.646e-05
15 *1374:A1 *1373:A1 0.000106908
16 *1374:A1 *1641:I 0
17 *1374:A1 *1653:I 5.63044e-06
18 *1374:A1 *342:50 0.000227865
19 *1374:A1 *425:18 0.000242286
20 *151:10 *1279:B1 0.000904681
21 *151:10 *1432:A1 0.000104974
22 *151:10 *425:10 0.000369944
23 *151:10 *426:12 0.00028351
24 *151:10 *426:14 0.000519402
25 *151:10 *426:18 0.000728207
26 *151:10 *427:12 0.000695126
27 *151:10 *427:14 0.000155298
28 *151:12 *1279:B1 0.000495887
29 *151:12 *1290:A4 4.08012e-05
30 *151:12 *425:14 2.76472e-05
31 *151:12 *425:18 0.000321682
32 *151:12 *426:18 0.000116476
33 *151:12 *426:29 3.83426e-05
34 *1510:D *151:10 0
35 *1525:D *1374:A1 0.000271634
36 *1525:RN *1374:A1 0.000749383
*RES
1 *1242:ZN *151:10 18.36 
2 *151:10 *151:12 2.808 
3 *151:12 *1374:A1 15.24 
4 *151:12 *1278:A1 22.16 
5 *151:10 *1277:A1 9 
*END

*D_NET *152 0.00555472
*CONN
*I *1278:B2 I *D gf180mcu_fd_sc_mcu7t5v0__oai22_1
*I *1376:A1 I *D gf180mcu_fd_sc_mcu7t5v0__aoi21_1
*I *1243:ZN O *D gf180mcu_fd_sc_mcu7t5v0__clkinv_1
*CAP
1 *1278:B2 0.00065889
2 *1376:A1 0.000368262
3 *1243:ZN 0
4 *152:6 0.00102715
5 *1278:B2 *1278:B1 8.21358e-05
6 *1278:B2 *1358:I0 1.37509e-05
7 *1278:B2 *1358:S 0.000253743
8 *1278:B2 *1424:A1 0.0009404
9 *1278:B2 *1641:I 0.000438708
10 *1278:B2 *347:43 0
11 *1376:A1 *1358:S 0
12 *1376:A1 *1375:A2 0.000419276
13 *1376:A1 *1641:I 0.00076157
14 *1376:A1 *348:33 0.000428493
15 *1374:A1 *1278:B2 0
16 *1525:D *1278:B2 7.11788e-06
17 *1525:D *1376:A1 0.000109521
18 *1525:RN *1278:B2 4.57026e-05
*RES
1 *1243:ZN *152:6 9 
2 *152:6 *1376:A1 14.824 
3 *152:6 *1278:B2 15.968 
*END

*D_NET *153 0.0057824
*CONN
*I *1272:A1 I *D gf180mcu_fd_sc_mcu7t5v0__oai222_1
*I *1266:B2 I *D gf180mcu_fd_sc_mcu7t5v0__aoi22_1
*I *1381:A1 I *D gf180mcu_fd_sc_mcu7t5v0__oai21_1
*I *1244:ZN O *D gf180mcu_fd_sc_mcu7t5v0__clkinv_1
*CAP
1 *1272:A1 3.6366e-05
2 *1266:B2 6.31183e-05
3 *1381:A1 0.000293458
4 *1244:ZN 0
5 *153:23 0.000746919
6 *153:4 0.000940892
7 *1266:B2 *1266:A2 7.87395e-06
8 *1266:B2 *1266:B1 4.07478e-05
9 *1266:B2 *1272:A2 0.000550736
10 *1266:B2 *156:21 7.87395e-06
11 *1266:B2 *416:28 0.000115166
12 *1272:A1 *1272:A2 0
13 *1381:A1 *1244:I 6.18147e-05
14 *1381:A1 *1522:CLK 0.00055766
15 *1381:A1 *155:8 3.56133e-05
16 *1381:A1 *155:25 5.78216e-06
17 *153:23 *1263:A2 2.58746e-05
18 *153:23 *1265:A1 2.39523e-06
19 *153:23 *1271:A2 0.000543871
20 *153:23 *1272:A2 4.07478e-05
21 *153:23 *1273:A1 3.40995e-07
22 *153:23 *1273:A4 0.000600914
23 *153:23 *155:25 0
24 *153:23 *156:21 8.03888e-05
25 *153:23 *368:8 0.000819327
26 *153:23 *368:36 3.542e-05
27 *1522:D *1381:A1 0.000169099
*RES
1 *1244:ZN *153:4 4.5 
2 *153:4 *1381:A1 7.62 
3 *153:4 *153:23 6.968 
4 *153:23 *1266:B2 6.06 
5 *153:23 *1272:A1 4.812 
*END

*D_NET *154 0.00825447
*CONN
*I *1268:B2 I *D gf180mcu_fd_sc_mcu7t5v0__aoi221_1
*I *1272:B2 I *D gf180mcu_fd_sc_mcu7t5v0__oai222_1
*I *1383:A1 I *D gf180mcu_fd_sc_mcu7t5v0__oai21_1
*I *1245:ZN O *D gf180mcu_fd_sc_mcu7t5v0__clkinv_1
*CAP
1 *1268:B2 0.000261626
2 *1272:B2 0.000233324
3 *1383:A1 0.000635037
4 *1245:ZN 0.000168784
5 *154:23 0.00122765
6 *154:6 0.00153652
7 *1268:B2 *1265:A2 0.000116476
8 *1268:B2 *1271:A1 0.000438819
9 *1268:B2 *1271:A2 0.000121496
10 *1268:B2 *1273:A4 3.11112e-05
11 *1268:B2 *1648:I 0
12 *1268:B2 *1649:I 0
13 *1272:B2 *1264:A2 0.000314907
14 *1272:B2 *368:8 0.000465606
15 *1272:B2 *368:36 0.000431021
16 *1383:A1 *1263:A1 5.71446e-05
17 *1383:A1 *1385:A2 0.00017114
18 *1383:A1 *1611:I 0
19 *1383:A1 *323:21 3.48215e-05
20 *1383:A1 *323:38 1.77568e-05
21 *1383:A1 *324:26 0.000533987
22 *1383:A1 *324:37 0.000219354
23 *1383:A1 *378:25 2.79795e-05
24 *154:6 *1245:I 0.000256285
25 *154:6 *1265:A1 0
26 *154:6 *1385:A2 2.90272e-05
27 *154:6 *294:7 0
28 *154:23 *1263:A1 0
29 *154:23 *1271:A2 0.000483163
30 *154:23 *1389:A1 4.41041e-05
31 *154:23 *1648:I 0
32 *154:23 *294:7 0
33 *154:23 *364:13 7.93118e-05
34 *154:23 *374:27 5.28488e-05
35 *1521:RN *154:23 0.000100568
36 *1572:I *1272:B2 0.0001646
*RES
1 *1245:ZN *154:6 5.852 
2 *154:6 *1383:A1 20.26 
3 *154:6 *154:23 11.572 
4 *154:23 *1272:B2 20.912 
5 *154:23 *1268:B2 11.392 
*END

*D_NET *155 0.00834795
*CONN
*I *1272:C2 I *D gf180mcu_fd_sc_mcu7t5v0__oai222_1
*I *1270:B2 I *D gf180mcu_fd_sc_mcu7t5v0__aoi221_1
*I *1386:A1 I *D gf180mcu_fd_sc_mcu7t5v0__oai21_1
*I *1246:ZN O *D gf180mcu_fd_sc_mcu7t5v0__clkinv_1
*CAP
1 *1272:C2 0.000242772
2 *1270:B2 6.23475e-05
3 *1386:A1 0.000234133
4 *1246:ZN 0.000138724
5 *155:25 0.00115187
6 *155:8 0.00121961
7 *1270:B2 *1247:I 0.000191756
8 *1270:B2 *1389:A1 0.000532799
9 *1270:B2 *1651:I 0.000999971
10 *1272:C2 *1272:B1 1.06014e-05
11 *1272:C2 *1272:C1 2.64063e-05
12 *1272:C2 *1651:I 9.35542e-06
13 *1272:C2 *418:12 1.13316e-05
14 *1386:A1 *1262:A2 7.76861e-06
15 *1386:A1 *1265:A1 0
16 *1386:A1 *1381:B 4.71829e-05
17 *1386:A1 *1386:B 0.000698193
18 *1386:A1 *378:25 0.00035017
19 *155:8 *1262:A4 0.00012524
20 *155:25 *1262:A1 0.000265501
21 *155:25 *1262:A4 7.69998e-05
22 *155:25 *1263:A1 5.63044e-06
23 *155:25 *1263:A2 0.000159505
24 *155:25 *1264:A2 2.83369e-05
25 *155:25 *1265:A1 1.40331e-05
26 *155:25 *1271:A2 3.39247e-06
27 *155:25 *1522:CLK 5.28832e-05
28 *155:25 *1651:I 2.38656e-05
29 *155:25 *374:27 0
30 *155:25 *378:25 2.91591e-05
31 *1270:A1 *1272:C2 0
32 *1381:A1 *155:8 3.56133e-05
33 *1381:A1 *155:25 5.78216e-06
34 *1520:RN *1386:A1 0.00150992
35 *1572:I *1272:C2 2.14087e-05
36 *1572:I *155:25 5.56832e-05
37 *153:23 *155:25 0
*RES
1 *1246:ZN *155:8 5.748 
2 *155:8 *1386:A1 19.012 
3 *155:8 *155:25 6.552 
4 *155:25 *1270:B2 16.724 
5 *155:25 *1272:C2 5.852 
*END

*D_NET *156 0.00844632
*CONN
*I *1266:A2 I *D gf180mcu_fd_sc_mcu7t5v0__aoi22_1
*I *1267:A2 I *D gf180mcu_fd_sc_mcu7t5v0__oai221_1
*I *1389:A1 I *D gf180mcu_fd_sc_mcu7t5v0__oai21_1
*I *1247:ZN O *D gf180mcu_fd_sc_mcu7t5v0__clkinv_1
*CAP
1 *1266:A2 8.77076e-05
2 *1267:A2 8.09212e-05
3 *1389:A1 0.000529846
4 *1247:ZN 0
5 *156:21 0.000506988
6 *156:4 0.000868205
7 *1266:A2 *416:28 0.00033778
8 *1266:A2 *420:30 8.10026e-05
9 *1267:A2 *1264:B 0
10 *1267:A2 *416:28 0.00082118
11 *1389:A1 *1247:I 0.000142822
12 *1389:A1 *1261:A3 4.67771e-06
13 *1389:A1 *1263:A1 9.40787e-05
14 *1389:A1 *1264:A2 0.000487059
15 *1389:A1 *1271:A2 0.000474939
16 *1389:A1 *1273:A4 0.000265455
17 *1389:A1 *1387:I0 0.000116476
18 *1389:A1 *1389:B 0.000110537
19 *1389:A1 *1651:I 0.000124761
20 *1389:A1 *374:27 0.00112217
21 *156:21 *1268:B1 8.56996e-05
22 *156:21 *1273:A1 1.71326e-05
23 *156:21 *420:30 3.95068e-05
24 *1266:B2 *1266:A2 7.87395e-06
25 *1266:B2 *156:21 7.87395e-06
26 *1270:A1 *1267:A2 0.000355296
27 *1270:B2 *1389:A1 0.000532799
28 *1517:D *1389:A1 0.000663752
29 *137:20 *1267:A2 0.000355286
30 *153:23 *156:21 8.03888e-05
31 *154:23 *1389:A1 4.41041e-05
*RES
1 *1247:ZN *156:4 4.5 
2 *156:4 *1389:A1 23.692 
3 *156:4 *156:21 2.496 
4 *156:21 *1267:A2 15.684 
5 *156:21 *1266:A2 5.644 
*END

*D_NET *157 0.00462658
*CONN
*I *1268:A2 I *D gf180mcu_fd_sc_mcu7t5v0__aoi221_1
*I *1264:A1 I *D gf180mcu_fd_sc_mcu7t5v0__aoi21_1
*I *1248:ZN O *D gf180mcu_fd_sc_mcu7t5v0__clkinv_1
*CAP
1 *1268:A2 0.000113158
2 *1264:A1 9.31824e-05
3 *1248:ZN 0.000278443
4 *157:12 0.000484784
5 *1264:A1 *1264:B 0.000280581
6 *1264:A1 *1267:B1 2.13536e-05
7 *1264:A1 *1273:A4 3.7885e-05
8 *1268:A2 *1264:B 0.00029494
9 *1268:A2 *1265:A2 6.45635e-05
10 *1268:A2 *1273:A2 7.9669e-06
11 *1268:A2 *1273:A4 0.000341532
12 *1268:A2 *381:27 1.71326e-05
13 *1268:A2 *416:20 1.71326e-05
14 *157:12 *1265:A2 0.000368214
15 *157:12 *1551:CLK 0
16 *157:12 *299:35 0.000727982
17 *157:12 *415:29 0.000260006
18 *157:12 *416:20 0.000133888
19 *137:14 *157:12 0.000428493
20 *137:20 *1264:A1 1.61811e-05
21 *137:20 *157:12 0.000639156
*RES
1 *1248:ZN *157:12 18.284 
2 *157:12 *1264:A1 14.644 
3 *157:12 *1268:A2 6.372 
*END

*D_NET *158 0.00317767
*CONN
*I *1391:A2 I *D gf180mcu_fd_sc_mcu7t5v0__nor3_1
*I *1249:ZN O *D gf180mcu_fd_sc_mcu7t5v0__clkinv_1
*CAP
1 *1391:A2 0.000519659
2 *1249:ZN 0.000519659
3 *1391:A2 *1394:A4 0
4 *1391:A2 *1401:A1 0.000427061
5 *1391:A2 *1402:A1 0.000479251
6 *1391:A2 *1446:I 2.87521e-05
7 *1391:A2 *1579:I 0.000108297
8 *1391:A2 *1650:I 0.000111861
9 *1391:A2 *261:8 0.000866996
10 *1391:A2 *261:19 0.000103788
11 *1391:A2 *367:47 0
12 *1554:D *1391:A2 1.23478e-05
*RES
1 *1249:ZN *1391:A2 23.824 
*END

*D_NET *159 0.00336485
*CONN
*I *1335:A2 I *D gf180mcu_fd_sc_mcu7t5v0__xor2_1
*I *1312:A2 I *D gf180mcu_fd_sc_mcu7t5v0__nor3_1
*I *1410:A2 I *D gf180mcu_fd_sc_mcu7t5v0__oai32_1
*I *1250:ZN O *D gf180mcu_fd_sc_mcu7t5v0__clkinv_1
*CAP
1 *1335:A2 0
2 *1312:A2 0
3 *1410:A2 0.0002354
4 *1250:ZN 0.000425991
5 *159:12 0.000461737
6 *159:6 0.000652327
7 *1410:A2 *1312:A1 2.14739e-05
8 *1410:A2 *1410:A3 0.000156319
9 *1410:A2 *216:24 0.000215244
10 *1410:A2 *406:45 0.000320165
11 *159:6 *1335:A1 1.84221e-05
12 *159:6 *1336:A2 3.91975e-05
13 *159:6 *1410:A3 0
14 *159:6 *1645:I 0
15 *159:6 *216:24 0
16 *159:6 *237:6 1.36398e-06
17 *159:12 *1312:A3 4.58667e-05
18 *159:12 *1335:A1 0.000771346
19 *159:12 *1413:A1 0
20 *159:12 *1415:A1 0
21 *159:12 *410:8 0
22 *1559:RN *159:6 0
*RES
1 *1250:ZN *159:6 7.1 
2 *159:6 *159:12 11.184 
3 *159:12 *1410:A2 7.412 
4 *159:12 *1312:A2 4.5 
5 *159:6 *1335:A2 4.5 
*END

*D_NET *160 0.00462238
*CONN
*I *1305:A2 I *D gf180mcu_fd_sc_mcu7t5v0__or3_1
*I *1304:A2 I *D gf180mcu_fd_sc_mcu7t5v0__nor3_1
*I *1303:A1 I *D gf180mcu_fd_sc_mcu7t5v0__nor2_1
*I *1251:ZN O *D gf180mcu_fd_sc_mcu7t5v0__clkinv_1
*CAP
1 *1305:A2 0
2 *1304:A2 0
3 *1303:A1 0.000517956
4 *1251:ZN 0.000171584
5 *160:16 0.000675734
6 *160:12 0.000329362
7 *1303:A1 *1409:B2 0
8 *1303:A1 *1564:CLK 0.000205993
9 *1303:A1 *1663:I 1.07369e-05
10 *1303:A1 *213:16 0
11 *1303:A1 *272:31 0.000976785
12 *160:12 *1305:A3 0.000498827
13 *160:12 *1316:B 5.71865e-05
14 *160:12 *1417:A1 0.000488923
15 *160:12 *210:8 2.63994e-05
16 *160:12 *233:18 2.63994e-05
17 *160:12 *312:16 1.92092e-05
18 *160:16 *1304:A1 0.000427051
19 *160:16 *1304:A3 1.94294e-05
20 *160:16 *1417:A1 0.000138205
21 *160:16 *297:29 1.77492e-05
22 *160:16 *312:16 1.48534e-05
*RES
1 *1251:ZN *160:12 11.392 
2 *160:12 *160:16 6.06 
3 *160:16 *1303:A1 9.388 
4 *160:16 *1304:A2 4.5 
5 *160:12 *1305:A2 9 
*END

*D_NET *161 0.000612603
*CONN
*I *1310:A2 I *D gf180mcu_fd_sc_mcu7t5v0__and4_1
*I *1252:ZN O *D gf180mcu_fd_sc_mcu7t5v0__clkinv_1
*CAP
1 *1310:A2 0.000163021
2 *1252:ZN 0.000163021
3 *1310:A2 *1310:A1 0.000191446
4 *1310:A2 *1310:A3 4.07478e-05
5 *1310:A2 *1547:CLK 0
6 *1310:A2 *1646:I 5.19755e-05
7 *1310:A2 *233:18 2.39156e-06
*RES
1 *1252:ZN *1310:A2 10.352 
*END

*D_NET *162 0.00161185
*CONN
*I *1408:A1 I *D gf180mcu_fd_sc_mcu7t5v0__oai22_1
*I *1253:ZN O *D gf180mcu_fd_sc_mcu7t5v0__clkinv_1
*CAP
1 *1408:A1 0.000591972
2 *1253:ZN 0.000591972
3 *1408:A1 *1408:B1 0.000139186
4 *1408:A1 *1409:A1 3.10248e-05
5 *1408:A1 *1409:A2 2.20381e-05
6 *1408:A1 *1663:I 8.42801e-05
7 *1408:A1 *270:10 6.7642e-05
8 *1408:A1 *272:31 1.07369e-05
9 *1408:A1 *373:10 7.30016e-05
10 *1545:SETN *1408:A1 0
11 *1546:D *1408:A1 0
*RES
1 *1253:ZN *1408:A1 22.264 
*END

*D_NET *163 0.00284008
*CONN
*I *1410:B2 I *D gf180mcu_fd_sc_mcu7t5v0__oai32_1
*I *1254:ZN O *D gf180mcu_fd_sc_mcu7t5v0__clkinv_1
*CAP
1 *1410:B2 0.000543708
2 *1254:ZN 0.000543708
3 *1410:B2 *1250:I 9.03002e-05
4 *1410:B2 *1410:B1 3.42651e-05
5 *1410:B2 *1569:D 0.00102866
6 *1410:B2 *1569:CLK 5.41656e-05
7 *1410:B2 *1620:I 0.000194511
8 *1410:B2 *1623:I 0.000187975
9 *1410:B2 *1631:I 0
10 *1410:B2 *337:19 4.05503e-05
11 *1562:D *1410:B2 0.000122244
*RES
1 *1254:ZN *1410:B2 23.928 
*END

*D_NET *164 0.000361306
*CONN
*I *1409:B2 I *D gf180mcu_fd_sc_mcu7t5v0__oai22_1
*I *1255:ZN O *D gf180mcu_fd_sc_mcu7t5v0__clkinv_1
*CAP
1 *1409:B2 0.000100868
2 *1255:ZN 0.000100868
3 *1409:B2 *1663:I 5.90026e-05
4 *1409:B2 *272:31 0.000100568
5 *1303:A1 *1409:B2 0
*RES
1 *1255:ZN *1409:B2 10.04 
*END

*D_NET *165 0.000901681
*CONN
*I *1408:B2 I *D gf180mcu_fd_sc_mcu7t5v0__oai22_1
*I *1256:ZN O *D gf180mcu_fd_sc_mcu7t5v0__clkinv_1
*CAP
1 *1408:B2 0.000289246
2 *1256:ZN 0.000289246
3 *1408:B2 *1255:I 0
4 *1408:B2 *1408:B1 0.000156319
5 *1408:B2 *1409:A2 0.000125206
6 *1408:B2 *1626:I 4.16649e-05
7 *1408:B2 *339:30 0
*RES
1 *1256:ZN *1408:B2 20.496 
*END

*D_NET *166 0.00213356
*CONN
*I *1295:A4 I *D gf180mcu_fd_sc_mcu7t5v0__nand4_1
*I *1293:A2 I *D gf180mcu_fd_sc_mcu7t5v0__and2_1
*I *1257:ZN O *D gf180mcu_fd_sc_mcu7t5v0__clkinv_1
*CAP
1 *1295:A4 0.000274525
2 *1293:A2 0.000126574
3 *1257:ZN 8.48356e-05
4 *166:6 0.000485934
5 *1293:A2 *1257:I 0.000232912
6 *1293:A2 *1295:A3 1.95463e-05
7 *1293:A2 *1577:I 0.000133258
8 *1295:A4 *1228:I 0.000105576
9 *1295:A4 *1272:A2 2.36218e-05
10 *1295:A4 *1295:A3 0.000106908
11 *1295:A4 *261:8 0
12 *1295:A4 *415:29 0.000113016
13 *166:6 *1257:I 0.000106926
14 *1572:I *1295:A4 7.53222e-05
15 *1572:I *166:6 8.01745e-05
16 *137:14 *1295:A4 0.000154193
17 *137:14 *166:6 1.02346e-05
*RES
1 *1257:ZN *166:6 5.228 
2 *166:6 *1293:A2 15.06 
3 *166:6 *1295:A4 8.036 
*END

*D_NET *167 0.00889865
*CONN
*I *1430:A1 I *D gf180mcu_fd_sc_mcu7t5v0__nor2_1
*I *1275:A2 I *D gf180mcu_fd_sc_mcu7t5v0__nand2_1
*I *1274:A2 I *D gf180mcu_fd_sc_mcu7t5v0__oai22_1
*I *1431:A1 I *D gf180mcu_fd_sc_mcu7t5v0__and2_1
*I *1258:ZN O *D gf180mcu_fd_sc_mcu7t5v0__clkinv_1
*CAP
1 *1430:A1 0.000323061
2 *1275:A2 0.000169495
3 *1274:A2 0
4 *1431:A1 0.000114671
5 *1258:ZN 0.000208011
6 *167:31 0.000634394
7 *167:10 0.000811704
8 *167:8 0.000763205
9 *1275:A2 *1240:I 2.66514e-05
10 *1275:A2 *1274:B1 5.77431e-06
11 *1275:A2 *1276:A2 0.000202
12 *1275:A2 *1287:A2 0.000103788
13 *1275:A2 *182:12 0.000116466
14 *1275:A2 *385:28 0.000222195
15 *1430:A1 *1430:A2 7.20461e-05
16 *1430:A1 *1432:A3 0.000354453
17 *1430:A1 *1432:A4 2.33768e-05
18 *1430:A1 *313:27 0
19 *1431:A1 *282:8 4.49022e-05
20 *1431:A1 *306:6 0.000628535
21 *1431:A1 *335:20 0.000276018
22 *167:8 *1279:A2 0.000141133
23 *167:8 *1432:A2 6.52129e-05
24 *167:8 *1638:I 6.70356e-05
25 *167:10 *1279:A2 8.82081e-06
26 *167:10 *1430:A2 8.39493e-05
27 *167:10 *1432:A2 2.80993e-05
28 *167:10 *282:21 2.54037e-05
29 *167:10 *335:44 0.000193629
30 *167:31 *1274:A1 3.60303e-05
31 *167:31 *1274:B1 1.48901e-05
32 *167:31 *1280:B 0.0006688
33 *167:31 *1287:A2 0.000284625
34 *167:31 *1428:A1 0.000424909
35 *167:31 *1428:A2 4.56133e-05
36 *167:31 *1429:A3 0.000385694
37 *167:31 *282:21 0.000131156
38 *167:31 *335:26 0.000202412
39 *167:31 *335:44 8.35178e-06
40 *1511:D *1430:A1 8.10143e-05
41 *1511:D *167:8 0.000534088
42 *1511:D *167:10 0.000367033
*RES
1 *1258:ZN *167:8 12.016 
2 *167:8 *167:10 2.392 
3 *167:10 *1431:A1 10.768 
4 *167:10 *167:31 10.636 
5 *167:31 *1274:A2 4.5 
6 *167:31 *1275:A2 15.788 
7 *167:8 *1430:A1 12.224 
*END

*D_NET *168 0.00665628
*CONN
*I *1427:A1 I *D gf180mcu_fd_sc_mcu7t5v0__nand2_1
*I *1274:B1 I *D gf180mcu_fd_sc_mcu7t5v0__oai22_1
*I *1259:ZN O *D gf180mcu_fd_sc_mcu7t5v0__clkinv_1
*CAP
1 *1427:A1 2.71297e-05
2 *1274:B1 0.000410581
3 *1259:ZN 0.000724175
4 *168:14 0.00116188
5 *1274:B1 *1274:A1 2.01852e-05
6 *1274:B1 *1274:B2 0.0015091
7 *1274:B1 *1287:A2 4.4504e-06
8 *1274:B1 *1428:A1 2.24654e-05
9 *1274:B1 *1428:A2 0.000661099
10 *1274:B1 *1481:I 2.14739e-05
11 *1427:A1 *1280:B 0
12 *1427:A1 *1427:A2 1.78817e-06
13 *168:14 *1242:I 0.000486485
14 *168:14 *1259:I 0.000256094
15 *168:14 *1280:A1 6.88928e-05
16 *168:14 *1427:A2 0.000751535
17 *168:14 *1481:I 1.13079e-05
18 *168:14 *282:8 1.58744e-05
19 *168:14 *313:35 0.000481086
20 *1275:A2 *1274:B1 5.77431e-06
21 *1508:D *168:14 0
22 *167:31 *1274:B1 1.48901e-05
*RES
1 *1259:ZN *168:14 20.468 
2 *168:14 *1274:B1 10.012 
3 *168:14 *1427:A1 4.812 
*END

*D_NET *169 0.00349046
*CONN
*I *1263:A1 I *D gf180mcu_fd_sc_mcu7t5v0__nand2_1
*I *1261:ZN O *D gf180mcu_fd_sc_mcu7t5v0__nor3_1
*CAP
1 *1263:A1 0.00097458
2 *1261:ZN 0.00097458
3 *1263:A1 *1245:I 0
4 *1263:A1 *1261:A3 1.78817e-06
5 *1263:A1 *1262:A2 0
6 *1263:A1 *1263:A2 1.07369e-05
7 *1263:A1 *1264:A2 1.07369e-05
8 *1263:A1 *1265:A1 0
9 *1263:A1 *1387:I0 3.4596e-05
10 *1263:A1 *1648:I 0.000427061
11 *1263:A1 *294:7 0.000147532
12 *1263:A1 *294:97 8.261e-05
13 *1263:A1 *368:8 5.63044e-06
14 *1383:A1 *1263:A1 5.71446e-05
15 *1389:A1 *1263:A1 9.40787e-05
16 *1517:D *1263:A1 0.000663752
17 *154:23 *1263:A1 0
18 *155:25 *1263:A1 5.63044e-06
*RES
1 *1261:ZN *1263:A1 26.632 
*END

*D_NET *170 0.000502169
*CONN
*I *1263:A2 I *D gf180mcu_fd_sc_mcu7t5v0__nand2_1
*I *1262:ZN O *D gf180mcu_fd_sc_mcu7t5v0__nor4_1
*CAP
1 *1263:A2 0.000153026
2 *1262:ZN 0.000153026
3 *1263:A1 *1263:A2 1.07369e-05
4 *153:23 *1263:A2 2.58746e-05
5 *155:25 *1263:A2 0.000159505
*RES
1 *1262:ZN *1263:A2 10.456 
*END

*D_NET *171 0.00234815
*CONN
*I *1264:A2 I *D gf180mcu_fd_sc_mcu7t5v0__aoi21_1
*I *1263:ZN O *D gf180mcu_fd_sc_mcu7t5v0__nand2_1
*CAP
1 *1264:A2 0.000380249
2 *1263:ZN 0.000380249
3 *1264:A2 *1247:I 0.00014466
4 *1264:A2 *1272:B1 6.12849e-05
5 *1264:A2 *1273:A4 9.74303e-05
6 *1264:A2 *368:8 0.000276247
7 *1263:A1 *1264:A2 1.07369e-05
8 *1272:B2 *1264:A2 0.000314907
9 *1389:A1 *1264:A2 0.000487059
10 *1572:I *1264:A2 0.000166992
11 *155:25 *1264:A2 2.83369e-05
*RES
1 *1263:ZN *1264:A2 22.784 
*END

*D_NET *172 0.00279944
*CONN
*I *1273:A1 I *D gf180mcu_fd_sc_mcu7t5v0__nor4_1
*I *1264:ZN O *D gf180mcu_fd_sc_mcu7t5v0__aoi21_1
*CAP
1 *1273:A1 0.000446372
2 *1264:ZN 0.000446372
3 *1273:A1 *1265:A1 1.71326e-05
4 *1273:A1 *1265:A2 0.000583977
5 *1273:A1 *1268:B1 0.000187857
6 *1273:A1 *1271:A1 0.00015962
7 *1273:A1 *1271:A2 3.6383e-06
8 *1273:A1 *1649:I 0.000937003
9 *153:23 *1273:A1 3.40995e-07
10 *156:21 *1273:A1 1.71326e-05
*RES
1 *1264:ZN *1273:A1 22.992 
*END

*D_NET *173 0.000743635
*CONN
*I *1268:C I *D gf180mcu_fd_sc_mcu7t5v0__aoi221_1
*I *1265:Z O *D gf180mcu_fd_sc_mcu7t5v0__xor2_1
*CAP
1 *1268:C 0.000159586
2 *1265:Z 0.000159586
3 *1268:C *1265:A2 0.000346997
4 *1268:C *1268:B1 3.09205e-05
5 *1268:C *1273:A4 4.10716e-05
6 *1268:C *381:27 5.47431e-06
*RES
1 *1265:Z *1268:C 10.872 
*END

*D_NET *174 0.00172272
*CONN
*I *1267:C I *D gf180mcu_fd_sc_mcu7t5v0__oai221_1
*I *1266:ZN O *D gf180mcu_fd_sc_mcu7t5v0__aoi22_1
*CAP
1 *1267:C 0.000230059
2 *1266:ZN 0.000230059
3 *1267:C *1265:A2 0.00057304
4 *1267:C *415:29 6.18331e-05
5 *1267:C *416:28 0
6 *1267:C *421:37 5.469e-05
7 *137:14 *1267:C 7.22679e-05
8 *137:20 *1267:C 0.000500772
*RES
1 *1266:ZN *1267:C 21.12 
*END

*D_NET *175 0.00237468
*CONN
*I *1273:A2 I *D gf180mcu_fd_sc_mcu7t5v0__nor4_1
*I *1267:ZN O *D gf180mcu_fd_sc_mcu7t5v0__oai221_1
*CAP
1 *1273:A2 0.000244361
2 *1267:ZN 0.000244361
3 *1273:A2 *1264:B 0.000405981
4 *1273:A2 *1299:A1 0.000428493
5 *1273:A2 *1621:I 0.000171637
6 *1273:A2 *381:27 0.000361897
7 *1273:A2 *416:20 0.000509988
8 *1268:A2 *1273:A2 7.9669e-06
*RES
1 *1267:ZN *1273:A2 13.368 
*END

*D_NET *176 0.00251209
*CONN
*I *1271:A1 I *D gf180mcu_fd_sc_mcu7t5v0__nand2_1
*I *1268:ZN O *D gf180mcu_fd_sc_mcu7t5v0__aoi221_1
*CAP
1 *1271:A1 0.00025037
2 *1268:ZN 0.00025037
3 *1271:A1 *1265:A1 0.000428444
4 *1271:A1 *1265:A2 0.00010938
5 *1271:A1 *1271:A2 0.000597499
6 *1271:A1 *1273:A4 0.000277589
7 *1268:B2 *1271:A1 0.000438819
8 *1273:A1 *1271:A1 0.00015962
*RES
1 *1268:ZN *1271:A1 23.2 
*END

*D_NET *177 0.00196251
*CONN
*I *1270:C I *D gf180mcu_fd_sc_mcu7t5v0__aoi221_1
*I *1269:Z O *D gf180mcu_fd_sc_mcu7t5v0__xor2_1
*CAP
1 *1270:C 0.000719353
2 *1269:Z 0.000719353
3 *1270:C *1267:B1 4.09769e-05
4 *1270:C *1270:B1 0.000169324
5 *1270:C *1471:I 0
6 *1270:C *298:10 4.18157e-05
7 *1270:C *364:13 0.000259315
8 *1270:C *418:12 0
9 *1270:A1 *1270:C 1.23682e-05
*RES
1 *1269:Z *1270:C 14.616 
*END

*D_NET *178 0.00353459
*CONN
*I *1271:A2 I *D gf180mcu_fd_sc_mcu7t5v0__nand2_1
*I *1270:ZN O *D gf180mcu_fd_sc_mcu7t5v0__aoi221_1
*CAP
1 *1271:A2 0.000538233
2 *1270:ZN 0.000538233
3 *1271:A2 *1265:A1 3.42651e-05
4 *1271:A2 *1273:A4 0.00018553
5 *1271:A2 *364:13 0
6 *1271:A2 *374:27 1.03327e-05
7 *1268:B2 *1271:A2 0.000121496
8 *1271:A1 *1271:A2 0.000597499
9 *1273:A1 *1271:A2 3.6383e-06
10 *1389:A1 *1271:A2 0.000474939
11 *153:23 *1271:A2 0.000543871
12 *154:23 *1271:A2 0.000483163
13 *155:25 *1271:A2 3.39247e-06
*RES
1 *1270:ZN *1271:A2 25.8 
*END

*D_NET *179 0.00126722
*CONN
*I *1273:A3 I *D gf180mcu_fd_sc_mcu7t5v0__nor4_1
*I *1271:ZN O *D gf180mcu_fd_sc_mcu7t5v0__nand2_1
*CAP
1 *1273:A3 0.000180896
2 *1271:ZN 0.000180896
3 *1273:A3 *1265:A1 0
4 *1273:A3 *1265:A2 6.8199e-07
5 *1273:A3 *1522:CLK 0.00034637
6 *1273:A3 *1649:I 0.000160628
7 *1273:A3 *381:27 0.000397744
*RES
1 *1271:ZN *1273:A3 21.12 
*END

*D_NET *180 0.00413707
*CONN
*I *1273:A4 I *D gf180mcu_fd_sc_mcu7t5v0__nor4_1
*I *1272:ZN O *D gf180mcu_fd_sc_mcu7t5v0__oai222_1
*CAP
1 *1273:A4 0.000459647
2 *1272:ZN 0.000459647
3 *1273:A4 *1264:B 0.000100055
4 *1273:A4 *1265:A2 0.000350174
5 *1273:A4 *1267:B1 0
6 *1273:A4 *1272:B1 5.34047e-06
7 *1273:A4 *368:8 0.000325512
8 *1273:A4 *368:36 0.000317994
9 *1273:A4 *381:27 0.000240183
10 *1264:A1 *1273:A4 3.7885e-05
11 *1264:A2 *1273:A4 9.74303e-05
12 *1268:A2 *1273:A4 0.000341532
13 *1268:B2 *1273:A4 3.11112e-05
14 *1268:C *1273:A4 4.10716e-05
15 *1271:A1 *1273:A4 0.000277589
16 *1271:A2 *1273:A4 0.00018553
17 *1389:A1 *1273:A4 0.000265455
18 *153:23 *1273:A4 0.000600914
*RES
1 *1272:ZN *1273:A4 25.072 
*END

*D_NET *181 0.00750535
*CONN
*I *1609:I I *D gf180mcu_fd_sc_mcu7t5v0__dlyb_1
*I *1273:ZN O *D gf180mcu_fd_sc_mcu7t5v0__nor4_1
*CAP
1 *1609:I 0.00171892
2 *1273:ZN 0.00171892
3 *1609:I *1448:I 7.96342e-05
4 *1609:I *1522:CLK 4.98252e-05
5 *1609:I *1552:CLK 0.00137137
6 *1609:I *1558:CLK 0.000879994
7 *1609:I *1649:I 0.000865238
8 *1609:I *316:25 0
9 *1609:I *316:42 0
10 *1609:I *365:10 0.000223084
11 *1609:I *365:23 6.69856e-05
12 *1609:I *380:8 0
13 *1609:I *415:12 0.000337769
14 *1552:RN *1609:I 0.000193597
*RES
1 *1273:ZN *1609:I 36.616 
*END

*D_NET *182 0.00344665
*CONN
*I *1276:A1 I *D gf180mcu_fd_sc_mcu7t5v0__and2_1
*I *1280:C I *D gf180mcu_fd_sc_mcu7t5v0__aoi211_1
*I *1274:ZN O *D gf180mcu_fd_sc_mcu7t5v0__oai22_1
*CAP
1 *1276:A1 0
2 *1280:C 0.00025563
3 *1274:ZN 0.000246053
4 *182:12 0.000501683
5 *1280:C *1276:A2 1.71326e-05
6 *1280:C *1280:B 0.000275826
7 *1280:C *1287:A2 0
8 *1280:C *282:8 0.000844759
9 *1280:C *335:20 2.541e-05
10 *182:12 *1240:I 0.00082771
11 *182:12 *1276:A2 0.000177252
12 *182:12 *1598:I 0.000143493
13 *182:12 *335:20 1.52319e-05
14 *1275:A2 *182:12 0.000116466
*RES
1 *1274:ZN *182:12 16.828 
2 *182:12 *1280:C 7.516 
3 *182:12 *1276:A1 4.5 
*END

*D_NET *183 0.0022883
*CONN
*I *1276:A2 I *D gf180mcu_fd_sc_mcu7t5v0__and2_1
*I *1275:ZN O *D gf180mcu_fd_sc_mcu7t5v0__nand2_1
*CAP
1 *1276:A2 0.000470444
2 *1275:ZN 0.000470444
3 *1276:A2 *1287:A1 0.00071374
4 *1276:A2 *1287:A2 9.92103e-06
5 *1276:A2 *1287:B 8.59785e-06
6 *1276:A2 *1292:A1 0.000114671
7 *1276:A2 *1598:I 8.23267e-05
8 *1276:A2 *1607:I 0
9 *1276:A2 *335:20 0
10 *1276:A2 *385:10 2.82894e-06
11 *1276:A2 *385:28 6.9711e-06
12 *1276:A2 *429:18 5.12872e-06
13 *1276:A2 *429:29 6.84196e-06
14 *1275:A2 *1276:A2 0.000202
15 *1280:C *1276:A2 1.71326e-05
16 *182:12 *1276:A2 0.000177252
*RES
1 *1275:ZN *1276:A2 23.616 
*END

*D_NET *184 0.0019981
*CONN
*I *1287:A1 I *D gf180mcu_fd_sc_mcu7t5v0__oai211_1
*I *1276:Z O *D gf180mcu_fd_sc_mcu7t5v0__and2_1
*CAP
1 *1287:A1 0.00052046
2 *1276:Z 0.00052046
3 *1287:A1 *1283:A2 0
4 *1287:A1 *1287:A2 0.000166662
5 *1287:A1 *1287:B 6.85667e-05
6 *1287:A1 *1287:C 8.21146e-06
7 *1287:A1 *1484:I 0
8 *1276:A2 *1287:A1 0.00071374
*RES
1 *1276:Z *1287:A1 22.472 
*END

*D_NET *185 0.00241448
*CONN
*I *1280:A1 I *D gf180mcu_fd_sc_mcu7t5v0__aoi211_1
*I *1277:ZN O *D gf180mcu_fd_sc_mcu7t5v0__nand2_1
*CAP
1 *1280:A1 0.000443949
2 *1277:ZN 0.000443949
3 *1280:A1 *1280:B 4.07478e-05
4 *1280:A1 *1427:A2 6.19587e-05
5 *1280:A1 *1481:I 1.01591e-05
6 *1280:A1 *1508:CLK 0.000683259
7 *1280:A1 *282:8 3.46538e-05
8 *1280:A1 *313:35 0.000225966
9 *1508:D *1280:A1 0.000400942
10 *168:14 *1280:A1 6.88928e-05
*RES
1 *1277:ZN *1280:A1 22.472 
*END

*D_NET *186 0.00375509
*CONN
*I *1280:A2 I *D gf180mcu_fd_sc_mcu7t5v0__aoi211_1
*I *1278:ZN O *D gf180mcu_fd_sc_mcu7t5v0__oai22_1
*CAP
1 *1280:A2 0.000377964
2 *1278:ZN 0.000377964
3 *1280:A2 *1242:I 0.00139545
4 *1280:A2 *1274:B2 0.000451187
5 *1280:A2 *1429:A3 0.000152316
6 *1280:A2 *1638:I 0.000112049
7 *1280:A2 *383:14 0.000162278
8 *1280:A2 *384:19 0.000725879
*RES
1 *1278:ZN *1280:A2 23.304 
*END

*D_NET *187 0.00334208
*CONN
*I *1280:B I *D gf180mcu_fd_sc_mcu7t5v0__aoi211_1
*I *1279:ZN O *D gf180mcu_fd_sc_mcu7t5v0__oai22_1
*CAP
1 *1280:B 0.000531543
2 *1279:ZN 0.000531543
3 *1280:B *1274:B2 4.34874e-05
4 *1280:B *1279:A2 0.000261312
5 *1280:B *1287:A2 2.25446e-05
6 *1280:B *1290:A1 0.000102989
7 *1280:B *1428:A1 0.000728662
8 *1280:B *1584:I 0.00011347
9 *1280:B *294:19 1.10694e-05
10 *1280:B *335:26 7.11788e-06
11 *1280:A1 *1280:B 4.07478e-05
12 *1280:C *1280:B 0.000275826
13 *1427:A1 *1280:B 0
14 *149:8 *1280:B 2.97128e-06
15 *167:31 *1280:B 0.0006688
*RES
1 *1279:ZN *1280:B 24.448 
*END

*D_NET *188 0.0031651
*CONN
*I *1287:A2 I *D gf180mcu_fd_sc_mcu7t5v0__oai211_1
*I *1280:ZN O *D gf180mcu_fd_sc_mcu7t5v0__aoi211_1
*CAP
1 *1287:A2 0.000786132
2 *1280:ZN 0.000786132
3 *1287:A2 *1283:A2 2.73715e-06
4 *1287:A2 *1289:B 1.12327e-05
5 *1287:A2 *1427:A2 8.56628e-05
6 *1287:A2 *1429:A3 0.000901213
7 *1274:B1 *1287:A2 4.4504e-06
8 *1275:A2 *1287:A2 0.000103788
9 *1276:A2 *1287:A2 9.92103e-06
10 *1280:B *1287:A2 2.25446e-05
11 *1280:C *1287:A2 0
12 *1287:A1 *1287:A2 0.000166662
13 *167:31 *1287:A2 0.000284625
*RES
1 *1280:ZN *1287:A2 15.968 
*END

*D_NET *189 0.00418793
*CONN
*I *1283:A1 I *D gf180mcu_fd_sc_mcu7t5v0__and2_1
*I *1288:B I *D gf180mcu_fd_sc_mcu7t5v0__oai21_1
*I *1281:ZN O *D gf180mcu_fd_sc_mcu7t5v0__aoi22_1
*CAP
1 *1283:A1 0.000172667
2 *1288:B 0
3 *1281:ZN 0.000634552
4 *189:10 0.000807219
5 *1283:A1 *1283:A2 0.000124533
6 *1283:A1 *1435:A1 0.000190584
7 *1283:A1 *429:29 2.24654e-05
8 *189:10 *1281:A2 0.000468003
9 *189:10 *1282:A2 0
10 *189:10 *1283:A2 4.07478e-05
11 *189:10 *1284:A2 0.00111831
12 *189:10 *1442:A2 3.92768e-05
13 *189:10 *1621:I 0
14 *189:10 *190:14 5.8294e-05
15 *189:10 *192:10 0.000101198
16 *189:10 *429:29 3.08566e-05
17 *189:10 *432:34 0.000113027
18 *1282:B2 *189:10 0.000266192
19 *1284:B2 *189:10 0
*RES
1 *1281:ZN *189:10 12.092 
2 *189:10 *1288:B 4.5 
3 *189:10 *1283:A1 6.58 
*END

*D_NET *190 0.00332
*CONN
*I *1283:A2 I *D gf180mcu_fd_sc_mcu7t5v0__and2_1
*I *1288:A1 I *D gf180mcu_fd_sc_mcu7t5v0__oai21_1
*I *1282:ZN O *D gf180mcu_fd_sc_mcu7t5v0__aoi22_1
*CAP
1 *1283:A2 0.000255252
2 *1288:A1 0
3 *1282:ZN 0.000310645
4 *190:14 0.000565897
5 *1283:A2 *1289:B 3.89916e-05
6 *1283:A2 *192:10 2.11015e-05
7 *190:14 *1282:B1 0.000406983
8 *190:14 *1285:B1 3.32153e-05
9 *190:14 *1607:I 0
10 *190:14 *1621:I 1.32185e-05
11 *190:14 *192:10 0.000126434
12 *190:14 *287:27 1.63622e-05
13 *190:14 *335:12 0.000361145
14 *190:14 *429:29 0.000248386
15 *1282:A1 *190:14 0.000256285
16 *1282:B2 *190:14 0.000419193
17 *1283:A1 *1283:A2 0.000124533
18 *1287:A1 *1283:A2 0
19 *1287:A2 *1283:A2 2.73715e-06
20 *1512:D *190:14 2.05781e-05
21 *189:10 *1283:A2 4.07478e-05
22 *189:10 *190:14 5.8294e-05
*RES
1 *1282:ZN *190:14 17.972 
2 *190:14 *1288:A1 4.5 
3 *190:14 *1283:A2 6.892 
*END

*D_NET *191 0.0011879
*CONN
*I *1287:B I *D gf180mcu_fd_sc_mcu7t5v0__oai211_1
*I *1283:Z O *D gf180mcu_fd_sc_mcu7t5v0__and2_1
*CAP
1 *1287:B 0.000155393
2 *1283:Z 0.000155393
3 *1287:B *1292:A1 1.823e-05
4 *1287:B *1607:I 0.000781715
5 *1276:A2 *1287:B 8.59785e-06
6 *1287:A1 *1287:B 6.85667e-05
*RES
1 *1283:Z *1287:B 19.976 
*END

*D_NET *192 0.00224464
*CONN
*I *1288:A2 I *D gf180mcu_fd_sc_mcu7t5v0__oai21_1
*I *1286:A1 I *D gf180mcu_fd_sc_mcu7t5v0__nor2_1
*I *1284:ZN O *D gf180mcu_fd_sc_mcu7t5v0__oai22_1
*CAP
1 *1288:A2 0
2 *1286:A1 0.000124848
3 *1284:ZN 0.000406252
4 *192:10 0.0005311
5 *1286:A1 *1292:A2 0.0001975
6 *1286:A1 *1607:I 0.000173247
7 *192:10 *1289:B 0.000110677
8 *1281:B2 *192:10 8.21146e-06
9 *1282:B2 *1286:A1 4.19394e-05
10 *1283:A2 *192:10 2.11015e-05
11 *1284:B2 *192:10 2.32529e-05
12 *1285:B2 *192:10 2.16279e-05
13 *1289:A1 *192:10 0
14 *145:6 *192:10 0
15 *148:25 *1286:A1 0.000322862
16 *148:25 *192:10 3.43925e-05
17 *189:10 *192:10 0.000101198
18 *190:14 *192:10 0.000126434
*RES
1 *1284:ZN *192:10 8.14 
2 *192:10 *1286:A1 16.308 
3 *192:10 *1288:A2 4.5 
*END

*D_NET *193 0.000653599
*CONN
*I *1286:A2 I *D gf180mcu_fd_sc_mcu7t5v0__nor2_1
*I *1285:ZN O *D gf180mcu_fd_sc_mcu7t5v0__oai22_1
*CAP
1 *1286:A2 0.000101603
2 *1285:ZN 0.000101603
3 *1286:A2 *1289:A2 0.000394381
4 *1289:A1 *1286:A2 5.60123e-05
*RES
1 *1285:ZN *1286:A2 10.456 
*END

*D_NET *194 0.000541864
*CONN
*I *1287:C I *D gf180mcu_fd_sc_mcu7t5v0__oai211_1
*I *1286:ZN O *D gf180mcu_fd_sc_mcu7t5v0__nor2_1
*CAP
1 *1287:C 0.000189645
2 *1286:ZN 0.000189645
3 *1287:C *1289:A2 0
4 *1287:C *1292:A2 8.88522e-06
5 *1287:C *1484:I 0.000145476
6 *1287:A1 *1287:C 8.21146e-06
*RES
1 *1286:ZN *1287:C 10.456 
*END

*D_NET *195 0.000903295
*CONN
*I *1292:A1 I *D gf180mcu_fd_sc_mcu7t5v0__aoi22_1
*I *1287:ZN O *D gf180mcu_fd_sc_mcu7t5v0__oai211_1
*CAP
1 *1292:A1 0.000213661
2 *1287:ZN 0.000213661
3 *1292:A1 *1292:B1 3.3698e-05
4 *1292:A1 *1481:I 4.18157e-05
5 *1292:A1 *1484:I 4.04718e-05
6 *1292:A1 *1607:I 0.000227088
7 *1292:A1 *385:10 0
8 *1276:A2 *1292:A1 0.000114671
9 *1287:B *1292:A1 1.823e-05
*RES
1 *1287:ZN *1292:A1 20.704 
*END

*D_NET *196 0.000800811
*CONN
*I *1289:B I *D gf180mcu_fd_sc_mcu7t5v0__oai21_1
*I *1288:ZN O *D gf180mcu_fd_sc_mcu7t5v0__oai21_1
*CAP
1 *1289:B 0.000310144
2 *1288:ZN 0.000310144
3 *1289:B *1292:A2 8.88522e-06
4 *1283:A2 *1289:B 3.89916e-05
5 *1287:A2 *1289:B 1.12327e-05
6 *148:25 *1289:B 1.07369e-05
7 *192:10 *1289:B 0.000110677
*RES
1 *1288:ZN *1289:B 11.184 
*END

*D_NET *197 0.00172786
*CONN
*I *1292:A2 I *D gf180mcu_fd_sc_mcu7t5v0__aoi22_1
*I *1289:ZN O *D gf180mcu_fd_sc_mcu7t5v0__oai21_1
*CAP
1 *1292:A2 0.000272724
2 *1289:ZN 0.000272724
3 *1292:A2 *1292:B2 1.35064e-05
4 *1292:A2 *1481:I 9.7618e-05
5 *1292:A2 *1607:I 0.000821159
6 *1286:A1 *1292:A2 0.0001975
7 *1287:C *1292:A2 8.88522e-06
8 *1289:B *1292:A2 8.88522e-06
9 *148:25 *1292:A2 3.48625e-05
*RES
1 *1289:ZN *1292:A2 21.016 
*END

*D_NET *198 0.00266707
*CONN
*I *1292:B1 I *D gf180mcu_fd_sc_mcu7t5v0__aoi22_1
*I *1290:ZN O *D gf180mcu_fd_sc_mcu7t5v0__nor4_1
*CAP
1 *1292:B1 0.000664712
2 *1290:ZN 0.000664712
3 *1292:B1 *1369:A2 3.57634e-06
4 *1292:B1 *1481:I 0.000710099
5 *1292:B1 *1509:CLK 8.69655e-05
6 *1292:B1 *1597:I 0
7 *1292:B1 *1637:I 0.000106908
8 *1292:B1 *385:10 2.91621e-05
9 *1292:A1 *1292:B1 3.3698e-05
10 *1527:RN *1292:B1 0.000367233
*RES
1 *1290:ZN *1292:B1 15.864 
*END

*D_NET *199 0.000600081
*CONN
*I *1292:B2 I *D gf180mcu_fd_sc_mcu7t5v0__aoi22_1
*I *1291:ZN O *D gf180mcu_fd_sc_mcu7t5v0__nor4_1
*CAP
1 *1292:B2 0.000100319
2 *1291:ZN 0.000100319
3 *1292:B2 *1481:I 1.39027e-05
4 *1292:A2 *1292:B2 1.35064e-05
5 *1527:RN *1292:B2 0.000337769
6 *1530:RN *1292:B2 3.42651e-05
*RES
1 *1291:ZN *1292:B2 10.144 
*END

*D_NET *200 0.00516858
*CONN
*I *1607:I I *D gf180mcu_fd_sc_mcu7t5v0__dlyb_1
*I *1292:ZN O *D gf180mcu_fd_sc_mcu7t5v0__aoi22_1
*CAP
1 *1607:I 0.000837993
2 *1292:ZN 0.000837993
3 *1607:I *1433:A2 0
4 *1607:I *1435:A1 0.000418233
5 *1607:I *1435:A4 1.13158e-05
6 *1607:I *1484:I 0
7 *1607:I *1598:I 0
8 *1607:I *1603:I 0
9 *1607:I *287:27 8.15769e-05
10 *1607:I *313:10 0.00082319
11 *1607:I *317:13 0
12 *1276:A2 *1607:I 0
13 *1282:B2 *1607:I 0
14 *1286:A1 *1607:I 0.000173247
15 *1287:B *1607:I 0.000781715
16 *1292:A1 *1607:I 0.000227088
17 *1292:A2 *1607:I 0.000821159
18 *1512:D *1607:I 0.000123485
19 *1527:RN *1607:I 1.23748e-05
20 *148:25 *1607:I 1.92092e-05
21 *190:14 *1607:I 0
*RES
1 *1292:ZN *1607:I 28.816 
*END

*D_NET *201 0.0142656
*CONN
*I *1622:I I *D gf180mcu_fd_sc_mcu7t5v0__dlyb_1
*I *1621:I I *D gf180mcu_fd_sc_mcu7t5v0__dlyb_1
*I *1293:Z O *D gf180mcu_fd_sc_mcu7t5v0__and2_1
*CAP
1 *1622:I 0
2 *1621:I 0.00152177
3 *1293:Z 0.000912533
4 *201:14 0.00243431
5 *1621:I *1282:A2 0.000113016
6 *1621:I *1299:A1 0.000103933
7 *1621:I *1442:A2 2.81086e-05
8 *1621:I *1515:CLK 0.000569964
9 *1621:I *1551:CLK 0.000269899
10 *1621:I *1608:I 0
11 *1621:I *1640:I 0.00256626
12 *1621:I *287:27 0.000509988
13 *1621:I *299:35 0
14 *1621:I *308:6 0.000113027
15 *1621:I *308:26 0.000487137
16 *1621:I *308:35 0.00221911
17 *1621:I *381:27 0
18 *1621:I *416:20 2.73715e-06
19 *201:14 *1248:I 1.23682e-05
20 *201:14 *1257:I 0
21 *201:14 *1295:A3 0.000413467
22 *201:14 *1301:A2 1.01702e-05
23 *201:14 *1302:A3 0.000152717
24 *201:14 *1395:A1 3.28258e-05
25 *201:14 *1566:CLK 9.60848e-05
26 *201:14 *1577:I 6.64318e-05
27 *201:14 *294:171 2.01852e-05
28 *201:14 *299:35 0
29 *201:14 *415:29 0.000158579
30 *201:14 *420:30 0
31 *1273:A2 *1621:I 0.000171637
32 *1282:A1 *1621:I 4.91818e-05
33 *1282:B2 *1621:I 0
34 *1514:D *1621:I 0
35 *1551:D *1621:I 0.000118194
36 *1551:D *201:14 0.000211657
37 *1552:RN *1621:I 6.69436e-05
38 *1572:I *201:14 3.60303e-05
39 *137:14 *201:14 0.00078415
40 *189:10 *1621:I 0
41 *190:14 *1621:I 1.32185e-05
*RES
1 *1293:Z *201:14 22.34 
2 *201:14 *1621:I 23.532 
3 *201:14 *1622:I 4.5 
*END

*D_NET *202 0.0039109
*CONN
*I *1299:A2 I *D gf180mcu_fd_sc_mcu7t5v0__xor2_1
*I *1294:ZN O *D gf180mcu_fd_sc_mcu7t5v0__nand2_1
*CAP
1 *1299:A2 0.000572549
2 *1294:ZN 0.000572549
3 *1299:A2 *1300:A1 0.00052527
4 *1299:A2 *1300:A3 0.00168871
5 *1299:A2 *299:35 0
6 *1299:A2 *299:48 0
7 *1299:A2 *316:25 1.40331e-05
8 *1299:A2 *316:42 0.000496136
9 *1299:A2 *318:6 2.04597e-06
10 *1299:A2 *318:19 3.95998e-05
*RES
1 *1294:ZN *1299:A2 25.28 
*END

*D_NET *203 0.00684903
*CONN
*I *1296:A2 I *D gf180mcu_fd_sc_mcu7t5v0__nor2_1
*I *1297:A2 I *D gf180mcu_fd_sc_mcu7t5v0__and2_1
*I *1391:A3 I *D gf180mcu_fd_sc_mcu7t5v0__nor3_1
*I *1295:ZN O *D gf180mcu_fd_sc_mcu7t5v0__nand4_1
*CAP
1 *1296:A2 0.000321553
2 *1297:A2 0.000119759
3 *1391:A3 0.00045027
4 *1295:ZN 0.000346032
5 *203:26 0.00054555
6 *1296:A2 *1298:A2 3.93494e-05
7 *1296:A2 *1298:A3 8.12645e-05
8 *1296:A2 *1444:I1 0
9 *1296:A2 *204:10 7.75876e-05
10 *1296:A2 *316:57 5.63044e-06
11 *1296:A2 *418:12 4.73045e-05
12 *1297:A2 *1298:A4 7.00046e-05
13 *1297:A2 *316:57 5.63044e-06
14 *1297:A2 *418:12 1.91996e-05
15 *1391:A3 *1228:I 0.000827626
16 *1391:A3 *1579:I 0
17 *1391:A3 *261:8 3.32327e-05
18 *1391:A3 *421:37 0.00111366
19 *203:26 *1298:A2 1.99013e-05
20 *203:26 *1298:A3 0.000116476
21 *203:26 *1447:I 9.42233e-05
22 *203:26 *319:29 0.000673265
23 *1297:A1 *1297:A2 0.000569953
24 *1391:A1 *203:26 0.000667744
25 *1553:D *1297:A2 0.000419276
26 *1572:I *1391:A3 5.12872e-06
27 *136:19 *203:26 0.000179413
*RES
1 *1295:ZN *1391:A3 13.68 
2 *1391:A3 *203:26 16.308 
3 *203:26 *1297:A2 6.684 
4 *203:26 *1296:A2 15.996 
*END

*D_NET *204 0.00160193
*CONN
*I *1298:A3 I *D gf180mcu_fd_sc_mcu7t5v0__nor4_1
*I *1403:A2 I *D gf180mcu_fd_sc_mcu7t5v0__nor2_1
*I *1296:ZN O *D gf180mcu_fd_sc_mcu7t5v0__nor2_1
*CAP
1 *1298:A3 8.91287e-05
2 *1403:A2 4.36081e-05
3 *1296:ZN 8.56295e-05
4 *204:10 0.000218366
5 *1403:A2 *418:12 0.000247057
6 *204:10 *418:12 1.23682e-05
7 *1296:A1 *204:10 0.000511067
8 *1296:A2 *1298:A3 8.12645e-05
9 *1296:A2 *204:10 7.75876e-05
10 *136:19 *1298:A3 0.000101151
11 *136:19 *204:10 1.823e-05
12 *203:26 *1298:A3 0.000116476
*RES
1 *1296:ZN *204:10 10.872 
2 *204:10 *1403:A2 9.728 
3 *204:10 *1298:A3 10.144 
*END

*D_NET *205 0.000713366
*CONN
*I *1298:A4 I *D gf180mcu_fd_sc_mcu7t5v0__nor4_1
*I *1297:Z O *D gf180mcu_fd_sc_mcu7t5v0__and2_1
*CAP
1 *1298:A4 0.000115573
2 *1297:Z 0.000115573
3 *1298:A4 *418:12 0.000146714
4 *1297:A2 *1298:A4 7.00046e-05
5 *1553:D *1298:A4 0.000265501
*RES
1 *1297:Z *1298:A4 10.456 
*END

*D_NET *206 0.002275
*CONN
*I *1300:A3 I *D gf180mcu_fd_sc_mcu7t5v0__nor3_1
*I *1299:Z O *D gf180mcu_fd_sc_mcu7t5v0__xor2_1
*CAP
1 *1300:A3 0.000274915
2 *1299:Z 0.000274915
3 *1300:A3 *1300:A1 3.646e-05
4 *1299:A2 *1300:A3 0.00168871
*RES
1 *1299:Z *1300:A3 22.472 
*END

*D_NET *207 0.00241974
*CONN
*I *1302:A3 I *D gf180mcu_fd_sc_mcu7t5v0__nor3_1
*I *1301:Z O *D gf180mcu_fd_sc_mcu7t5v0__xor2_1
*CAP
1 *1302:A3 0.000627572
2 *1301:Z 0.000627572
3 *1302:A3 *1248:I 5.49404e-05
4 *1302:A3 *1265:A2 1.23682e-05
5 *1302:A3 *1301:A2 3.4596e-05
6 *1302:A3 *1395:A1 4.9966e-05
7 *1302:A3 *1396:A3 5.469e-05
8 *1302:A3 *299:35 0.000805315
9 *1302:A3 *415:29 0
10 *1572:I *1302:A3 0
11 *201:14 *1302:A3 0.000152717
*RES
1 *1301:Z *1302:A3 23.616 
*END

*D_NET *208 0.00238852
*CONN
*I *1405:A2 I *D gf180mcu_fd_sc_mcu7t5v0__nand2_1
*I *1411:A1 I *D gf180mcu_fd_sc_mcu7t5v0__nor2_1
*I *1309:A1 I *D gf180mcu_fd_sc_mcu7t5v0__nand2_1
*I *1303:ZN O *D gf180mcu_fd_sc_mcu7t5v0__nor2_1
*CAP
1 *1405:A2 2.83875e-05
2 *1411:A1 6.66893e-05
3 *1309:A1 0.000204945
4 *1303:ZN 0.000127675
5 *208:10 0.000388413
6 *208:8 0.000272842
7 *1309:A1 *1253:I 0
8 *1309:A1 *1309:A2 2.27877e-05
9 *1309:A1 *1337:A2 0.000114669
10 *1309:A1 *233:24 1.94622e-05
11 *1405:A2 *1309:A2 0.00010924
12 *1405:A2 *1564:CLK 1.17531e-05
13 *1411:A1 *1309:A2 0.000435416
14 *1411:A1 *1337:A2 0.000340668
15 *1411:A1 *213:16 4.07478e-05
16 *1411:A1 *237:29 1.37392e-05
17 *208:8 *1405:A1 0.000128423
18 *208:8 *233:24 5.37528e-05
19 *208:10 *233:24 8.9048e-06
20 *208:10 *339:30 0
*RES
1 *1303:ZN *208:8 10.144 
2 *208:8 *208:10 0.52 
3 *208:10 *1309:A1 10.144 
4 *208:10 *1411:A1 10.352 
5 *208:8 *1405:A2 9.312 
*END

*D_NET *209 0.00678584
*CONN
*I *1340:A2 I *D gf180mcu_fd_sc_mcu7t5v0__nand2_1
*I *1412:A2 I *D gf180mcu_fd_sc_mcu7t5v0__and2_1
*I *1414:A1 I *D gf180mcu_fd_sc_mcu7t5v0__oai21_1
*I *1304:ZN O *D gf180mcu_fd_sc_mcu7t5v0__nor3_1
*CAP
1 *1340:A2 0.000129112
2 *1412:A2 0.00031256
3 *1414:A1 0
4 *1304:ZN 0.000894022
5 *209:16 0.000524752
6 *209:12 0.00123533
7 *1340:A2 *1645:I 0.00035443
8 *1340:A2 *408:21 0.000945405
9 *1412:A2 *1307:A2 4.07478e-05
10 *1412:A2 *1412:A1 0.000500761
11 *1412:A2 *1414:A2 1.12327e-05
12 *1412:A2 *1414:B 4.87048e-05
13 *1412:A2 *408:21 0
14 *209:12 *1415:A1 0.000247057
15 *209:12 *1419:A1 0.000164598
16 *209:12 *237:6 0.000113027
17 *209:12 *237:29 0.00076141
18 *209:12 *272:31 0
19 *209:12 *361:10 8.77825e-05
20 *209:16 *1415:A1 0.000214713
21 *209:16 *1419:A1 0.000150417
22 *1559:D *1412:A2 0
23 *1561:D *1412:A2 2.10549e-05
24 *1561:RN *209:12 2.87304e-05
*RES
1 *1304:ZN *209:12 16.176 
2 *209:12 *209:16 6.684 
3 *209:16 *1414:A1 4.5 
4 *209:16 *1412:A2 7.308 
5 *209:12 *1340:A2 11.6 
*END

*D_NET *210 0.00387836
*CONN
*I *1316:B I *D gf180mcu_fd_sc_mcu7t5v0__oai31_1
*I *1417:A1 I *D gf180mcu_fd_sc_mcu7t5v0__nor2_1
*I *1305:Z O *D gf180mcu_fd_sc_mcu7t5v0__or3_1
*CAP
1 *1316:B 0.000485535
2 *1417:A1 0.000363846
3 *1305:Z 7.55063e-05
4 *210:8 0.000924887
5 *1316:B *1251:I 6.12849e-05
6 *1316:B *1305:A3 5.0164e-05
7 *1316:B *1453:I 0
8 *1316:B *405:39 0.000125824
9 *1417:A1 *1418:A2 0.000105621
10 *1417:A1 *1420:B1 8.42301e-05
11 *1417:A1 *1453:I 0
12 *1417:A1 *1563:CLK 0.000410048
13 *1417:A1 *272:31 0.000231238
14 *1417:A1 *297:25 6.50747e-05
15 *1417:A1 *297:29 2.3744e-05
16 *210:8 *233:18 1.97347e-06
17 *210:8 *412:21 0.000158666
18 *160:12 *1316:B 5.71865e-05
19 *160:12 *1417:A1 0.000488923
20 *160:12 *210:8 2.63994e-05
21 *160:16 *1417:A1 0.000138205
*RES
1 *1305:Z *210:8 9.52 
2 *210:8 *1417:A1 13.16 
3 *210:8 *1316:B 13.16 
*END

*D_NET *211 0.00377675
*CONN
*I *1310:A3 I *D gf180mcu_fd_sc_mcu7t5v0__and4_1
*I *1306:ZN O *D gf180mcu_fd_sc_mcu7t5v0__nor3_1
*CAP
1 *1310:A3 0.000435444
2 *1306:ZN 0.000435444
3 *1310:A3 *1251:I 0.000519391
4 *1310:A3 *1305:A3 0.000161723
5 *1310:A3 *1306:A3 9.7618e-05
6 *1310:A3 *1310:A1 0.000337321
7 *1310:A3 *1313:B 1.36398e-06
8 *1310:A3 *1575:I 0.000202476
9 *1310:A3 *1646:I 6.95257e-05
10 *1310:A3 *218:10 0.000283521
11 *1310:A3 *312:16 0.000317564
12 *1310:A3 *405:39 0.000158227
13 *1310:A3 *412:21 0.000387124
14 *1310:A3 *413:18 0.000329258
15 *1310:A2 *1310:A3 4.07478e-05
*RES
1 *1306:ZN *1310:A3 25.072 
*END

*D_NET *212 0.00898352
*CONN
*I *1409:A1 I *D gf180mcu_fd_sc_mcu7t5v0__oai22_1
*I *1333:A1 I *D gf180mcu_fd_sc_mcu7t5v0__aoi211_1
*I *1307:ZN O *D gf180mcu_fd_sc_mcu7t5v0__nor2_1
*CAP
1 *1409:A1 0.000793943
2 *1333:A1 0
3 *1307:ZN 0.000852892
4 *212:12 0.00164684
5 *1409:A1 *1333:A2 3.22108e-05
6 *1409:A1 *1333:B 1.35522e-05
7 *1409:A1 *1334:A1 0.000103788
8 *1409:A1 *1338:C 0.000107648
9 *1409:A1 *1408:B1 1.71326e-05
10 *1409:A1 *1626:I 2.24654e-05
11 *1409:A1 *272:31 0.000193782
12 *1409:A1 *312:16 2.81522e-06
13 *1409:A1 *339:30 0.00194204
14 *1409:A1 *339:32 0.000199998
15 *1409:A1 *373:10 0
16 *212:12 *1307:A2 1.12327e-05
17 *212:12 *1334:A1 0.000217494
18 *212:12 *1334:B 1.01702e-05
19 *212:12 *1414:A2 2.93608e-05
20 *212:12 *296:8 0.000240359
21 *212:12 *312:16 0.002107
22 *212:12 *361:51 0
23 *212:12 *408:21 1.23682e-05
24 *1408:A1 *1409:A1 3.10248e-05
25 *1563:D *1409:A1 0.000395417
*RES
1 *1307:ZN *212:12 13.236 
2 *212:12 *1333:A1 4.5 
3 *212:12 *1409:A1 21.3 
*END

*D_NET *213 0.00898631
*CONN
*I *1309:A2 I *D gf180mcu_fd_sc_mcu7t5v0__nand2_1
*I *1317:A1 I *D gf180mcu_fd_sc_mcu7t5v0__nor2_1
*I *1315:A2 I *D gf180mcu_fd_sc_mcu7t5v0__nor3_1
*I *1310:A4 I *D gf180mcu_fd_sc_mcu7t5v0__and4_1
*I *1308:Z O *D gf180mcu_fd_sc_mcu7t5v0__or3_1
*CAP
1 *1309:A2 0.000229036
2 *1317:A1 0
3 *1315:A2 0.000234762
4 *1310:A4 0
5 *1308:Z 0.000572612
6 *213:33 0.000439539
7 *213:20 0.000711969
8 *213:16 0.00130884
9 *1309:A2 *1337:A2 1.62468e-05
10 *1309:A2 *1564:CLK 2.98738e-05
11 *1315:A2 *1315:A1 0.000352347
12 *1315:A2 *1317:A2 0.0002471
13 *1315:A2 *1328:A2 0.000151966
14 *1315:A2 *1646:I 0
15 *1315:A2 *1665:I 3.20057e-06
16 *1315:A2 *217:16 0.000247057
17 *1315:A2 *220:8 6.53438e-05
18 *213:16 *1564:CLK 2.4956e-05
19 *213:16 *237:29 0.000348393
20 *213:16 *361:22 8.58341e-05
21 *213:16 *409:8 0
22 *213:20 *1252:I 2.79795e-05
23 *213:20 *1418:A2 0.000775364
24 *213:20 *1420:B1 0.00100207
25 *213:20 *1453:I 0.000802764
26 *213:20 *233:18 0.000477072
27 *213:33 *1317:A2 5.89368e-05
28 *213:33 *1328:A2 7.60693e-05
29 *213:33 *1453:I 8.87924e-05
30 *1303:A1 *213:16 0
31 *1309:A1 *1309:A2 2.27877e-05
32 *1405:A2 *1309:A2 0.00010924
33 *1411:A1 *1309:A2 0.000435416
34 *1411:A1 *213:16 4.07478e-05
*RES
1 *1308:Z *213:16 17.244 
2 *213:16 *213:20 12.508 
3 *213:20 *1310:A4 9 
4 *213:20 *213:33 6.372 
5 *213:33 *1315:A2 16.62 
6 *213:33 *1317:A1 4.5 
7 *213:16 *1309:A2 6.788 
*END

*D_NET *214 0.00327314
*CONN
*I *1333:B I *D gf180mcu_fd_sc_mcu7t5v0__aoi211_1
*I *1334:A2 I *D gf180mcu_fd_sc_mcu7t5v0__aoi21_1
*I *1338:B I *D gf180mcu_fd_sc_mcu7t5v0__aoi211_1
*I *1309:ZN O *D gf180mcu_fd_sc_mcu7t5v0__nand2_1
*CAP
1 *1333:B 0.00026213
2 *1334:A2 0
3 *1338:B 0.000380807
4 *1309:ZN 0.000117468
5 *214:10 0.00045428
6 *214:8 0.000453071
7 *1333:B *1334:A1 2.19883e-05
8 *1333:B *1334:B 0.00011246
9 *1333:B *1659:I 3.99399e-06
10 *1333:B *361:51 0.000194026
11 *1338:B *1253:I 3.75594e-05
12 *1338:B *1338:C 8.77606e-06
13 *1338:B *1339:A2 0.000194511
14 *1338:B *1418:A2 0
15 *1338:B *233:24 1.13256e-05
16 *1338:B *296:38 2.93608e-05
17 *1338:B *409:21 0.000108119
18 *214:8 *1253:I 4.26493e-06
19 *214:8 *1337:A1 0.000428923
20 *214:8 *233:24 2.61186e-05
21 *214:10 *1253:I 2.84715e-05
22 *214:10 *1337:A1 0.000343529
23 *214:10 *233:24 3.84068e-05
24 *1409:A1 *1333:B 1.35522e-05
*RES
1 *1309:ZN *214:8 10.352 
2 *214:8 *214:10 1.352 
3 *214:10 *1338:B 11.912 
4 *214:10 *1334:A2 9 
5 *214:8 *1333:B 11.392 
*END

*D_NET *215 0.000532463
*CONN
*I *1316:A1 I *D gf180mcu_fd_sc_mcu7t5v0__oai31_1
*I *1310:Z O *D gf180mcu_fd_sc_mcu7t5v0__and4_1
*CAP
1 *1316:A1 0.00012613
2 *1310:Z 0.00012613
3 *1316:A1 *1317:A2 0.000148768
4 *1316:A1 *1453:I 3.4596e-05
5 *1316:A1 *1646:I 9.6838e-05
*RES
1 *1310:Z *1316:A1 10.456 
*END

*D_NET *216 0.00214729
*CONN
*I *1336:A1 I *D gf180mcu_fd_sc_mcu7t5v0__nor2_1
*I *1410:A3 I *D gf180mcu_fd_sc_mcu7t5v0__oai32_1
*I *1312:A3 I *D gf180mcu_fd_sc_mcu7t5v0__nor3_1
*I *1311:ZN O *D gf180mcu_fd_sc_mcu7t5v0__nand2_1
*CAP
1 *1336:A1 0
2 *1410:A3 0.000174657
3 *1312:A3 0.00031324
4 *1311:ZN 0.000200679
5 *216:24 0.000287219
6 *1312:A3 *1311:A1 2.82894e-06
7 *1312:A3 *1335:A1 3.74622e-05
8 *1312:A3 *1413:A1 0
9 *1312:A3 *1421:A2 0.000256285
10 *1312:A3 *1620:I 0.000256285
11 *1312:A3 *217:16 3.2031e-05
12 *216:24 *1336:A2 2.24654e-05
13 *216:24 *237:6 0.000146714
14 *1410:A2 *1410:A3 0.000156319
15 *1410:A2 *216:24 0.000215244
16 *159:6 *1410:A3 0
17 *159:6 *216:24 0
18 *159:12 *1312:A3 4.58667e-05
*RES
1 *1311:ZN *1312:A3 20.08 
2 *1312:A3 *216:24 6.06 
3 *216:24 *1410:A3 5.956 
4 *216:24 *1336:A1 4.5 
*END

*D_NET *217 0.00899155
*CONN
*I *1316:A2 I *D gf180mcu_fd_sc_mcu7t5v0__oai31_1
*I *1317:A2 I *D gf180mcu_fd_sc_mcu7t5v0__nor2_1
*I *1312:ZN O *D gf180mcu_fd_sc_mcu7t5v0__nor3_1
*CAP
1 *1316:A2 0
2 *1317:A2 0.000228113
3 *1312:ZN 0.0012643
4 *217:16 0.00149242
5 *1317:A2 *1315:A1 3.52832e-05
6 *1317:A2 *1328:A2 1.32276e-05
7 *1317:A2 *1453:I 0.000263725
8 *1317:A2 *1646:I 1.81504e-05
9 *217:16 *1311:A1 0
10 *217:16 *1314:A2 0.00149614
11 *217:16 *1335:A1 0.000271764
12 *217:16 *1406:A1 2.11493e-05
13 *217:16 *1406:A2 3.74093e-05
14 *217:16 *1421:A2 2.00981e-05
15 *217:16 *1444:I0 2.76367e-05
16 *217:16 *1562:CLK 0
17 *217:16 *1565:CLK 6.64873e-05
18 *217:16 *1620:I 0
19 *217:16 *1646:I 0
20 *217:16 *220:8 0.000440825
21 *217:16 *311:36 0.000375216
22 *217:16 *405:37 2.73594e-05
23 *1312:A3 *217:16 3.2031e-05
24 *1315:A2 *1317:A2 0.0002471
25 *1315:A2 *217:16 0.000247057
26 *1316:A1 *1317:A2 0.000148768
27 *1562:D *217:16 0.00215835
28 *213:33 *1317:A2 5.89368e-05
*RES
1 *1312:ZN *217:16 28.892 
2 *217:16 *1317:A2 16.412 
3 *217:16 *1316:A2 4.5 
*END

*D_NET *218 0.00533223
*CONN
*I *1315:A3 I *D gf180mcu_fd_sc_mcu7t5v0__nor3_1
*I *1314:A2 I *D gf180mcu_fd_sc_mcu7t5v0__nor2_1
*I *1313:ZN O *D gf180mcu_fd_sc_mcu7t5v0__oai31_1
*CAP
1 *1315:A3 8.84375e-05
2 *1314:A2 0.000179254
3 *1313:ZN 0.000274436
4 *218:10 0.000542128
5 *1314:A2 *1646:I 5.47431e-06
6 *1314:A2 *405:37 0.000540662
7 *1315:A3 *1315:A1 0.000131739
8 *1315:A3 *312:16 0.000307657
9 *218:10 *1313:A3 2.95162e-05
10 *218:10 *1313:B 6.95118e-05
11 *218:10 *1315:A1 6.11661e-05
12 *218:10 *1575:I 1.20974e-05
13 *218:10 *312:16 0.00106292
14 *218:10 *405:39 0.000247574
15 *1310:A3 *218:10 0.000283521
16 *217:16 *1314:A2 0.00149614
*RES
1 *1313:ZN *218:10 12.952 
2 *218:10 *1314:A2 13.056 
3 *218:10 *1315:A3 10.248 
*END

*D_NET *219 0.00769566
*CONN
*I *1406:A1 I *D gf180mcu_fd_sc_mcu7t5v0__and2_1
*I *1620:I I *D gf180mcu_fd_sc_mcu7t5v0__dlyb_1
*I *1314:ZN O *D gf180mcu_fd_sc_mcu7t5v0__nor2_1
*CAP
1 *1406:A1 0.000496964
2 *1620:I 0.000962836
3 *1314:ZN 0
4 *219:6 0.0014598
5 *1406:A1 *1311:A1 1.823e-05
6 *1406:A1 *1406:A2 1.71326e-05
7 *1406:A1 *1444:I0 8.96201e-05
8 *1406:A1 *1562:CLK 0.000587924
9 *1406:A1 *311:36 3.41371e-05
10 *1406:A1 *405:10 0.000517553
11 *1620:I *1250:I 7.16355e-05
12 *1620:I *1311:A1 0.000826844
13 *1620:I *1421:A2 0.000160384
14 *1620:I *1569:CLK 0.000370356
15 *1620:I *1623:I 1.32276e-05
16 *1620:I *1624:I 0.000500761
17 *1620:I *1631:I 0.000306159
18 *1620:I *311:36 9.74378e-05
19 *1620:I *334:8 0
20 *1620:I *406:36 5.77576e-05
21 *1312:A3 *1620:I 0.000256285
22 *1410:B2 *1620:I 0.000194511
23 *1562:D *1406:A1 8.86782e-05
24 *1562:D *1620:I 0.000546284
25 *217:16 *1406:A1 2.11493e-05
26 *217:16 *1620:I 0
*RES
1 *1314:ZN *219:6 9 
2 *219:6 *1620:I 21.48 
3 *219:6 *1406:A1 15.032 
*END

*D_NET *220 0.00359267
*CONN
*I *1316:A3 I *D gf180mcu_fd_sc_mcu7t5v0__oai31_1
*I *1328:A2 I *D gf180mcu_fd_sc_mcu7t5v0__nor2_1
*I *1315:ZN O *D gf180mcu_fd_sc_mcu7t5v0__nor3_1
*CAP
1 *1316:A3 1.8183e-05
2 *1328:A2 0.000441932
3 *1315:ZN 0.000205968
4 *220:8 0.000666083
5 *1328:A2 *1319:B 7.02352e-05
6 *1328:A2 *1321:A1 0.00011929
7 *1328:A2 *1321:A2 5.5133e-05
8 *1328:A2 *1329:A1 1.54791e-05
9 *1328:A2 *1406:A2 3.75676e-05
10 *1328:A2 *1453:I 6.18411e-06
11 *1328:A2 *1548:CLK 0
12 *1328:A2 *1646:I 0
13 *1328:A2 *1665:I 5.13977e-05
14 *1328:A2 *222:10 0.000500761
15 *220:8 *1406:A2 0.000144656
16 *1315:A2 *1328:A2 0.000151966
17 *1315:A2 *220:8 6.53438e-05
18 *1317:A2 *1328:A2 1.32276e-05
19 *1323:A1 *1328:A2 0.00049943
20 *1563:RN *1328:A2 1.29379e-05
21 *213:33 *1328:A2 7.60693e-05
22 *217:16 *220:8 0.000440825
*RES
1 *1315:ZN *220:8 6.788 
2 *220:8 *1328:A2 10.012 
3 *220:8 *1316:A3 4.812 
*END

*D_NET *221 0.00082216
*CONN
*I *1665:I I *D gf180mcu_fd_sc_mcu7t5v0__clkbuf_1
*I *1316:ZN O *D gf180mcu_fd_sc_mcu7t5v0__oai31_1
*CAP
1 *1665:I 0.000302015
2 *1316:ZN 0.000302015
3 *1665:I *1315:A1 0
4 *1665:I *1320:A1 4.41041e-05
5 *1665:I *1322:B1 0
6 *1665:I *1406:A2 0.000113027
7 *1665:I *1548:CLK 6.40114e-06
8 *1665:I *312:16 0
9 *1315:A2 *1665:I 3.20057e-06
10 *1328:A2 *1665:I 5.13977e-05
*RES
1 *1316:ZN *1665:I 20.288 
*END

*D_NET *222 0.00448814
*CONN
*I *1319:A1 I *D gf180mcu_fd_sc_mcu7t5v0__aoi21_1
*I *1326:A2 I *D gf180mcu_fd_sc_mcu7t5v0__oai22_1
*I *1321:A1 I *D gf180mcu_fd_sc_mcu7t5v0__nand2_1
*I *1317:ZN O *D gf180mcu_fd_sc_mcu7t5v0__nor2_1
*CAP
1 *1319:A1 3.11399e-05
2 *1326:A2 0.000239806
3 *1321:A1 0.000175251
4 *1317:ZN 0.000245589
5 *222:23 0.000415097
6 *222:10 0.000564992
7 *1319:A1 *1318:A3 5.47431e-06
8 *1321:A1 *1321:A2 4.07478e-05
9 *1321:A1 *1322:B1 5.13977e-05
10 *1321:A1 *1548:CLK 8.7794e-05
11 *1321:A1 *321:6 0
12 *1326:A2 *1318:A3 0.000437162
13 *1326:A2 *1319:B 0.000103788
14 *1326:A2 *1326:A1 2.89755e-05
15 *1326:A2 *1548:CLK 0.000735218
16 *1326:A2 *321:17 0.00010319
17 *222:10 *1319:B 0.000116466
18 *222:10 *1329:A1 0
19 *222:10 *1453:I 5.60123e-05
20 *222:10 *1646:I 0
21 *222:10 *227:21 0
22 *222:23 *1319:B 0.00042999
23 *222:23 *1322:B1 0
24 *1328:A2 *1321:A1 0.00011929
25 *1328:A2 *222:10 0.000500761
*RES
1 *1317:ZN *222:10 11.496 
2 *222:10 *1321:A1 10.976 
3 *222:10 *222:23 5.852 
4 *222:23 *1326:A2 8.244 
5 *222:23 *1319:A1 4.812 
*END

*D_NET *223 0.00206895
*CONN
*I *1319:A2 I *D gf180mcu_fd_sc_mcu7t5v0__aoi21_1
*I *1320:A2 I *D gf180mcu_fd_sc_mcu7t5v0__nor2_1
*I *1318:ZN O *D gf180mcu_fd_sc_mcu7t5v0__nand3_1
*CAP
1 *1319:A2 0
2 *1320:A2 0.000134956
3 *1318:ZN 0.000143863
4 *223:6 0.000278819
5 *1320:A2 *1322:A2 1.23682e-05
6 *1320:A2 *1322:B1 0.000364104
7 *1320:A2 *224:8 0
8 *1320:A2 *300:8 0.000125251
9 *1320:A2 *321:6 3.4596e-05
10 *1320:A2 *321:17 0.000419276
11 *223:6 *1318:A2 0.000122244
12 *223:6 *1322:A2 2.43266e-05
13 *223:6 *1324:B 0
14 *223:6 *1325:A1 0
15 *223:6 *321:17 0.00040915
*RES
1 *1318:ZN *223:6 6.268 
2 *223:6 *1320:A2 15.58 
3 *223:6 *1319:A2 4.5 
*END

*D_NET *224 0.00158707
*CONN
*I *1325:A1 I *D gf180mcu_fd_sc_mcu7t5v0__nor2_1
*I *1322:A2 I *D gf180mcu_fd_sc_mcu7t5v0__oai22_1
*I *1319:ZN O *D gf180mcu_fd_sc_mcu7t5v0__aoi21_1
*CAP
1 *1325:A1 0.000208236
2 *1322:A2 0.000238046
3 *1319:ZN 0.000216981
4 *224:8 0.000663262
5 *1322:A2 *300:8 0.000116578
6 *1322:A2 *300:10 4.67771e-06
7 *1325:A1 *1318:A1 3.01776e-05
8 *1325:A1 *1502:I 0
9 *224:8 *1318:A1 7.24199e-05
10 *224:8 *1322:B1 0
11 *224:8 *1548:CLK 0
12 *224:8 *227:21 0
13 *224:8 *227:36 0
14 *1320:A2 *1322:A2 1.23682e-05
15 *1320:A2 *224:8 0
16 *223:6 *1322:A2 2.43266e-05
17 *223:6 *1325:A1 0
*RES
1 *1319:ZN *224:8 10.56 
2 *224:8 *1322:A2 10.976 
3 *224:8 *1325:A1 10.248 
*END

*D_NET *225 0.00245839
*CONN
*I *1321:A2 I *D gf180mcu_fd_sc_mcu7t5v0__nand2_1
*I *1406:A2 I *D gf180mcu_fd_sc_mcu7t5v0__and2_1
*I *1320:ZN O *D gf180mcu_fd_sc_mcu7t5v0__nor2_1
*CAP
1 *1321:A2 6.15858e-05
2 *1406:A2 0.000524726
3 *1320:ZN 0.000401528
4 *225:8 0.00098784
5 *1406:A2 *1229:I 0
6 *1406:A2 *1320:A1 0
7 *1406:A2 *1554:CLK 0
8 *1406:A2 *1562:CLK 7.87395e-06
9 *225:8 *1320:A1 2.91591e-05
10 *1321:A1 *1321:A2 4.07478e-05
11 *1328:A2 *1321:A2 5.5133e-05
12 *1328:A2 *1406:A2 3.75676e-05
13 *1406:A1 *1406:A2 1.71326e-05
14 *1665:I *1406:A2 0.000113027
15 *217:16 *1406:A2 3.74093e-05
16 *220:8 *1406:A2 0.000144656
*RES
1 *1320:ZN *225:8 6.58 
2 *225:8 *1406:A2 8.452 
3 *225:8 *1321:A2 5.228 
*END

*D_NET *226 0.00141956
*CONN
*I *1322:B1 I *D gf180mcu_fd_sc_mcu7t5v0__oai22_1
*I *1321:ZN O *D gf180mcu_fd_sc_mcu7t5v0__nand2_1
*CAP
1 *1322:B1 0.000136434
2 *1321:ZN 0.000136434
3 *1322:B1 *1548:CLK 0.00073119
4 *1320:A2 *1322:B1 0.000364104
5 *1321:A1 *1322:B1 5.13977e-05
6 *1665:I *1322:B1 0
7 *222:23 *1322:B1 0
8 *224:8 *1322:B1 0
*RES
1 *1321:ZN *1322:B1 20.496 
*END

*D_NET *227 0.0049539
*CONN
*I *1324:A2 I *D gf180mcu_fd_sc_mcu7t5v0__aoi21_1
*I *1327:A2 I *D gf180mcu_fd_sc_mcu7t5v0__aoi21_1
*I *1326:B1 I *D gf180mcu_fd_sc_mcu7t5v0__oai22_1
*I *1329:A1 I *D gf180mcu_fd_sc_mcu7t5v0__nor2_1
*I *1323:ZN O *D gf180mcu_fd_sc_mcu7t5v0__nor2_1
*CAP
1 *1324:A2 3.6366e-05
2 *1327:A2 0.000145146
3 *1326:B1 4.18229e-05
4 *1329:A1 0.000579829
5 *1323:ZN 4.12197e-05
6 *227:36 0.000340947
7 *227:21 0.000501337
8 *227:8 0.000921128
9 *1326:B1 *1318:A2 0.000260055
10 *1327:A2 *1325:A2 2.92613e-05
11 *1327:A2 *1326:B2 2.46717e-05
12 *1327:A2 *1327:A1 0.000159517
13 *1329:A1 *1318:A3 0
14 *1329:A1 *1328:A1 0
15 *1329:A1 *1329:A2 0.00042386
16 *1329:A1 *1501:I 0
17 *1329:A1 *1646:I 6.29225e-05
18 *1329:A1 *412:8 4.41041e-05
19 *227:8 *1548:CLK 6.84289e-06
20 *227:8 *321:25 4.07478e-05
21 *227:21 *1318:A2 8.48683e-06
22 *227:21 *1318:A3 0.000189704
23 *227:21 *1328:A1 0
24 *227:21 *321:25 0.000293451
25 *227:21 *390:8 0
26 *227:36 *1318:A1 6.17457e-05
27 *227:36 *1318:A2 2.94754e-05
28 *227:36 *1325:A2 5.31237e-05
29 *227:36 *1326:B2 1.71326e-05
30 *227:36 *391:12 1.78466e-05
31 *1323:A1 *227:8 0.000188403
32 *1328:A2 *1329:A1 1.54791e-05
33 *1547:D *1329:A1 0.000419276
34 *222:10 *1329:A1 0
35 *222:10 *227:21 0
36 *224:8 *227:21 0
37 *224:8 *227:36 0
*RES
1 *1323:ZN *227:8 9.52 
2 *227:8 *1329:A1 14.616 
3 *227:8 *227:21 2.808 
4 *227:21 *1326:B1 9.728 
5 *227:21 *227:36 6.372 
6 *227:36 *1327:A2 5.852 
7 *227:36 *1324:A2 4.812 
*END

*D_NET *228 0.000648269
*CONN
*I *1325:A2 I *D gf180mcu_fd_sc_mcu7t5v0__nor2_1
*I *1324:ZN O *D gf180mcu_fd_sc_mcu7t5v0__aoi21_1
*CAP
1 *1325:A2 0.000198393
2 *1324:ZN 0.000198393
3 *1325:A2 *1318:A2 0
4 *1325:A2 *1324:B 0.000169099
5 *1325:A2 *1502:I 0
6 *1327:A2 *1325:A2 2.92613e-05
7 *227:36 *1325:A2 5.31237e-05
*RES
1 *1324:ZN *1325:A2 10.872 
*END

*D_NET *229 0.000455107
*CONN
*I *1327:B I *D gf180mcu_fd_sc_mcu7t5v0__aoi21_1
*I *1326:ZN O *D gf180mcu_fd_sc_mcu7t5v0__oai22_1
*CAP
1 *1327:B 0.000182836
2 *1326:ZN 0.000182836
3 *1327:B *1326:A1 0
4 *1327:B *1327:A1 5.60123e-05
5 *1327:B *1548:CLK 3.34231e-05
*RES
1 *1326:ZN *1327:B 10.56 
*END

*D_NET *230 0.00112006
*CONN
*I *1329:A2 I *D gf180mcu_fd_sc_mcu7t5v0__nor2_1
*I *1328:ZN O *D gf180mcu_fd_sc_mcu7t5v0__nor2_1
*CAP
1 *1329:A2 0.000215348
2 *1328:ZN 0.000215348
3 *1329:A2 *1318:A3 0
4 *1329:A2 *1328:A1 0.000265501
5 *1329:A2 *390:23 0
6 *1329:A1 *1329:A2 0.00042386
7 *1547:RN *1329:A2 0
*RES
1 *1328:ZN *1329:A2 11.808 
*END

*D_NET *231 0.00198361
*CONN
*I *1332:A1 I *D gf180mcu_fd_sc_mcu7t5v0__nand2_1
*I *1330:ZN O *D gf180mcu_fd_sc_mcu7t5v0__nor4_1
*CAP
1 *1332:A1 0.000206092
2 *1330:ZN 0.000206092
3 *1332:A1 *1332:A2 1.5115e-05
4 *1332:A1 *398:27 0.000345199
5 *1332:A1 *398:44 0.000601538
6 *144:25 *1332:A1 0.000264374
7 *144:41 *1332:A1 0.000345199
*RES
1 *1330:ZN *1332:A1 12.328 
*END

*D_NET *232 0.00184663
*CONN
*I *1332:A2 I *D gf180mcu_fd_sc_mcu7t5v0__nand2_1
*I *1331:ZN O *D gf180mcu_fd_sc_mcu7t5v0__nor4_1
*CAP
1 *1332:A2 0.000562986
2 *1331:ZN 0.000562986
3 *1332:A2 *1330:A4 0.000437347
4 *1332:A2 *1346:B 5.90026e-05
5 *1332:A2 *311:26 0
6 *1332:A2 *311:36 2.36218e-05
7 *1332:A2 *345:6 1.32276e-05
8 *1332:A2 *345:10 6.75681e-05
9 *1332:A2 *398:27 1.37902e-05
10 *1332:A2 *398:44 9.09856e-05
11 *1332:A1 *1332:A2 1.5115e-05
12 *144:25 *1332:A2 0
*RES
1 *1331:ZN *1332:A2 13.888 
*END

*D_NET *233 0.0184931
*CONN
*I *1417:A2 I *D gf180mcu_fd_sc_mcu7t5v0__nor2_1
*I *1333:A2 I *D gf180mcu_fd_sc_mcu7t5v0__aoi211_1
*I *1338:A2 I *D gf180mcu_fd_sc_mcu7t5v0__aoi211_1
*I *1332:ZN O *D gf180mcu_fd_sc_mcu7t5v0__nand2_1
*CAP
1 *1417:A2 0
2 *1333:A2 0.000157671
3 *1338:A2 0
4 *1332:ZN 0.00291166
5 *233:24 0.000737069
6 *233:18 0.00349106
7 *1333:A2 *1338:C 0.000262946
8 *1333:A2 *1546:CLK 1.23331e-05
9 *1333:A2 *1664:I 0.000147623
10 *1333:A2 *312:16 0.000205191
11 *233:18 *1252:I 0.000129992
12 *233:18 *1303:A2 9.74919e-05
13 *233:18 *1305:A3 6.91919e-05
14 *233:18 *1310:A1 0.000105345
15 *233:18 *1313:A1 6.64873e-05
16 *233:18 *1313:A2 3.69721e-06
17 *233:18 *1313:A3 0
18 *233:18 *1313:B 0.000534736
19 *233:18 *1349:A2 2.13874e-05
20 *233:18 *1418:A2 7.36271e-05
21 *233:18 *1518:CLK 0.000462993
22 *233:18 *1520:CLK 8.41771e-05
23 *233:18 *1547:CLK 0.000802158
24 *233:18 *1623:I 1.1914e-05
25 *233:18 *294:131 2.22419e-05
26 *233:18 *310:22 0.000507897
27 *233:18 *311:36 0.000344871
28 *233:18 *323:6 0.000214903
29 *233:18 *323:12 0.000138566
30 *233:18 *346:12 6.57139e-05
31 *233:18 *411:19 6.33882e-05
32 *233:18 *412:21 7.34682e-05
33 *233:18 *412:23 1.81425e-05
34 *233:24 *1303:A2 8.82081e-06
35 *233:24 *1418:A2 0.00225742
36 *233:24 *1664:I 0.000876213
37 *233:24 *312:16 0.000866996
38 *233:24 *340:17 1.19766e-05
39 *1309:A1 *233:24 1.94622e-05
40 *1310:A2 *233:18 2.39156e-06
41 *1338:B *233:24 1.13256e-05
42 *1409:A1 *1333:A2 3.22108e-05
43 *1520:D *233:18 0.000256274
44 *1562:RN *233:18 0.00164763
45 *144:25 *233:18 3.18325e-05
46 *160:12 *233:18 2.63994e-05
47 *208:8 *233:24 5.37528e-05
48 *208:10 *233:24 8.9048e-06
49 *210:8 *233:18 1.97347e-06
50 *213:20 *233:18 0.000477072
51 *214:8 *233:24 2.61186e-05
52 *214:10 *233:24 3.84068e-05
*RES
1 *1332:ZN *233:18 37.496 
2 *233:18 *233:24 13.028 
3 *233:24 *1338:A2 4.5 
4 *233:24 *1333:A2 15.06 
5 *233:18 *1417:A2 9 
*END

*D_NET *234 0.00063548
*CONN
*I *1334:B I *D gf180mcu_fd_sc_mcu7t5v0__aoi21_1
*I *1333:ZN O *D gf180mcu_fd_sc_mcu7t5v0__aoi211_1
*CAP
1 *1334:B 8.70771e-05
2 *1333:ZN 8.70771e-05
3 *1334:B *1334:A1 0.000325477
4 *1334:B *361:51 1.32185e-05
5 *1333:B *1334:B 0.00011246
6 *212:12 *1334:B 1.01702e-05
*RES
1 *1333:ZN *1334:B 10.144 
*END

*D_NET *235 0.00147546
*CONN
*I *1337:A1 I *D gf180mcu_fd_sc_mcu7t5v0__nor2_1
*I *1334:ZN O *D gf180mcu_fd_sc_mcu7t5v0__aoi21_1
*CAP
1 *1337:A1 0.000229855
2 *1334:ZN 0.000229855
3 *1337:A1 *1253:I 0.00011871
4 *1337:A1 *1337:A2 7.54092e-05
5 *1337:A1 *361:51 4.91818e-05
6 *214:8 *1337:A1 0.000428923
7 *214:10 *1337:A1 0.000343529
*RES
1 *1334:ZN *1337:A1 20.704 
*END

*D_NET *236 0.000881207
*CONN
*I *1336:A2 I *D gf180mcu_fd_sc_mcu7t5v0__nor2_1
*I *1335:Z O *D gf180mcu_fd_sc_mcu7t5v0__xor2_1
*CAP
1 *1336:A2 0.000240887
2 *1335:Z 0.000240887
3 *1336:A2 *237:6 0.000337769
4 *159:6 *1336:A2 3.91975e-05
5 *216:24 *1336:A2 2.24654e-05
*RES
1 *1335:Z *1336:A2 11.08 
*END

*D_NET *237 0.00715305
*CONN
*I *1337:A2 I *D gf180mcu_fd_sc_mcu7t5v0__nor2_1
*I *1411:A2 I *D gf180mcu_fd_sc_mcu7t5v0__nor2_1
*I *1407:A1 I *D gf180mcu_fd_sc_mcu7t5v0__or2_1
*I *1336:ZN O *D gf180mcu_fd_sc_mcu7t5v0__nor2_1
*CAP
1 *1337:A2 0.000394512
2 *1411:A2 0
3 *1407:A1 0
4 *1336:ZN 0.000429204
5 *237:29 0.0014215
6 *237:6 0.00145619
7 *1337:A2 *270:10 0
8 *1337:A2 *361:51 4.42573e-05
9 *237:6 *1410:B1 0
10 *237:6 *1413:A2 0.000169099
11 *237:29 *1308:A3 3.96072e-05
12 *237:29 *1410:B1 2.39156e-06
13 *237:29 *1413:A2 8.56628e-05
14 *237:29 *1420:B2 9.11268e-05
15 *237:29 *272:31 1.32779e-05
16 *237:29 *312:16 8.61406e-05
17 *237:29 *361:10 4.98468e-05
18 *237:29 *361:22 9.97165e-05
19 *237:29 *361:37 5.63044e-06
20 *237:29 *361:51 1.59524e-05
21 *1309:A1 *1337:A2 0.000114669
22 *1309:A2 *1337:A2 1.62468e-05
23 *1336:A2 *237:6 0.000337769
24 *1337:A1 *1337:A2 7.54092e-05
25 *1411:A1 *1337:A2 0.000340668
26 *1411:A1 *237:29 1.37392e-05
27 *1560:RN *237:29 0.000239765
28 *1561:RN *237:6 0
29 *1561:RN *237:29 0.000239765
30 *159:6 *237:6 1.36398e-06
31 *209:12 *237:6 0.000113027
32 *209:12 *237:29 0.00076141
33 *213:16 *237:29 0.000348393
34 *216:24 *237:6 0.000146714
*RES
1 *1336:ZN *237:6 8.348 
2 *237:6 *1407:A1 4.5 
3 *237:6 *237:29 18.256 
4 *237:29 *1411:A2 4.5 
5 *237:29 *1337:A2 8.244 
*END

*D_NET *238 0.00159424
*CONN
*I *1339:A2 I *D gf180mcu_fd_sc_mcu7t5v0__nor2_1
*I *1338:ZN O *D gf180mcu_fd_sc_mcu7t5v0__aoi211_1
*CAP
1 *1339:A2 0.000280202
2 *1338:ZN 0.000280202
3 *1339:A2 *1231:I 4.81384e-05
4 *1339:A2 *1664:I 0.000208649
5 *1339:A2 *296:38 2.38865e-05
6 *1339:A2 *409:21 0.000122244
7 *1338:B *1339:A2 0.000194511
8 *1339:A1 *1339:A2 1.71326e-05
9 *1545:D *1339:A2 0.000419276
*RES
1 *1338:ZN *1339:A2 12.64 
*END

*D_NET *239 0.0128728
*CONN
*I *1421:A1 I *D gf180mcu_fd_sc_mcu7t5v0__nand2_1
*I *1343:A2 I *D gf180mcu_fd_sc_mcu7t5v0__nor2_1
*I *1341:A2 I *D gf180mcu_fd_sc_mcu7t5v0__nor2_1
*I *1342:A2 I *D gf180mcu_fd_sc_mcu7t5v0__aoi21_1
*I *1344:A2 I *D gf180mcu_fd_sc_mcu7t5v0__aoi21_1
*I *1340:ZN O *D gf180mcu_fd_sc_mcu7t5v0__nand2_1
*CAP
1 *1421:A1 0
2 *1343:A2 0.000469038
3 *1341:A2 0
4 *1342:A2 0.000501934
5 *1344:A2 7.33696e-05
6 *1340:ZN 0.000375695
7 *239:33 0.00137658
8 *239:27 0.00134368
9 *239:16 0.001146
10 *239:12 0.00144832
11 *1342:A2 *1342:B 0.00048596
12 *1342:A2 *1571:D 2.73715e-06
13 *1342:A2 *303:6 1.85523e-05
14 *1342:A2 *349:43 0
15 *1343:A2 *1458:I 2.50874e-05
16 *1344:A2 *1568:CLK 4.18042e-05
17 *239:12 *1355:I1 4.90573e-05
18 *239:12 *1421:A2 0
19 *239:12 *1645:I 9.84386e-05
20 *239:12 *408:12 0.000100568
21 *239:16 *1355:I0 0
22 *239:16 *1355:I1 0.00042494
23 *239:16 *1559:CLK 0
24 *239:16 *1568:CLK 0.000183045
25 *239:16 *1570:D 0.00065147
26 *239:16 *1570:CLK 0
27 *239:16 *360:8 0
28 *239:33 *1458:I 0.000237304
29 *239:33 *1568:CLK 8.7794e-05
30 *239:33 *303:6 5.45754e-05
31 *239:33 *303:13 0.000140071
32 *1344:A1 *1343:A2 0.0018455
33 *1544:D *1342:A2 0.000186465
34 *1568:D *239:12 0.000435763
35 *1568:D *239:16 0.00106088
36 *1568:RN *1343:A2 0
37 *1568:RN *239:16 8.1598e-06
38 *1568:RN *239:33 0
*RES
1 *1340:ZN *239:12 17.452 
2 *239:12 *239:16 11.44 
3 *239:16 *1344:A2 5.124 
4 *239:16 *239:27 4.5 
5 *239:27 *239:33 11.572 
6 *239:33 *1342:A2 8.66 
7 *239:33 *1341:A2 4.5 
8 *239:27 *1343:A2 14.304 
9 *239:12 *1421:A1 4.5 
*END

*D_NET *240 0.000984932
*CONN
*I *1342:B I *D gf180mcu_fd_sc_mcu7t5v0__aoi21_1
*I *1341:ZN O *D gf180mcu_fd_sc_mcu7t5v0__nor2_1
*CAP
1 *1342:B 0.000249486
2 *1341:ZN 0.000249486
3 *1342:B *1571:D 0
4 *1342:A2 *1342:B 0.00048596
*RES
1 *1341:ZN *1342:B 11.184 
*END

*D_NET *241 0.00375516
*CONN
*I *1344:B I *D gf180mcu_fd_sc_mcu7t5v0__aoi21_1
*I *1343:ZN O *D gf180mcu_fd_sc_mcu7t5v0__nor2_1
*CAP
1 *1344:B 9.76589e-05
2 *1343:ZN 9.76589e-05
3 *1344:B *1458:I 0.000367033
4 *1344:B *1497:I 0.00143083
5 *1344:A1 *1344:B 0.00176198
*RES
1 *1343:ZN *1344:B 22.68 
*END

*D_NET *242 0.00316961
*CONN
*I *1346:B I *D gf180mcu_fd_sc_mcu7t5v0__oai21_1
*I *1345:ZN O *D gf180mcu_fd_sc_mcu7t5v0__nand2_1
*CAP
1 *1346:B 0.000330623
2 *1345:ZN 0.000330623
3 *1346:B *1330:A4 3.75024e-05
4 *1346:B *1345:A1 5.08941e-05
5 *1346:B *1385:A1 0.000482792
6 *1346:B *1623:I 0.000256322
7 *1346:B *345:10 0.000488468
8 *1346:B *345:35 0.000158673
9 *1346:B *398:27 0.000248317
10 *1332:A2 *1346:B 5.90026e-05
11 *1346:A1 *1346:B 2.02858e-05
12 *1542:D *1346:B 0.000706109
*RES
1 *1345:ZN *1346:B 22.68 
*END

*D_NET *243 0.000299729
*CONN
*I *1348:B I *D gf180mcu_fd_sc_mcu7t5v0__aoi21_1
*I *1347:ZN O *D gf180mcu_fd_sc_mcu7t5v0__nor2_1
*CAP
1 *1348:B 0.000149865
2 *1347:ZN 0.000149865
*RES
1 *1347:ZN *1348:B 9.936 
*END

*D_NET *244 0.00122148
*CONN
*I *1350:B I *D gf180mcu_fd_sc_mcu7t5v0__oai21_1
*I *1349:ZN O *D gf180mcu_fd_sc_mcu7t5v0__nand2_1
*CAP
1 *1350:B 2.84818e-05
2 *1349:ZN 2.84818e-05
3 *1350:B *1623:I 0.000582256
4 *1350:B *1630:I 0.000582256
*RES
1 *1349:ZN *1350:B 10.56 
*END

*D_NET *245 0.018275
*CONN
*I *1357:S I *D gf180mcu_fd_sc_mcu7t5v0__mux2_2
*I *1358:S I *D gf180mcu_fd_sc_mcu7t5v0__mux2_2
*I *1359:S I *D gf180mcu_fd_sc_mcu7t5v0__mux2_2
*I *1356:ZN O *D gf180mcu_fd_sc_mcu7t5v0__nand3_1
*CAP
1 *1357:S 0.000184838
2 *1358:S 0.00128692
3 *1359:S 0.000522358
4 *1356:ZN 0.00203245
5 *245:24 0.00365689
6 *1357:S *1357:I0 0.000159517
7 *1357:S *1660:I 0
8 *1358:S *1290:A4 0.000799231
9 *1358:S *1358:I0 0.00119188
10 *1358:S *1359:I1 0
11 *1358:S *1374:A2 2.21533e-05
12 *1358:S *1491:I 0.000184998
13 *1358:S *305:20 1.38602e-05
14 *1358:S *347:43 0
15 *1358:S *348:33 0.000151141
16 *1358:S *355:10 0
17 *1358:S *382:8 0.000459347
18 *1359:S *1357:I0 5.09083e-05
19 *1359:S *1660:I 7.86587e-06
20 *1359:S *351:6 0
21 *245:24 *1331:A1 0.000178884
22 *245:24 *1346:A2 7.27224e-05
23 *245:24 *1347:A1 1.823e-05
24 *245:24 *1347:A2 5.88321e-05
25 *245:24 *1348:A2 0.000128813
26 *245:24 *1352:I0 0.00049701
27 *245:24 *1352:S 0.00170375
28 *245:24 *1356:A1 0.000219533
29 *245:24 *1357:I0 5.18602e-06
30 *245:24 *1596:I 1.41642e-05
31 *245:24 *1623:I 0.00242627
32 *245:24 *1642:I 7.29631e-05
33 *245:24 *1652:I 0.000217613
34 *245:24 *332:16 4.04633e-05
35 *245:24 *342:8 0.000205662
36 *245:24 *351:6 0
37 *245:24 *397:27 4.22072e-05
38 *245:24 *397:39 5.68789e-05
39 *1278:B2 *1358:S 0.000253743
40 *1346:A1 *245:24 0.000205674
41 *1366:A1 *245:24 6.09945e-05
42 *1374:A1 *1358:S 3.646e-05
43 *1376:A1 *1358:S 0
44 *1524:D *1358:S 0.000810629
45 *1525:D *1358:S 0.000102598
46 *1532:RN *1358:S 8.58618e-05
47 *1534:D *1357:S 1.84122e-05
48 *1534:D *1359:S 1.71326e-05
49 *144:41 *245:24 0
*RES
1 *1356:ZN *245:24 35.132 
2 *245:24 *1359:S 6.892 
3 *245:24 *1358:S 26.812 
4 *1359:S *1357:S 10.664 
*END

*D_NET *246 0.00251842
*CONN
*I *1617:I I *D gf180mcu_fd_sc_mcu7t5v0__dlyb_1
*I *1360:ZN O *D gf180mcu_fd_sc_mcu7t5v0__nand3_1
*CAP
1 *1617:I 0.000675766
2 *1360:ZN 0.000675766
3 *1617:I *1387:I1 0
4 *1617:I *1581:I 0.000767316
5 *1617:I *1635:I 0.000122123
6 *1617:I *328:47 7.87395e-06
7 *1617:I *332:16 0.00012524
8 *1541:RN *1617:I 0.000144333
*RES
1 *1360:ZN *1617:I 24.448 
*END

*D_NET *247 0.00131369
*CONN
*I *1362:B I *D gf180mcu_fd_sc_mcu7t5v0__oai21_1
*I *1361:ZN O *D gf180mcu_fd_sc_mcu7t5v0__nand2_1
*CAP
1 *1362:B 0.000203931
2 *1361:ZN 0.000203931
3 *1362:B *1385:A1 0.000265825
4 *1362:B *1519:CLK 4.88451e-05
5 *1362:B *294:65 0.000262884
6 *1542:RN *1362:B 0.000328278
*RES
1 *1361:ZN *1362:B 20.912 
*END

*D_NET *248 0.00301755
*CONN
*I *1364:B I *D gf180mcu_fd_sc_mcu7t5v0__aoi21_1
*I *1363:ZN O *D gf180mcu_fd_sc_mcu7t5v0__nor2_1
*CAP
1 *1364:B 0.00046332
2 *1363:ZN 0.00046332
3 *1364:B *1363:A2 0.000716985
4 *1364:B *1483:I 0.000260037
5 *1364:B *1616:I 0.00072993
6 *1364:B *294:9 6.86164e-05
7 *1364:B *329:16 1.78817e-06
8 *1364:B *386:10 2.83159e-05
9 *1529:SETN *1364:B 0.000213482
10 *1530:D *1364:B 7.17602e-05
*RES
1 *1363:ZN *1364:B 23.72 
*END

*D_NET *249 0.00468955
*CONN
*I *1366:B I *D gf180mcu_fd_sc_mcu7t5v0__oai21_1
*I *1365:ZN O *D gf180mcu_fd_sc_mcu7t5v0__nand2_1
*CAP
1 *1366:B 0.000226957
2 *1365:ZN 0.000226957
3 *1366:B *1387:I1 1.70957e-06
4 *1366:B *1530:CLK 0.000194522
5 *1366:B *1635:I 0.000581194
6 *1366:B *311:26 0.000936492
7 *1366:B *328:47 4.04633e-05
8 *1366:B *330:6 2.38773e-05
9 *1366:B *331:16 0.000945792
10 *1366:B *400:36 0.00151158
*RES
1 *1365:ZN *1366:B 25.176 
*END

*D_NET *250 0.00289126
*CONN
*I *1368:B I *D gf180mcu_fd_sc_mcu7t5v0__aoi21_1
*I *1367:ZN O *D gf180mcu_fd_sc_mcu7t5v0__nor2_1
*CAP
1 *1368:B 0.000454896
2 *1367:ZN 0.000454896
3 *1368:B *1368:A2 8.49787e-05
4 *1368:B *1490:I 0.000438808
5 *1368:B *1528:CLK 0.000497696
6 *1368:B *311:26 5.01206e-05
7 *1368:B *328:6 3.4596e-05
8 *1368:B *328:10 0.000177599
9 *1368:B *342:50 0
10 *1368:B *398:10 7.56826e-05
11 *1366:A1 *1368:B 0.000531148
12 *1528:D *1368:B 9.0835e-05
*RES
1 *1367:ZN *1368:B 23.824 
*END

*D_NET *251 0.00343965
*CONN
*I *1370:B I *D gf180mcu_fd_sc_mcu7t5v0__aoi21_1
*I *1369:ZN O *D gf180mcu_fd_sc_mcu7t5v0__nor2_1
*CAP
1 *1370:B 0.000517814
2 *1369:ZN 0.000517814
3 *1370:B *1369:A1 0.000137798
4 *1370:B *1387:I1 0.000419265
5 *1370:B *1573:I 0.00050635
6 *1370:B *1614:I 0.000448125
7 *1370:B *294:41 0.000301087
8 *1368:A1 *1370:B 0.000181349
9 *1370:A1 *1370:B 0.000410048
*RES
1 *1369:ZN *1370:B 26.736 
*END

*D_NET *252 0.00338412
*CONN
*I *1372:B I *D gf180mcu_fd_sc_mcu7t5v0__aoi21_1
*I *1371:ZN O *D gf180mcu_fd_sc_mcu7t5v0__nor2_1
*CAP
1 *1372:B 0.000428654
2 *1371:ZN 0.000428654
3 *1372:B *1371:A2 0.000990996
4 *1372:B *341:18 0.000270698
5 *1372:B *341:42 0.00119671
6 *1372:B *348:55 4.18157e-05
7 *1372:B *396:14 0
8 *1538:RN *1372:B 2.65937e-05
*RES
1 *1371:ZN *1372:B 25.28 
*END

*D_NET *253 0.00141615
*CONN
*I *1374:B I *D gf180mcu_fd_sc_mcu7t5v0__aoi21_1
*I *1373:ZN O *D gf180mcu_fd_sc_mcu7t5v0__nor2_1
*CAP
1 *1374:B 0.000196371
2 *1373:ZN 0.000196371
3 *1374:B *1373:A1 0.000644067
4 *1374:B *1373:A2 0.000174669
5 *1374:B *327:20 4.67771e-06
6 *1374:B *342:50 0.000199994
*RES
1 *1373:ZN *1374:B 11.392 
*END

*D_NET *254 0.00209322
*CONN
*I *1376:B I *D gf180mcu_fd_sc_mcu7t5v0__aoi21_1
*I *1375:ZN O *D gf180mcu_fd_sc_mcu7t5v0__nor2_1
*CAP
1 *1376:B 0.00012931
2 *1375:ZN 0.00012931
3 *1376:B *1375:A1 0.000337769
4 *1376:B *348:33 0.000319217
5 *1532:RN *1376:B 0.00117761
*RES
1 *1375:ZN *1376:B 12.224 
*END

*D_NET *255 0.00674984
*CONN
*I *1612:I I *D gf180mcu_fd_sc_mcu7t5v0__dlyb_1
*I *1377:Z O *D gf180mcu_fd_sc_mcu7t5v0__and3_1
*CAP
1 *1612:I 0.00113931
2 *1377:Z 0.00113931
3 *1612:I *1343:A1 0.000352492
4 *1612:I *1383:A2 0.000203244
5 *1612:I *1387:I1 0.000385224
6 *1612:I *1388:A1 0.00288407
7 *1612:I *1521:CLK 9.10643e-05
8 *1612:I *1618:I 0.000500772
9 *1612:I *1619:I 1.83778e-05
10 *1612:I *325:10 0
11 *1521:D *1612:I 3.597e-05
*RES
1 *1377:Z *1612:I 31.832 
*END

*D_NET *256 0.000248748
*CONN
*I *1379:B I *D gf180mcu_fd_sc_mcu7t5v0__aoi21_1
*I *1378:ZN O *D gf180mcu_fd_sc_mcu7t5v0__nor2_1
*CAP
1 *1379:B 0.000124374
2 *1378:ZN 0.000124374
*RES
1 *1378:ZN *1379:B 9.936 
*END

*D_NET *257 0.00152553
*CONN
*I *1381:B I *D gf180mcu_fd_sc_mcu7t5v0__oai21_1
*I *1380:ZN O *D gf180mcu_fd_sc_mcu7t5v0__nand2_1
*CAP
1 *1381:B 0.000396533
2 *1380:ZN 0.000396533
3 *1381:B *1262:A1 0
4 *1381:B *1381:A2 0
5 *1381:B *1473:I 8.80888e-05
6 *1381:B *1474:I 0.000582267
7 *1381:B *325:19 0
8 *1386:A1 *1381:B 4.71829e-05
9 *1520:RN *1381:B 1.49279e-05
*RES
1 *1380:ZN *1381:B 21.744 
*END

*D_NET *258 0.000787402
*CONN
*I *1383:B I *D gf180mcu_fd_sc_mcu7t5v0__oai21_1
*I *1382:ZN O *D gf180mcu_fd_sc_mcu7t5v0__nand2_1
*CAP
1 *1383:B 4.82205e-05
2 *1382:ZN 4.82205e-05
3 *1383:B *1387:I1 8.02494e-05
4 *1383:B *1494:I 0.0004162
5 *1383:B *1619:I 0.000194511
*RES
1 *1382:ZN *1383:B 10.144 
*END

*D_NET *259 0.00104652
*CONN
*I *1386:B I *D gf180mcu_fd_sc_mcu7t5v0__oai21_1
*I *1385:ZN O *D gf180mcu_fd_sc_mcu7t5v0__nand2_1
*CAP
1 *1386:B 3.09648e-05
2 *1385:ZN 3.09648e-05
3 *1386:B *378:25 0.000286402
4 *1386:A1 *1386:B 0.000698193
*RES
1 *1385:ZN *1386:B 19.768 
*END

*D_NET *260 0.00103511
*CONN
*I *1389:B I *D gf180mcu_fd_sc_mcu7t5v0__oai21_1
*I *1388:ZN O *D gf180mcu_fd_sc_mcu7t5v0__nand2_1
*CAP
1 *1389:B 0.000273305
2 *1388:ZN 0.000273305
3 *1389:B *1261:A3 1.07369e-05
4 *1389:B *1388:A1 0.000367222
5 *1389:A1 *1389:B 0.000110537
*RES
1 *1388:ZN *1389:B 11.912 
*END

*D_NET *261 0.00435056
*CONN
*I *1401:A2 I *D gf180mcu_fd_sc_mcu7t5v0__xnor2_1
*I *1404:A3 I *D gf180mcu_fd_sc_mcu7t5v0__nor4_1
*I *1658:I I *D gf180mcu_fd_sc_mcu7t5v0__clkbuf_1
*I *1391:ZN O *D gf180mcu_fd_sc_mcu7t5v0__nor3_1
*CAP
1 *1401:A2 0.000271346
2 *1404:A3 3.69268e-05
3 *1658:I 0
4 *1391:ZN 0.000325559
5 *261:19 0.000372893
6 *261:8 0.000390179
7 *1401:A2 *1249:I 0
8 *1401:A2 *1401:A1 3.4596e-05
9 *1401:A2 *1404:A1 3.4596e-05
10 *1401:A2 *1404:A2 1.07369e-05
11 *1401:A2 *1579:I 0.000111905
12 *1401:A2 *418:6 0
13 *1404:A3 *1444:I1 0.000280581
14 *1404:A3 *1650:I 0.000271764
15 *261:8 *1394:A4 0
16 *261:8 *1579:I 0.000345896
17 *261:19 *1402:A1 0.000333297
18 *261:19 *1444:I1 7.47044e-05
19 *261:19 *1446:I 7.14178e-05
20 *261:19 *1579:I 2.14739e-05
21 *261:19 *1650:I 0.000333644
22 *1295:A4 *261:8 0
23 *1391:A2 *261:8 0.000866996
24 *1391:A2 *261:19 0.000103788
25 *1391:A3 *261:8 3.32327e-05
26 *1554:D *1401:A2 2.50257e-05
*RES
1 *1391:ZN *261:8 8.244 
2 *261:8 *1658:I 4.5 
3 *261:8 *261:19 5.956 
4 *261:19 *1404:A3 9.728 
5 *261:19 *1401:A2 11.184 
*END

*D_NET *262 0.000994805
*CONN
*I *1399:A2 I *D gf180mcu_fd_sc_mcu7t5v0__xor2_1
*I *1392:ZN O *D gf180mcu_fd_sc_mcu7t5v0__nand2_1
*CAP
1 *1399:A2 0.000244817
2 *1392:ZN 0.000244817
3 *1399:A2 *1392:A2 7.53438e-05
4 *1399:A2 *1400:A3 0.000337769
5 *1399:A2 *1557:CLK 2.70178e-05
6 *1399:A2 *420:16 6.50387e-05
*RES
1 *1392:ZN *1399:A2 11.288 
*END

*D_NET *263 0.000582186
*CONN
*I *1397:A2 I *D gf180mcu_fd_sc_mcu7t5v0__xor2_1
*I *1393:ZN O *D gf180mcu_fd_sc_mcu7t5v0__nand3_1
*CAP
1 *1397:A2 0.000123679
2 *1393:ZN 0.000123679
3 *1397:A2 *1557:CLK 2.01254e-05
4 *1397:A2 *420:16 1.71326e-05
5 *1397:A2 *420:20 0.000193782
6 *1397:A2 *421:21 0.000103788
*RES
1 *1393:ZN *1397:A2 10.352 
*END

*D_NET *264 0.000505877
*CONN
*I *1395:A2 I *D gf180mcu_fd_sc_mcu7t5v0__xor2_1
*I *1394:ZN O *D gf180mcu_fd_sc_mcu7t5v0__nand4_1
*CAP
1 *1395:A2 0.000198275
2 *1394:ZN 0.000198275
3 *1395:A2 *1265:A2 4.44673e-06
4 *1395:A2 *1395:A1 3.3698e-05
5 *1395:A2 *316:57 0
6 *1395:A2 *420:30 7.11818e-05
*RES
1 *1394:ZN *1395:A2 10.352 
*END

*D_NET *265 0.00131438
*CONN
*I *1396:A3 I *D gf180mcu_fd_sc_mcu7t5v0__nor3_1
*I *1395:Z O *D gf180mcu_fd_sc_mcu7t5v0__xor2_1
*CAP
1 *1396:A3 0.000278344
2 *1395:Z 0.000278344
3 *1396:A3 *1395:A1 5.60123e-05
4 *1396:A3 *316:42 6.41072e-05
5 *1396:A3 *316:57 7.16472e-05
6 *1396:A3 *318:27 0.000438808
7 *1396:A3 *319:10 7.24282e-05
8 *1396:A3 *415:29 0
9 *1302:A3 *1396:A3 5.469e-05
10 *1572:I *1396:A3 0
*RES
1 *1395:Z *1396:A3 21.12 
*END

*D_NET *266 0.00110462
*CONN
*I *1398:A3 I *D gf180mcu_fd_sc_mcu7t5v0__nor3_1
*I *1397:Z O *D gf180mcu_fd_sc_mcu7t5v0__xor2_1
*CAP
1 *1398:A3 0.000164389
2 *1397:Z 0.000164389
3 *1398:A3 *315:32 0.000107711
4 *1398:A3 *315:34 0
5 *1398:A3 *319:29 0.000542895
6 *1398:A3 *421:21 0.00012524
*RES
1 *1397:Z *1398:A3 20.288 
*END

*D_NET *267 0.00129621
*CONN
*I *1400:A3 I *D gf180mcu_fd_sc_mcu7t5v0__nor3_1
*I *1399:Z O *D gf180mcu_fd_sc_mcu7t5v0__xor2_1
*CAP
1 *1400:A3 0.000133524
2 *1399:Z 0.000133524
3 *1400:A3 *1446:I 0.000531148
4 *1400:A3 *1557:CLK 6.18147e-05
5 *1400:A3 *419:10 9.84299e-05
6 *1399:A2 *1400:A3 0.000337769
*RES
1 *1399:Z *1400:A3 20.288 
*END

*D_NET *268 0.00212666
*CONN
*I *1402:A3 I *D gf180mcu_fd_sc_mcu7t5v0__nor3_1
*I *1401:ZN O *D gf180mcu_fd_sc_mcu7t5v0__xnor2_1
*CAP
1 *1402:A3 0.000383072
2 *1401:ZN 0.000383072
3 *1402:A3 *1402:A1 0.00057304
4 *1402:A3 *1402:A2 0
5 *1402:A3 *1445:I 0.00061761
6 *1402:A3 *1579:I 6.95257e-05
7 *1555:D *1402:A3 0.000100342
*RES
1 *1401:ZN *1402:A3 22.368 
*END

*D_NET *269 0.00101236
*CONN
*I *1404:A4 I *D gf180mcu_fd_sc_mcu7t5v0__nor4_1
*I *1403:ZN O *D gf180mcu_fd_sc_mcu7t5v0__nor2_1
*CAP
1 *1404:A4 0.000154848
2 *1403:ZN 0.000154848
3 *1404:A4 *1249:I 3.09205e-05
4 *1404:A4 *1298:A2 7.87395e-06
5 *1404:A4 *1404:A2 2.98389e-05
6 *1404:A4 *316:57 2.47364e-05
7 *1404:A4 *418:6 0.000497696
8 *1404:A4 *418:12 6.85302e-05
9 *1554:D *1404:A4 4.30651e-05
*RES
1 *1403:ZN *1404:A4 11.288 
*END

*D_NET *270 0.00338289
*CONN
*I *1409:A2 I *D gf180mcu_fd_sc_mcu7t5v0__oai22_1
*I *1408:A2 I *D gf180mcu_fd_sc_mcu7t5v0__oai22_1
*I *1405:ZN O *D gf180mcu_fd_sc_mcu7t5v0__nand2_1
*CAP
1 *1409:A2 0.000301599
2 *1408:A2 0
3 *1405:ZN 0.000498446
4 *270:10 0.000800045
5 *1409:A2 *1626:I 0.000247057
6 *270:10 *1564:CLK 0.00132086
7 *1337:A2 *270:10 0
8 *1408:A1 *1409:A2 2.20381e-05
9 *1408:A1 *270:10 6.7642e-05
10 *1408:B2 *1409:A2 0.000125206
*RES
1 *1405:ZN *270:10 13.368 
2 *270:10 *1408:A2 9 
3 *270:10 *1409:A2 11.496 
*END

*D_NET *271 0.00602868
*CONN
*I *1420:A2 I *D gf180mcu_fd_sc_mcu7t5v0__aoi22_1
*I *1416:A2 I *D gf180mcu_fd_sc_mcu7t5v0__nand2_1
*I *1407:A2 I *D gf180mcu_fd_sc_mcu7t5v0__or2_1
*I *1413:A2 I *D gf180mcu_fd_sc_mcu7t5v0__nand2_1
*I *1406:Z O *D gf180mcu_fd_sc_mcu7t5v0__and2_1
*CAP
1 *1420:A2 0
2 *1416:A2 4.79753e-05
3 *1407:A2 0
4 *1413:A2 0.000130779
5 *1406:Z 0.000449038
6 *271:18 0.000338521
7 *271:12 0.00038261
8 *271:10 0.000575931
9 *1413:A2 *1410:B1 7.30787e-05
10 *1416:A2 *1421:A2 3.10673e-05
11 *1416:A2 *1569:CLK 0.000122244
12 *271:10 *1313:A3 0.0010988
13 *271:10 *1420:A1 0.000338445
14 *271:10 *1574:I 0.000723983
15 *271:10 *312:16 0.000271239
16 *271:12 *1420:A1 4.07478e-05
17 *271:12 *1421:A2 0.000419276
18 *271:12 *1569:CLK 0.0001339
19 *271:12 *272:31 2.92613e-05
20 *271:18 *1413:A1 3.91269e-05
21 *271:18 *1416:A1 1.13999e-05
22 *271:18 *1419:A1 0.000513523
23 *271:18 *1574:I 2.96776e-06
24 *237:6 *1413:A2 0.000169099
25 *237:29 *1413:A2 8.56628e-05
*RES
1 *1406:Z *271:10 20.26 
2 *271:10 *271:12 1.768 
3 *271:12 *271:18 10.768 
4 *271:18 *1413:A2 6.06 
5 *271:18 *1407:A2 4.5 
6 *271:12 *1416:A2 5.124 
7 *271:10 *1420:A2 4.5 
*END

*D_NET *272 0.0100225
*CONN
*I *1408:B1 I *D gf180mcu_fd_sc_mcu7t5v0__oai22_1
*I *1409:B1 I *D gf180mcu_fd_sc_mcu7t5v0__oai22_1
*I *1410:B1 I *D gf180mcu_fd_sc_mcu7t5v0__oai32_1
*I *1407:Z O *D gf180mcu_fd_sc_mcu7t5v0__or2_1
*CAP
1 *1408:B1 0.000109064
2 *1409:B1 0
3 *1410:B1 0.000399731
4 *1407:Z 3.0305e-05
5 *272:31 0.00112697
6 *272:6 0.00144794
7 *1408:B1 *1626:I 1.85523e-05
8 *1408:B1 *1663:I 2.25463e-05
9 *1410:B1 *1312:A1 0.000113027
10 *1410:B1 *1419:A1 6.32781e-05
11 *1410:B1 *1421:A2 0.00162858
12 *1410:B1 *406:45 0.0010269
13 *272:31 *1418:A2 0.000105621
14 *272:31 *1419:A1 1.07369e-05
15 *272:31 *1420:B1 0.000207833
16 *272:31 *1420:B2 0.000185295
17 *272:31 *1421:A2 6.69695e-05
18 *272:31 *1563:CLK 0.00108863
19 *272:31 *1663:I 7.59002e-05
20 *1303:A1 *272:31 0.000976785
21 *1408:A1 *1408:B1 0.000139186
22 *1408:A1 *272:31 1.07369e-05
23 *1408:B2 *1408:B1 0.000156319
24 *1409:A1 *1408:B1 1.71326e-05
25 *1409:A1 *272:31 0.000193782
26 *1409:B2 *272:31 0.000100568
27 *1410:B2 *1410:B1 3.42651e-05
28 *1413:A2 *1410:B1 7.30787e-05
29 *1417:A1 *272:31 0.000231238
30 *1562:D *1410:B1 0.000313748
31 *1563:D *272:31 2.81522e-06
32 *209:12 *272:31 0
33 *237:6 *1410:B1 0
34 *237:29 *1410:B1 2.39156e-06
35 *237:29 *272:31 1.32779e-05
36 *271:12 *272:31 2.92613e-05
*RES
1 *1407:Z *272:6 4.812 
2 *272:6 *1410:B1 11.26 
3 *272:6 *272:31 11.336 
4 *272:31 *1409:B1 4.5 
5 *272:31 *1408:B1 6.06 
*END

*D_NET *273 0.0104146
*CONN
*I *1420:B1 I *D gf180mcu_fd_sc_mcu7t5v0__aoi22_1
*I *1418:A1 I *D gf180mcu_fd_sc_mcu7t5v0__oai21_1
*I *1414:A2 I *D gf180mcu_fd_sc_mcu7t5v0__oai21_1
*I *1411:ZN O *D gf180mcu_fd_sc_mcu7t5v0__nor2_1
*CAP
1 *1420:B1 0.000446605
2 *1418:A1 0
3 *1414:A2 0.000380736
4 *1411:ZN 0
5 *273:12 0.000736215
6 *273:6 0.000802084
7 *1414:A2 *1307:A2 0.00010348
8 *1414:A2 *1414:B 1.70957e-06
9 *1414:A2 *1419:A1 0.000176649
10 *1414:A2 *1419:A2 0.00143924
11 *1414:A2 *1561:CLK 1.91601e-05
12 *1414:A2 *1664:I 0.000205027
13 *1414:A2 *312:16 1.23682e-05
14 *1414:A2 *409:14 9.09749e-05
15 *1420:B1 *1418:A2 9.34701e-05
16 *1420:B1 *1420:A1 0.00011484
17 *1420:B1 *1453:I 0.0011692
18 *1420:B1 *1563:CLK 0.00047924
19 *1420:B1 *1569:CLK 2.39029e-05
20 *1420:B1 *337:44 2.14739e-05
21 *1420:B1 *339:8 0.000913326
22 *273:12 *1418:A2 0.000644217
23 *273:12 *1453:I 0.000382424
24 *273:12 *296:14 0.000654124
25 *273:12 *296:38 4.4504e-06
26 *273:12 *409:8 6.12849e-05
27 *273:12 *409:14 8.65284e-05
28 *1412:A2 *1414:A2 1.12327e-05
29 *1417:A1 *1420:B1 8.42301e-05
30 *1561:D *1414:A2 1.71326e-05
31 *212:12 *1414:A2 2.93608e-05
32 *213:20 *1420:B1 0.00100207
33 *272:31 *1420:B1 0.000207833
*RES
1 *1411:ZN *273:6 9 
2 *273:6 *273:12 9.284 
3 *273:12 *1414:A2 10.428 
4 *273:12 *1418:A1 4.5 
5 *273:6 *1420:B1 16.592 
*END

*D_NET *274 0.00384646
*CONN
*I *1415:A1 I *D gf180mcu_fd_sc_mcu7t5v0__nand2_1
*I *1413:ZN O *D gf180mcu_fd_sc_mcu7t5v0__nand2_1
*CAP
1 *1415:A1 0.000581321
2 *1413:ZN 0.000581321
3 *1415:A1 *1412:A1 0.000346468
4 *1415:A1 *1415:A2 8.07883e-05
5 *1415:A1 *1419:A1 0
6 *1415:A1 *1561:CLK 0.000100568
7 *1415:A1 *410:8 0.000779132
8 *1415:A1 *410:10 0.000824108
9 *1561:D *1415:A1 9.09864e-05
10 *159:12 *1415:A1 0
11 *209:12 *1415:A1 0.000247057
12 *209:16 *1415:A1 0.000214713
*RES
1 *1413:ZN *1415:A1 25.488 
*END

*D_NET *275 0.000382722
*CONN
*I *1415:A2 I *D gf180mcu_fd_sc_mcu7t5v0__nand2_1
*I *1414:ZN O *D gf180mcu_fd_sc_mcu7t5v0__oai21_1
*CAP
1 *1415:A2 0.000113674
2 *1414:ZN 0.000113674
3 *1415:A2 *1419:A1 7.45865e-05
4 *1415:A1 *1415:A2 8.07883e-05
*RES
1 *1414:ZN *1415:A2 19.352 
*END

*D_NET *276 0.00403073
*CONN
*I *1419:A1 I *D gf180mcu_fd_sc_mcu7t5v0__nand2_1
*I *1416:ZN O *D gf180mcu_fd_sc_mcu7t5v0__nand2_1
*CAP
1 *1419:A1 0.00104094
2 *1416:ZN 0.00104094
3 *1419:A1 *1307:A1 8.6099e-05
4 *1419:A1 *1413:A1 0
5 *1419:A1 *1419:A2 4.07478e-05
6 *1419:A1 *1420:B2 0.000337347
7 *1419:A1 *1421:A2 0.000182208
8 *1419:A1 *1561:CLK 8.75081e-05
9 *1419:A1 *1574:I 2.77037e-05
10 *1419:A1 *408:32 3.34526e-05
11 *1410:B1 *1419:A1 6.32781e-05
12 *1414:A2 *1419:A1 0.000176649
13 *1415:A1 *1419:A1 0
14 *1415:A2 *1419:A1 7.45865e-05
15 *209:12 *1419:A1 0.000164598
16 *209:16 *1419:A1 0.000150417
17 *271:18 *1419:A1 0.000513523
18 *272:31 *1419:A1 1.07369e-05
*RES
1 *1416:ZN *1419:A1 28.088 
*END

*D_NET *277 0.00548943
*CONN
*I *1418:A2 I *D gf180mcu_fd_sc_mcu7t5v0__oai21_1
*I *1417:ZN O *D gf180mcu_fd_sc_mcu7t5v0__nor2_1
*CAP
1 *1418:A2 0.000679997
2 *1417:ZN 0.000679997
3 *1418:A2 *296:14 3.44395e-05
4 *1418:A2 *296:38 2.36218e-05
5 *1418:A2 *409:21 1.60338e-05
6 *1338:B *1418:A2 0
7 *1417:A1 *1418:A2 0.000105621
8 *1420:B1 *1418:A2 9.34701e-05
9 *213:20 *1418:A2 0.000775364
10 *233:18 *1418:A2 7.36271e-05
11 *233:24 *1418:A2 0.00225742
12 *272:31 *1418:A2 0.000105621
13 *273:12 *1418:A2 0.000644217
*RES
1 *1417:ZN *1418:A2 36.152 
*END

*D_NET *278 0.0021985
*CONN
*I *1419:A2 I *D gf180mcu_fd_sc_mcu7t5v0__nand2_1
*I *1418:ZN O *D gf180mcu_fd_sc_mcu7t5v0__oai21_1
*CAP
1 *1419:A2 0.000213588
2 *1418:ZN 0.000213588
3 *1419:A2 *1561:CLK 6.18411e-06
4 *1419:A2 *296:16 4.17974e-05
5 *1419:A2 *296:38 1.78817e-06
6 *1414:A2 *1419:A2 0.00143924
7 *1419:A1 *1419:A2 4.07478e-05
8 *1560:D *1419:A2 0.000241565
*RES
1 *1418:ZN *1419:A2 12.848 
*END

*D_NET *279 0.00681123
*CONN
*I *1421:A2 I *D gf180mcu_fd_sc_mcu7t5v0__nand2_1
*I *1420:ZN O *D gf180mcu_fd_sc_mcu7t5v0__aoi22_1
*CAP
1 *1421:A2 0.00132037
2 *1420:ZN 0.00132037
3 *1421:A2 *1250:I 0
4 *1421:A2 *1311:A1 0.000122244
5 *1421:A2 *1311:A2 7.30684e-05
6 *1421:A2 *1335:A1 0
7 *1421:A2 *1569:CLK 3.3698e-05
8 *1421:A2 *1624:I 5.37178e-05
9 *1421:A2 *408:12 0.000249587
10 *1312:A3 *1421:A2 0.000256285
11 *1410:B1 *1421:A2 0.00162858
12 *1416:A2 *1421:A2 3.10673e-05
13 *1419:A1 *1421:A2 0.000182208
14 *1559:D *1421:A2 0.000103933
15 *1562:D *1421:A2 0.00035011
16 *1567:SETN *1421:A2 0
17 *1568:D *1421:A2 0.000419265
18 *1620:I *1421:A2 0.000160384
19 *217:16 *1421:A2 2.00981e-05
20 *239:12 *1421:A2 0
21 *271:12 *1421:A2 0.000419276
22 *272:31 *1421:A2 6.69695e-05
*RES
1 *1420:ZN *1421:A2 32.456 
*END

*D_NET *280 0.00174006
*CONN
*I *1427:A2 I *D gf180mcu_fd_sc_mcu7t5v0__nand2_1
*I *1423:ZN O *D gf180mcu_fd_sc_mcu7t5v0__nand2_1
*CAP
1 *1427:A2 0.000419558
2 *1423:ZN 0.000419558
3 *1427:A2 *1481:I 0
4 *1280:A1 *1427:A2 6.19587e-05
5 *1287:A2 *1427:A2 8.56628e-05
6 *1427:A1 *1427:A2 1.78817e-06
7 *168:14 *1427:A2 0.000751535
*RES
1 *1423:ZN *1427:A2 12.536 
*END

*D_NET *281 0.00262087
*CONN
*I *1425:A3 I *D gf180mcu_fd_sc_mcu7t5v0__nor3_1
*I *1424:ZN O *D gf180mcu_fd_sc_mcu7t5v0__xnor2_1
*CAP
1 *1425:A3 0.000330996
2 *1424:ZN 0.000330996
3 *1425:A3 *1278:A2 0.000103788
4 *1425:A3 *1358:I1 0.000121256
5 *1425:A3 *1424:A1 0.000103092
6 *1425:A3 *1509:CLK 2.36809e-05
7 *1425:A3 *1641:I 0.000497696
8 *1425:A3 *383:14 0.000551279
9 *1425:A3 *426:29 0.000463989
10 *1533:D *1425:A3 9.40934e-05
*RES
1 *1424:ZN *1425:A3 22.368 
*END

*D_NET *282 0.0093521
*CONN
*I *1430:A2 I *D gf180mcu_fd_sc_mcu7t5v0__nor2_1
*I *1431:A2 I *D gf180mcu_fd_sc_mcu7t5v0__and2_1
*I *1428:A1 I *D gf180mcu_fd_sc_mcu7t5v0__nand2_1
*I *1426:ZN O *D gf180mcu_fd_sc_mcu7t5v0__nand3_1
*CAP
1 *1430:A2 0.000259427
2 *1431:A2 9.41783e-05
3 *1428:A1 9.47035e-05
4 *1426:ZN 0.00069026
5 *282:21 0.000418484
6 *282:8 0.000849842
7 *1428:A1 *1279:A2 0.000954145
8 *1428:A1 *1428:A2 0.000265548
9 *1430:A2 *1279:A2 0.000339262
10 *1430:A2 *313:27 0.000157331
11 *1431:A2 *306:6 0.000628535
12 *1431:A2 *306:30 0.00025082
13 *1431:A2 *313:27 0.000844759
14 *282:8 *1259:I 3.78987e-05
15 *282:8 *1426:A1 9.7618e-05
16 *282:8 *1510:CLK 4.26306e-05
17 *282:8 *306:6 3.08757e-05
18 *282:8 *335:20 9.68436e-05
19 *282:8 *426:12 2.16642e-05
20 *282:21 *1279:A2 0.000490944
21 *1274:B1 *1428:A1 2.24654e-05
22 *1280:A1 *282:8 3.46538e-05
23 *1280:B *1428:A1 0.000728662
24 *1280:C *282:8 0.000844759
25 *1430:A1 *1430:A2 7.20461e-05
26 *1431:A1 *282:8 4.49022e-05
27 *1511:D *1430:A2 0.000257552
28 *167:10 *1430:A2 8.39493e-05
29 *167:10 *282:21 2.54037e-05
30 *167:31 *1428:A1 0.000424909
31 *167:31 *282:21 0.000131156
32 *168:14 *282:8 1.58744e-05
*RES
1 *1426:ZN *282:8 14.512 
2 *282:8 *1428:A1 12.536 
3 *282:8 *282:21 1.352 
4 *282:21 *1431:A2 11.392 
5 *282:21 *1430:A2 12.224 
*END

*D_NET *283 0.00154175
*CONN
*I *1428:A2 I *D gf180mcu_fd_sc_mcu7t5v0__nand2_1
*I *1427:ZN O *D gf180mcu_fd_sc_mcu7t5v0__nand2_1
*CAP
1 *1428:A2 0.000248647
2 *1427:ZN 0.000248647
3 *1428:A2 *1429:A3 7.21917e-05
4 *1274:B1 *1428:A2 0.000661099
5 *1428:A1 *1428:A2 0.000265548
6 *167:31 *1428:A2 4.56133e-05
*RES
1 *1427:ZN *1428:A2 12.016 
*END

*D_NET *284 0.0047803
*CONN
*I *1429:A3 I *D gf180mcu_fd_sc_mcu7t5v0__nor3_1
*I *1428:ZN O *D gf180mcu_fd_sc_mcu7t5v0__nand2_1
*CAP
1 *1429:A3 0.000613691
2 *1428:ZN 0.000613691
3 *1429:A3 *1242:I 0.000288577
4 *1429:A3 *1638:I 0.00175293
5 *1280:A2 *1429:A3 0.000152316
6 *1287:A2 *1429:A3 0.000901213
7 *1428:A2 *1429:A3 7.21917e-05
8 *167:31 *1429:A3 0.000385694
*RES
1 *1428:ZN *1429:A3 25.8 
*END

*D_NET *285 0.0018857
*CONN
*I *1434:A2 I *D gf180mcu_fd_sc_mcu7t5v0__nor2_1
*I *1432:A3 I *D gf180mcu_fd_sc_mcu7t5v0__nor4_1
*I *1433:A2 I *D gf180mcu_fd_sc_mcu7t5v0__and2_1
*I *1430:ZN O *D gf180mcu_fd_sc_mcu7t5v0__nor2_1
*CAP
1 *1434:A2 3.6366e-05
2 *1432:A3 0.000359598
3 *1433:A2 0.000137814
4 *1430:ZN 0.000198424
5 *285:22 0.000456574
6 *1432:A3 *1435:A4 3.3698e-05
7 *1432:A3 *287:10 0
8 *1432:A3 *313:27 0
9 *1433:A2 *1435:A1 0
10 *1433:A2 *1598:I 0.000116466
11 *1433:A2 *313:10 0
12 *1433:A2 *429:18 0.000192311
13 *1430:A1 *1432:A3 0.000354453
14 *1607:I *1433:A2 0
*RES
1 *1430:ZN *1433:A2 19.56 
2 *1430:ZN *285:22 5.02 
3 *285:22 *1432:A3 7.516 
4 *285:22 *1434:A2 4.812 
*END

*D_NET *286 0.000778335
*CONN
*I *1432:A4 I *D gf180mcu_fd_sc_mcu7t5v0__nor4_1
*I *1431:Z O *D gf180mcu_fd_sc_mcu7t5v0__and2_1
*CAP
1 *1432:A4 0.000288116
2 *1431:Z 0.000288116
3 *1432:A4 *1429:A2 9.95819e-06
4 *1432:A4 *1432:A2 0
5 *1432:A4 *313:27 0.000135894
6 *1430:A1 *1432:A4 2.33768e-05
7 *1510:D *1432:A4 3.28735e-05
*RES
1 *1431:Z *1432:A4 11.288 
*END

*D_NET *287 0.00915132
*CONN
*I *1439:A3 I *D gf180mcu_fd_sc_mcu7t5v0__nand3_1
*I *1436:A2 I *D gf180mcu_fd_sc_mcu7t5v0__nand2_1
*I *1437:A2 I *D gf180mcu_fd_sc_mcu7t5v0__xnor2_1
*I *1435:A3 I *D gf180mcu_fd_sc_mcu7t5v0__nor4_1
*I *1433:Z O *D gf180mcu_fd_sc_mcu7t5v0__and2_1
*CAP
1 *1439:A3 8.25709e-05
2 *1436:A2 2.35742e-05
3 *1437:A2 5.51902e-05
4 *1435:A3 0
5 *1433:Z 0.000332032
6 *287:33 0.000848827
7 *287:27 0.00126085
8 *287:10 0.000740252
9 *1436:A2 *1437:A1 0.000227063
10 *1436:A2 *1438:A2 3.0542e-05
11 *1436:A2 *1438:A3 0.000355296
12 *1437:A2 *1437:A1 0.000334908
13 *1437:A2 *1438:A3 0.000116466
14 *1437:A2 *1441:A1 0
15 *1437:A2 *336:17 1.01781e-05
16 *1439:A3 *1604:I 0.000325271
17 *1439:A3 *430:47 0.00085643
18 *287:10 *313:10 3.99399e-06
19 *287:10 *313:27 0.000500761
20 *287:10 *335:12 1.71326e-05
21 *287:10 *335:20 0.000117338
22 *287:27 *1604:I 0.000292328
23 *287:27 *313:10 2.36218e-05
24 *287:27 *335:12 0.000105333
25 *287:27 *430:47 0.000859359
26 *287:33 *1437:A1 5.78216e-06
27 *287:33 *1443:A2 0.000240038
28 *287:33 *1443:A3 0.000500772
29 *287:33 *1606:I 7.85431e-05
30 *287:33 *1640:I 0
31 *287:33 *336:17 4.37332e-05
32 *1432:A3 *287:10 0
33 *1512:D *287:10 0.000133732
34 *1515:D *287:33 2.14739e-05
35 *1607:I *287:27 8.15769e-05
36 *1621:I *287:27 0.000509988
37 *190:14 *287:27 1.63622e-05
*RES
1 *1433:Z *287:10 7.724 
2 *287:10 *1435:A3 4.5 
3 *287:10 *287:27 10.428 
4 *287:27 *287:33 14.72 
5 *287:33 *1437:A2 10.04 
6 *287:33 *1436:A2 9.936 
7 *287:27 *1439:A3 11.184 
*END

*D_NET *288 0.00169674
*CONN
*I *1435:A4 I *D gf180mcu_fd_sc_mcu7t5v0__nor4_1
*I *1434:ZN O *D gf180mcu_fd_sc_mcu7t5v0__nor2_1
*CAP
1 *1435:A4 0.000713935
2 *1434:ZN 0.000713935
3 *1435:A4 *1603:I 2.38656e-05
4 *1432:A3 *1435:A4 3.3698e-05
5 *1512:D *1435:A4 0.000199988
6 *1607:I *1435:A4 1.13158e-05
*RES
1 *1434:ZN *1435:A4 23.2 
*END

*D_NET *289 0.00170535
*CONN
*I *1440:A2 I *D gf180mcu_fd_sc_mcu7t5v0__xor2_1
*I *1436:ZN O *D gf180mcu_fd_sc_mcu7t5v0__nand2_1
*CAP
1 *1440:A2 0.000162135
2 *1436:ZN 0.000162135
3 *1440:A2 *316:25 0
4 *1440:A2 *336:6 0.000354655
5 *1440:A2 *336:17 6.87156e-05
6 *1440:A2 *431:25 0.000957709
*RES
1 *1436:ZN *1440:A2 12.12 
*END

*D_NET *290 0.00140896
*CONN
*I *1438:A3 I *D gf180mcu_fd_sc_mcu7t5v0__nor3_1
*I *1437:ZN O *D gf180mcu_fd_sc_mcu7t5v0__xnor2_1
*CAP
1 *1438:A3 0.000340784
2 *1437:ZN 0.000340784
3 *1438:A3 *1438:A2 0.000164494
4 *1438:A3 *1441:A1 7.03033e-05
5 *1438:A3 *316:8 1.51772e-05
6 *1438:A3 *430:8 5.65788e-06
7 *1436:A2 *1438:A3 0.000355296
8 *1437:A2 *1438:A3 0.000116466
*RES
1 *1437:ZN *1438:A3 21.432 
*END

*D_NET *291 0.00404699
*CONN
*I *1442:A2 I *D gf180mcu_fd_sc_mcu7t5v0__xor2_1
*I *1439:ZN O *D gf180mcu_fd_sc_mcu7t5v0__nand3_1
*CAP
1 *1442:A2 0.000358755
2 *1439:ZN 0.000358755
3 *1442:A2 *1281:A2 1.12327e-05
4 *1442:A2 *1284:B1 0.000367033
5 *1442:A2 *1515:CLK 7.87395e-06
6 *1442:A2 *1640:I 0.000522341
7 *1442:A2 *430:47 0.00197875
8 *1442:A2 *432:8 0.00035099
9 *1442:A2 *432:34 2.38773e-05
10 *1621:I *1442:A2 2.81086e-05
11 *189:10 *1442:A2 3.92768e-05
*RES
1 *1439:ZN *1442:A2 25.072 
*END

*D_NET *292 0.00102834
*CONN
*I *1441:A3 I *D gf180mcu_fd_sc_mcu7t5v0__nor3_1
*I *1440:Z O *D gf180mcu_fd_sc_mcu7t5v0__xor2_1
*CAP
1 *1441:A3 0.000256311
2 *1440:Z 0.000256311
3 *1441:A3 *1441:A2 3.54273e-06
4 *1441:A3 *336:6 0.000440809
5 *1514:D *1441:A3 7.13605e-05
*RES
1 *1440:Z *1441:A3 11.704 
*END

*D_NET *293 0.00246043
*CONN
*I *1443:A3 I *D gf180mcu_fd_sc_mcu7t5v0__nor3_1
*I *1442:Z O *D gf180mcu_fd_sc_mcu7t5v0__xor2_1
*CAP
1 *1443:A3 0.000295604
2 *1442:Z 0.000295604
3 *1443:A3 *1600:I 1.93816e-05
4 *1443:A3 *1606:I 4.49307e-05
5 *1443:A3 *354:53 0
6 *1443:A3 *432:8 0.000268162
7 *1515:D *1443:A3 0.00103597
8 *287:33 *1443:A3 0.000500772
*RES
1 *1442:Z *1443:A3 22.784 
*END

*D_NET *294 0.0470733
*CONN
*I *1578:I I *D gf180mcu_fd_sc_mcu7t5v0__clkbuf_8
*I *1586:I I *D gf180mcu_fd_sc_mcu7t5v0__clkbuf_8
*I *1579:I I *D gf180mcu_fd_sc_mcu7t5v0__clkbuf_8
*I *1577:I I *D gf180mcu_fd_sc_mcu7t5v0__clkbuf_8
*I *1576:I I *D gf180mcu_fd_sc_mcu7t5v0__clkbuf_8
*I *1575:I I *D gf180mcu_fd_sc_mcu7t5v0__clkbuf_8
*I *1574:I I *D gf180mcu_fd_sc_mcu7t5v0__clkbuf_8
*I *1588:I I *D gf180mcu_fd_sc_mcu7t5v0__clkbuf_8
*I *1587:I I *D gf180mcu_fd_sc_mcu7t5v0__clkbuf_8
*I *1585:I I *D gf180mcu_fd_sc_mcu7t5v0__clkbuf_8
*I *1582:I I *D gf180mcu_fd_sc_mcu7t5v0__clkbuf_8
*I *1581:I I *D gf180mcu_fd_sc_mcu7t5v0__clkbuf_8
*I *1580:I I *D gf180mcu_fd_sc_mcu7t5v0__clkbuf_8
*I *1573:I I *D gf180mcu_fd_sc_mcu7t5v0__clkbuf_8
*I *1584:I I *D gf180mcu_fd_sc_mcu7t5v0__clkbuf_8
*I *1583:I I *D gf180mcu_fd_sc_mcu7t5v0__clkbuf_8
*I *1572:Z O *D gf180mcu_fd_sc_mcu7t5v0__clkbuf_16
*CAP
1 *1578:I 0.000440703
2 *1586:I 0.000258432
3 *1579:I 0.00201672
4 *1577:I 9.28696e-05
5 *1576:I 0
6 *1575:I 0.000396871
7 *1574:I 0.00055755
8 *1588:I 0
9 *1587:I 0.000996237
10 *1585:I 0.000635298
11 *1582:I 0
12 *1581:I 0.00105717
13 *1580:I 0
14 *1573:I 0.000709085
15 *1584:I 9.16249e-05
16 *1583:I 0
17 *1572:Z 0
18 *294:171 0.00199198
19 *294:161 0.000812934
20 *294:131 0.00173475
21 *294:115 0.00109865
22 *294:99 0.00189661
23 *294:97 0.00145917
24 *294:65 0.00159758
25 *294:63 0.000917276
26 *294:41 0.000776199
27 *294:19 0.00107787
28 *294:9 0.00208018
29 *294:7 0.00233326
30 *294:5 0.00169372
31 *1573:I *1330:A4 5.46677e-05
32 *1573:I *1492:I 0.00131497
33 *1573:I *341:18 4.50575e-05
34 *1573:I *351:12 0.000199278
35 *1573:I *397:12 0.000464008
36 *1574:I *1313:A1 0.00017114
37 *1574:I *1313:A2 7.32863e-05
38 *1574:I *1416:A1 0
39 *1574:I *1420:A1 1.9669e-05
40 *1574:I *1420:B2 0.000118787
41 *1574:I *1624:I 0
42 *1574:I *312:16 8.25022e-05
43 *1575:I *1313:A3 6.28203e-05
44 *1575:I *1313:B 0
45 *1575:I *1624:I 7.78879e-05
46 *1575:I *1646:I 0.000195166
47 *1578:I *1503:I 6.56921e-05
48 *1578:I *1549:CLK 0
49 *1578:I *301:10 0
50 *1579:I *1257:I 8.18357e-06
51 *1579:I *1401:A1 1.91996e-05
52 *1579:I *1402:A1 0.000143721
53 *1579:I *1404:A1 3.22108e-05
54 *1579:I *1503:I 0
55 *1579:I *1555:CLK 3.4484e-05
56 *1579:I *301:10 0
57 *1579:I *316:57 4.07109e-05
58 *1579:I *319:40 0.000293486
59 *1579:I *418:12 0
60 *1579:I *423:14 5.77431e-06
61 *1581:I *1232:I 0
62 *1581:I *1356:A1 0
63 *1581:I *1385:A1 5.29249e-05
64 *1581:I *1635:I 0
65 *1581:I *328:47 1.18566e-06
66 *1584:I *335:26 0.000201707
67 *1585:I *1361:A1 0.000150784
68 *1585:I *1385:A1 6.54608e-05
69 *1585:I *329:10 1.41733e-05
70 *1585:I *354:29 0.000140672
71 *1585:I *389:8 9.17722e-05
72 *1586:I *1236:I 7.51266e-05
73 *1586:I *1600:I 0.000246039
74 *1586:I *354:23 8.08428e-05
75 *1586:I *354:53 2.05531e-05
76 *1586:I *389:8 1.10694e-05
77 *1586:I *432:14 4.28774e-05
78 *1587:I *1631:I 0
79 *1587:I *1645:I 2.18827e-05
80 *1587:I *360:25 0
81 *1587:I *363:52 0.00100004
82 *1587:I *406:10 2.43345e-05
83 *1587:I *406:12 0
84 *1587:I *406:36 0
85 *294:7 *1380:A1 8.41827e-06
86 *294:7 *1385:A1 0.000184792
87 *294:7 *1385:A2 0.000165792
88 *294:7 *1386:A2 0
89 *294:7 *1389:A2 0.000101539
90 *294:7 *1616:I 0.000120424
91 *294:7 *307:6 1.55925e-05
92 *294:7 *364:13 0.000230303
93 *294:9 *1363:A1 4.22374e-05
94 *294:9 *1363:A2 6.12327e-06
95 *294:9 *1483:I 0.000389139
96 *294:9 *1599:I 5.52709e-06
97 *294:9 *1616:I 0.000547963
98 *294:9 *307:6 7.39057e-05
99 *294:19 *1369:A2 0
100 *294:19 *1482:I 1.30757e-05
101 *294:19 *1597:I 0
102 *294:19 *1637:I 2.4598e-05
103 *294:19 *305:10 0.000138845
104 *294:19 *335:26 0.000133854
105 *294:19 *347:43 0.00019849
106 *294:19 *384:10 6.2878e-05
107 *294:19 *384:19 0.000101428
108 *294:41 *1369:A1 6.487e-05
109 *294:41 *1492:I 0.000137017
110 *294:65 *1361:A1 4.26239e-05
111 *294:65 *1361:A2 0.000121002
112 *294:65 *1385:A1 0.00031802
113 *294:65 *307:19 0
114 *294:65 *328:47 6.29019e-05
115 *294:97 *1387:I0 2.70178e-05
116 *294:97 *364:13 0.000501436
117 *294:97 *376:14 0.000120479
118 *294:99 *1261:A2 0
119 *294:99 *298:10 0.000271103
120 *294:99 *298:14 0.000581013
121 *294:99 *359:26 5.31184e-05
122 *294:99 *363:52 5.91212e-05
123 *294:115 *1646:I 0.000462478
124 *294:115 *311:36 0.000452197
125 *294:115 *363:52 0.000249532
126 *294:131 *1313:A2 1.58063e-05
127 *294:131 *1313:A3 4.40722e-05
128 *294:131 *1624:I 0.000183621
129 *294:131 *1646:I 0.000499677
130 *294:131 *311:36 0.000106496
131 *294:161 *1261:A2 0
132 *294:161 *298:10 0.000143503
133 *294:161 *418:12 1.06067e-05
134 *294:171 *1566:D 0.000129132
135 *294:171 *418:12 2.93608e-05
136 *294:171 *423:14 0.000104561
137 *1263:A1 *294:7 0.000147532
138 *1263:A1 *294:97 8.261e-05
139 *1270:A1 *294:161 4.31567e-05
140 *1278:A1 *294:19 7.98709e-05
141 *1279:B2 *294:19 0.000105572
142 *1280:B *1584:I 0.00011347
143 *1280:B *294:19 1.10694e-05
144 *1281:A1 *1586:I 3.01315e-05
145 *1281:B2 *1586:I 6.25168e-05
146 *1293:A2 *1577:I 0.000133258
147 *1297:A1 *1579:I 6.23713e-05
148 *1297:A1 *294:171 0
149 *1310:A3 *1575:I 0.000202476
150 *1342:A1 *1581:I 3.41096e-05
151 *1360:A1 *1581:I 5.68596e-05
152 *1362:B *294:65 0.000262884
153 *1364:B *294:9 6.86164e-05
154 *1368:A1 *1573:I 0
155 *1370:A1 *294:19 0
156 *1370:B *1573:I 0.00050635
157 *1370:B *294:41 0.000301087
158 *1372:A1 *294:19 3.44266e-05
159 *1379:A1 *1585:I 0
160 *1391:A2 *1579:I 0.000108297
161 *1391:A3 *1579:I 0
162 *1401:A2 *1579:I 0.000111905
163 *1402:A3 *1579:I 6.95257e-05
164 *1419:A1 *1574:I 2.77037e-05
165 *1517:RN *294:161 0.000173585
166 *1518:D *1587:I 7.3514e-05
167 *1518:D *294:99 0.0003899
168 *1519:D *294:7 0
169 *1521:RN *294:7 2.94992e-05
170 *1527:D *294:9 0
171 *1527:D *294:19 0
172 *1528:RN *294:9 4.48311e-05
173 *1531:D *294:7 5.00508e-06
174 *1541:RN *1581:I 3.20057e-06
175 *1542:D *1581:I 0.000705945
176 *1542:RN *294:7 0
177 *1549:D *1578:I 0
178 *1549:RN *1578:I 0.000302151
179 *1572:I *1579:I 0.000272985
180 *1572:I *294:161 3.17907e-05
181 *1572:I *294:171 0.00031515
182 *1617:I *1581:I 0.000767316
183 *141:25 *1581:I 5.12018e-05
184 *143:8 *294:7 9.23885e-05
185 *149:8 *294:19 0
186 *150:6 *294:19 0.000101131
187 *154:6 *294:7 0
188 *154:23 *294:7 0
189 *201:14 *1577:I 6.64318e-05
190 *201:14 *294:171 2.01852e-05
191 *218:10 *1575:I 1.20974e-05
192 *233:18 *294:131 2.22419e-05
193 *261:8 *1579:I 0.000345896
194 *261:19 *1579:I 2.14739e-05
195 *271:10 *1574:I 0.000723983
196 *271:18 *1574:I 2.96776e-06
*RES
1 *1572:Z *294:5 4.5 
2 *294:5 *294:7 10.504 
3 *294:7 *294:9 8.84 
4 *294:9 *294:19 13.444 
5 *294:19 *1583:I 9 
6 *294:19 *1584:I 10.352 
7 *294:9 *294:41 6.268 
8 *294:41 *1573:I 18.984 
9 *294:41 *1580:I 9 
10 *294:7 *294:63 4.5 
11 *294:63 *294:65 5.928 
12 *294:65 *1581:I 18.672 
13 *294:65 *1582:I 9 
14 *294:63 *1585:I 13.264 
15 *294:5 *294:97 8.348 
16 *294:97 *294:99 8.008 
17 *294:99 *1587:I 17.112 
18 *294:99 *294:115 9.388 
19 *294:115 *1588:I 4.5 
20 *294:115 *294:131 7.176 
21 *294:131 *1574:I 19.844 
22 *294:131 *1575:I 8.14 
23 *294:97 *294:161 9.284 
24 *294:161 *1576:I 4.5 
25 *294:161 *294:171 3.744 
26 *294:171 *1577:I 14.436 
27 *294:171 *1579:I 17.708 
28 *1585:I *1586:I 21.432 
29 *1579:I *1578:I 22.16 
*END

*D_NET *295 0.00671122
*CONN
*I *1538:CLK I *D gf180mcu_fd_sc_mcu7t5v0__dffrnq_1
*I *1536:CLK I *D gf180mcu_fd_sc_mcu7t5v0__dffrnq_1
*I *1537:CLK I *D gf180mcu_fd_sc_mcu7t5v0__dffrnq_1
*I *1589:I I *D gf180mcu_fd_sc_mcu7t5v0__clkbuf_2
*I *1532:CLK I *D gf180mcu_fd_sc_mcu7t5v0__dffrnq_1
*I *1573:Z O *D gf180mcu_fd_sc_mcu7t5v0__clkbuf_8
*CAP
1 *1538:CLK 0
2 *1536:CLK 0.000242873
3 *1537:CLK 0.000579384
4 *1589:I 8.55868e-05
5 *1532:CLK 0.000726078
6 *1573:Z 0.00089108
7 *295:22 0.000918063
8 *295:20 0.000495965
9 *295:18 0.000165003
10 *1532:CLK *1357:I0 0
11 *1532:CLK *1652:I 0
12 *1536:CLK *1352:S 0.000582267
13 *1536:CLK *1492:I 0.000192311
14 *1536:CLK *1652:I 0.000228047
15 *1536:CLK *331:20 0
16 *1537:CLK *1353:I0 0
17 *1537:CLK *1353:I1 0.000103043
18 *1537:CLK *1353:S 0
19 *1537:CLK *1371:A1 6.57403e-05
20 *1589:I *1492:I 5.84336e-05
21 *295:22 *1492:I 0.000334677
22 *1532:D *1532:CLK 2.73715e-06
23 *1536:D *1589:I 0
24 *1536:D *295:22 0
25 *1537:D *1532:CLK 5.45754e-05
26 *1537:D *1537:CLK 0.000428493
27 *1537:RN *1532:CLK 7.87019e-05
28 *1538:D *1532:CLK 1.12191e-05
29 *1538:D *295:18 0.000466947
*RES
1 *1573:Z *1532:CLK 14.72 
2 *1573:Z *295:18 5.852 
3 *295:18 *295:20 4.5 
4 *295:20 *295:22 2.392 
5 *295:22 *1589:I 9.52 
6 *295:22 *1537:CLK 13.784 
7 *295:20 *1536:CLK 11.912 
8 *295:18 *1538:CLK 4.5 
*END

*D_NET *296 0.0114416
*CONN
*I *1601:I I *D gf180mcu_fd_sc_mcu7t5v0__clkbuf_2
*I *1545:CLK I *D gf180mcu_fd_sc_mcu7t5v0__dffsnq_1
*I *1546:CLK I *D gf180mcu_fd_sc_mcu7t5v0__dffrnq_1
*I *1561:CLK I *D gf180mcu_fd_sc_mcu7t5v0__dffrnq_1
*I *1560:CLK I *D gf180mcu_fd_sc_mcu7t5v0__dffrnq_1
*I *1574:Z O *D gf180mcu_fd_sc_mcu7t5v0__clkbuf_8
*CAP
1 *1601:I 0
2 *1545:CLK 0
3 *1546:CLK 0.000774217
4 *1561:CLK 0.000629319
5 *1560:CLK 0
6 *1574:Z 0.000491458
7 *296:38 0.00147736
8 *296:16 0.000793167
9 *296:14 0.0011641
10 *296:8 0.000788568
11 *1546:CLK *1338:C 0
12 *1546:CLK *1659:I 0.00222218
13 *1546:CLK *361:51 0
14 *1546:CLK *373:10 0.000107022
15 *296:8 *1308:A1 0.0002623
16 *296:8 *1308:A2 8.27533e-05
17 *296:8 *361:22 9.17681e-06
18 *296:8 *408:21 0.000113016
19 *296:14 *409:14 0.000115715
20 *296:38 *409:21 0
21 sda_out *1561:CLK 9.01468e-05
22 *1333:A2 *1546:CLK 1.23331e-05
23 *1338:B *296:38 2.93608e-05
24 *1339:A2 *296:38 2.38865e-05
25 *1414:A2 *1561:CLK 1.91601e-05
26 *1415:A1 *1561:CLK 0.000100568
27 *1418:A2 *296:14 3.44395e-05
28 *1418:A2 *296:38 2.36218e-05
29 *1419:A1 *1561:CLK 8.75081e-05
30 *1419:A2 *1561:CLK 6.18411e-06
31 *1419:A2 *296:16 4.17974e-05
32 *1419:A2 *296:38 1.78817e-06
33 *1545:D *296:38 6.18411e-06
34 *1546:D *1546:CLK 0.000213199
35 *1560:D *1561:CLK 0.000790681
36 *1561:D *1561:CLK 3.14958e-05
37 *212:12 *296:8 0.000240359
38 *273:12 *296:14 0.000654124
39 *273:12 *296:38 4.4504e-06
*RES
1 *1574:Z *296:8 9.284 
2 *296:8 *296:14 12.016 
3 *296:14 *296:16 1.144 
4 *296:16 *1560:CLK 4.5 
5 *296:16 *1561:CLK 11.156 
6 *296:14 *296:38 5.2 
7 *296:38 *1546:CLK 22.028 
8 *296:38 *1545:CLK 4.5 
9 *296:8 *1601:I 4.5 
*END

*D_NET *297 0.0179334
*CONN
*I *1547:CLK I *D gf180mcu_fd_sc_mcu7t5v0__dffrnq_1
*I *1563:CLK I *D gf180mcu_fd_sc_mcu7t5v0__dffrnq_1
*I *1564:CLK I *D gf180mcu_fd_sc_mcu7t5v0__dffrnq_1
*I *1602:I I *D gf180mcu_fd_sc_mcu7t5v0__clkbuf_2
*I *1569:CLK I *D gf180mcu_fd_sc_mcu7t5v0__dffsnq_1
*I *1575:Z O *D gf180mcu_fd_sc_mcu7t5v0__clkbuf_8
*CAP
1 *1547:CLK 0.000787562
2 *1563:CLK 0.000256351
3 *1564:CLK 0.000755401
4 *1602:I 0
5 *1569:CLK 0.000807514
6 *1575:Z 0.000787562
7 *297:29 0.000942167
8 *297:25 0.000629398
9 *297:4 0.000993796
10 *1547:CLK *1625:I 0.000557671
11 *1547:CLK *1646:I 0
12 *1547:CLK *340:17 0.000185295
13 *1547:CLK *412:21 0.000139051
14 *1547:CLK *413:12 6.69436e-05
15 *1547:CLK *413:18 8.30524e-05
16 *1563:CLK *339:8 5.25526e-05
17 *1563:CLK *339:30 0.000346003
18 *1564:CLK *1663:I 0.0021038
19 *1569:CLK *1306:A3 0.000248317
20 *1569:CLK *1413:A1 6.99018e-05
21 *1569:CLK *1416:A1 6.91919e-05
22 *1569:CLK *1420:A1 5.41707e-06
23 *1569:CLK *1623:I 0.000387488
24 *1569:CLK *1624:I 0.00100399
25 *1569:CLK *337:19 0
26 *1569:CLK *337:44 0.000288316
27 *1569:CLK *411:12 0.000387124
28 *1569:CLK *412:23 6.30882e-05
29 *1569:CLK *413:18 0.000463314
30 *297:25 *1453:I 3.97039e-05
31 *297:25 *337:44 7.22679e-05
32 *297:25 *413:18 4.18042e-05
33 *297:29 *1304:A1 1.28023e-05
34 *297:29 *1453:I 6.81831e-05
35 *297:29 *312:16 0
36 *1303:A1 *1564:CLK 0.000205993
37 *1309:A2 *1564:CLK 2.98738e-05
38 *1310:A2 *1547:CLK 0
39 *1405:A2 *1564:CLK 1.17531e-05
40 *1410:B2 *1569:CLK 5.41656e-05
41 *1416:A2 *1569:CLK 0.000122244
42 *1417:A1 *1563:CLK 0.000410048
43 *1417:A1 *297:25 6.50747e-05
44 *1417:A1 *297:29 2.3744e-05
45 *1420:B1 *1563:CLK 0.00047924
46 *1420:B1 *1569:CLK 2.39029e-05
47 *1421:A2 *1569:CLK 3.3698e-05
48 *1620:I *1569:CLK 0.000370356
49 *160:16 *297:29 1.77492e-05
50 *213:16 *1564:CLK 2.4956e-05
51 *233:18 *1547:CLK 0.000802158
52 *270:10 *1564:CLK 0.00132086
53 *271:12 *1569:CLK 0.0001339
54 *272:31 *1563:CLK 0.00108863
*RES
1 *1575:Z *297:4 4.5 
2 *297:4 *1569:CLK 15.42 
3 *297:4 *297:25 5.956 
4 *297:25 *297:29 6.06 
5 *297:29 *1602:I 4.5 
6 *297:29 *1564:CLK 13.34 
7 *297:25 *1563:CLK 13.472 
8 *1575:Z *1547:CLK 16.592 
*END

*D_NET *298 0.00943538
*CONN
*I *1521:CLK I *D gf180mcu_fd_sc_mcu7t5v0__dffrnq_1
*I *1591:I I *D gf180mcu_fd_sc_mcu7t5v0__clkbuf_2
*I *1553:CLK I *D gf180mcu_fd_sc_mcu7t5v0__dffrnq_1
*I *1565:CLK I *D gf180mcu_fd_sc_mcu7t5v0__dffrnq_1
*I *1517:CLK I *D gf180mcu_fd_sc_mcu7t5v0__dffrnq_1
*I *1576:Z O *D gf180mcu_fd_sc_mcu7t5v0__clkbuf_8
*CAP
1 *1521:CLK 0.000506454
2 *1591:I 0
3 *1553:CLK 3.63887e-05
4 *1565:CLK 0.000427196
5 *1517:CLK 0.000639264
6 *1576:Z 0.000238057
7 *298:25 0.00083459
8 *298:14 0.000747026
9 *298:10 0.000481268
10 *1517:CLK *1387:I1 0
11 *1517:CLK *359:26 0.000492635
12 *1521:CLK *1383:A2 0.000337769
13 *1521:CLK *1387:I1 0.000147649
14 *1521:CLK *1610:I 0
15 *1521:CLK *323:38 0.00120221
16 *1521:CLK *325:10 0
17 *1521:CLK *359:26 0.000113027
18 *1553:CLK *405:10 0.000122244
19 *1565:CLK *1646:I 4.66641e-05
20 *1565:CLK *405:10 0
21 *298:10 *1257:I 0
22 *298:10 *364:13 4.18157e-05
23 *298:14 *1257:I 0
24 *298:25 *1452:I 0.000476056
25 *298:25 *359:26 0.000500772
26 *298:25 *359:33 0.000550736
27 *298:25 *405:10 4.82113e-05
28 *1270:C *298:10 4.18157e-05
29 *1517:D *1521:CLK 8.52736e-05
30 *1518:D *1517:CLK 0.000125933
31 *1518:D *1521:CLK 1.46474e-05
32 *1521:D *1521:CLK 6.18411e-06
33 *1562:D *1565:CLK 1.83317e-05
34 *1569:SETN *298:25 0
35 *1612:I *1521:CLK 9.10643e-05
36 *217:16 *1565:CLK 6.64873e-05
37 *294:99 *298:10 0.000271103
38 *294:99 *298:14 0.000581013
39 *294:161 *298:10 0.000143503
*RES
1 *1576:Z *298:10 11.912 
2 *298:10 *298:14 7.932 
3 *298:14 *1517:CLK 6.372 
4 *298:14 *298:25 4.68 
5 *298:25 *1565:CLK 7.932 
6 *298:25 *1553:CLK 5.124 
7 *298:10 *1591:I 9 
8 *1517:CLK *1521:CLK 14.928 
*END

*D_NET *299 0.0108751
*CONN
*I *1558:CLK I *D gf180mcu_fd_sc_mcu7t5v0__dffrnq_1
*I *1552:CLK I *D gf180mcu_fd_sc_mcu7t5v0__dffrnq_1
*I *1551:CLK I *D gf180mcu_fd_sc_mcu7t5v0__dffrnq_1
*I *1592:I I *D gf180mcu_fd_sc_mcu7t5v0__clkbuf_2
*I *1566:CLK I *D gf180mcu_fd_sc_mcu7t5v0__dffrnq_1
*I *1577:Z O *D gf180mcu_fd_sc_mcu7t5v0__clkbuf_8
*CAP
1 *1558:CLK 0.000129295
2 *1552:CLK 0.000176877
3 *1551:CLK 5.86256e-05
4 *1592:I 0
5 *1566:CLK 0.000345728
6 *1577:Z 0.000471023
7 *299:48 0.0010954
8 *299:35 0.00124519
9 *299:6 0.000419411
10 *1551:CLK *416:20 1.19584e-05
11 *1552:CLK *365:23 0.000124643
12 *1558:CLK *1448:I 0.000148864
13 *1558:CLK *365:23 1.35134e-05
14 *1566:CLK *1265:A2 7.60808e-05
15 *1566:CLK *1295:A3 9.10689e-05
16 *1566:CLK *415:29 0.00058237
17 *1566:CLK *420:30 0.000194522
18 *299:6 *1265:A2 0.000179741
19 *299:6 *420:30 0.000446317
20 *299:35 *1265:A2 1.32276e-05
21 *299:35 *1301:A2 7.87449e-05
22 *299:35 *416:28 8.23267e-05
23 *299:48 *1294:A2 8.64179e-05
24 *299:48 *1300:A1 0
25 *299:48 *1301:A2 0.000123414
26 *299:48 *415:12 0.000105986
27 *1299:A2 *299:35 0
28 *1299:A2 *299:48 0
29 *1302:A3 *299:35 0.000805315
30 *1551:RN *1552:CLK 2.01691e-05
31 *1551:RN *1558:CLK 3.06285e-05
32 *1552:D *1552:CLK 0.000185664
33 *1609:I *1552:CLK 0.00137137
34 *1609:I *1558:CLK 0.000879994
35 *1621:I *1551:CLK 0.000269899
36 *1621:I *299:35 0
37 *137:14 *299:35 0.000187281
38 *157:12 *1551:CLK 0
39 *157:12 *299:35 0.000727982
40 *201:14 *1566:CLK 9.60848e-05
41 *201:14 *299:35 0
*RES
1 *1577:Z *299:6 5.852 
2 *299:6 *1566:CLK 16.828 
3 *299:6 *1592:I 4.5 
4 *1577:Z *299:35 14.2 
5 *299:35 *1551:CLK 9.728 
6 *299:35 *299:48 10.636 
7 *299:48 *1552:CLK 8.14 
8 *299:48 *1558:CLK 6.892 
*END

*D_NET *300 0.00851056
*CONN
*I *1562:CLK I *D gf180mcu_fd_sc_mcu7t5v0__dffrnq_1
*I *1548:CLK I *D gf180mcu_fd_sc_mcu7t5v0__dffrnq_1
*I *1550:CLK I *D gf180mcu_fd_sc_mcu7t5v0__dffrnq_1
*I *1593:I I *D gf180mcu_fd_sc_mcu7t5v0__clkbuf_2
*I *1554:CLK I *D gf180mcu_fd_sc_mcu7t5v0__dffrnq_1
*I *1578:Z O *D gf180mcu_fd_sc_mcu7t5v0__clkbuf_8
*CAP
1 *1562:CLK 0.000259069
2 *1548:CLK 0.000930205
3 *1550:CLK 0
4 *1593:I 0
5 *1554:CLK 0.000545138
6 *1578:Z 0.000184135
7 *300:12 0.000439114
8 *300:10 0.000257586
9 *300:8 0.00121888
10 *1548:CLK *1318:A2 5.47431e-06
11 *1548:CLK *1318:A3 4.75386e-05
12 *1548:CLK *1319:B 0.000139409
13 *1548:CLK *1320:A1 0.000143493
14 *1548:CLK *1327:A1 0
15 *1548:CLK *321:6 6.49637e-06
16 *1548:CLK *321:17 2.28589e-05
17 *1548:CLK *321:25 2.43266e-05
18 *1548:CLK *390:23 4.84242e-05
19 *1548:CLK *393:10 0
20 *1554:CLK *312:16 0.000456308
21 *1554:CLK *393:10 1.42358e-05
22 *1562:CLK *1444:I1 0
23 *1562:CLK *312:16 3.20647e-05
24 *300:8 *321:6 1.40331e-05
25 *300:10 *1320:A1 2.36218e-05
26 *300:10 *321:6 9.41008e-05
27 *300:12 *1229:I 4.84242e-05
28 *300:12 *1320:A1 3.17907e-05
29 *1320:A2 *300:8 0.000125251
30 *1321:A1 *1548:CLK 8.7794e-05
31 *1322:A1 *1554:CLK 0.000118787
32 *1322:A1 *300:10 0.000428493
33 *1322:A1 *300:12 0.000406983
34 *1322:A2 *300:8 0.000116578
35 *1322:A2 *300:10 4.67771e-06
36 *1322:B1 *1548:CLK 0.00073119
37 *1323:A1 *1548:CLK 0
38 *1326:A2 *1548:CLK 0.000735218
39 *1327:B *1548:CLK 3.34231e-05
40 *1328:A2 *1548:CLK 0
41 *1406:A1 *1562:CLK 0.000587924
42 *1406:A2 *1554:CLK 0
43 *1406:A2 *1562:CLK 7.87395e-06
44 *1547:RN *1548:CLK 0.000126399
45 *1548:D *1548:CLK 0
46 *1665:I *1548:CLK 6.40114e-06
47 *217:16 *1562:CLK 0
48 *224:8 *1548:CLK 0
49 *227:8 *1548:CLK 6.84289e-06
*RES
1 *1578:Z *300:8 6.372 
2 *300:8 *300:10 1.56 
3 *300:10 *300:12 1.56 
4 *300:12 *1554:CLK 16.412 
5 *300:12 *1593:I 4.5 
6 *300:10 *1550:CLK 4.5 
7 *300:8 *1548:CLK 22.86 
8 *1554:CLK *1562:CLK 11.704 
*END

*D_NET *301 0.00597185
*CONN
*I *1556:CLK I *D gf180mcu_fd_sc_mcu7t5v0__dffrnq_1
*I *1557:CLK I *D gf180mcu_fd_sc_mcu7t5v0__dffrnq_1
*I *1549:CLK I *D gf180mcu_fd_sc_mcu7t5v0__dffrnq_1
*I *1594:I I *D gf180mcu_fd_sc_mcu7t5v0__clkbuf_2
*I *1555:CLK I *D gf180mcu_fd_sc_mcu7t5v0__dffrnq_1
*I *1579:Z O *D gf180mcu_fd_sc_mcu7t5v0__clkbuf_8
*CAP
1 *1556:CLK 0
2 *1557:CLK 0.000418961
3 *1549:CLK 0.000446089
4 *1594:I 0
5 *1555:CLK 0.000255255
6 *1579:Z 0.000642406
7 *301:48 0.00106137
8 *301:10 0.000641922
9 *301:4 0.000832756
10 *1555:CLK *1445:I 0.000102348
11 *1555:CLK *1503:I 0.000276018
12 *1555:CLK *367:47 0.00047924
13 *1557:CLK *1392:A2 9.94797e-06
14 *1557:CLK *1400:A2 9.56769e-05
15 *1557:CLK *419:10 1.40331e-05
16 *1557:CLK *421:21 1.78817e-06
17 *301:10 *1445:I 0.000235458
18 *301:48 *1402:A2 0
19 *301:48 *419:10 0.000139043
20 *1397:A2 *1557:CLK 2.01254e-05
21 *1399:A2 *1557:CLK 2.70178e-05
22 *1400:A3 *1557:CLK 6.18147e-05
23 *1555:RN *301:48 0.000148864
24 *1556:D *1557:CLK 2.7239e-05
25 *1578:I *1549:CLK 0
26 *1578:I *301:10 0
27 *1579:I *1555:CLK 3.4484e-05
28 *1579:I *301:10 0
*RES
1 *1579:Z *301:4 4.5 
2 *301:4 *301:10 8.036 
3 *301:10 *1555:CLK 11.912 
4 *301:10 *1594:I 9 
5 *301:4 *1549:CLK 7.62 
6 *1579:Z *301:48 10.012 
7 *301:48 *1557:CLK 7.516 
8 *301:48 *1556:CLK 4.5 
*END

*D_NET *302 0.00709914
*CONN
*I *1534:CLK I *D gf180mcu_fd_sc_mcu7t5v0__dffrnq_1
*I *1526:CLK I *D gf180mcu_fd_sc_mcu7t5v0__dffrnq_1
*I *1590:I I *D gf180mcu_fd_sc_mcu7t5v0__clkbuf_2
*I *1524:CLK I *D gf180mcu_fd_sc_mcu7t5v0__dffrnq_1
*I *1528:CLK I *D gf180mcu_fd_sc_mcu7t5v0__dffrnq_1
*I *1580:Z O *D gf180mcu_fd_sc_mcu7t5v0__clkbuf_8
*CAP
1 *1534:CLK 0.000365874
2 *1526:CLK 0
3 *1590:I 0
4 *1524:CLK 0.000563602
5 *1528:CLK 0.000273966
6 *1580:Z 8.48539e-05
7 *302:27 0.0004432
8 *302:19 0.000602318
9 *302:6 0.000715666
10 *1524:CLK *348:16 0.000477377
11 *1524:CLK *351:6 7.13292e-05
12 *1524:CLK *396:14 4.07478e-05
13 *1528:CLK *1387:I1 0
14 *1528:CLK *345:56 0.000204124
15 *1528:CLK *397:12 0.000130148
16 *1534:CLK *311:26 0.0001579
17 *1534:CLK *351:6 0.000238588
18 *302:19 *1369:A1 0.000176056
19 *302:19 *1387:I1 0
20 *302:19 *326:8 0.00064089
21 *302:19 *341:12 4.99581e-05
22 *302:19 *345:56 0.000108322
23 *302:19 *397:12 3.86178e-05
24 *302:27 *326:8 0.000131542
25 *302:27 *345:56 8.58875e-05
26 *302:27 *370:10 0.000167561
27 *302:27 *396:14 0.000832916
28 *1368:B *1528:CLK 0.000497696
*RES
1 *1580:Z *302:6 5.228 
2 *302:6 *1528:CLK 7.62 
3 *302:6 *302:19 3.536 
4 *302:19 *302:27 12.328 
5 *302:27 *1524:CLK 6.788 
6 *302:27 *1590:I 4.5 
7 *302:19 *1526:CLK 4.5 
8 *1524:CLK *1534:CLK 12.328 
*END

*D_NET *303 0.00592682
*CONN
*I *1595:I I *D gf180mcu_fd_sc_mcu7t5v0__clkbuf_2
*I *1571:CLK I *D gf180mcu_fd_sc_mcu7t5v0__dffsnq_1
*I *1543:CLK I *D gf180mcu_fd_sc_mcu7t5v0__dffrnq_1
*I *1568:CLK I *D gf180mcu_fd_sc_mcu7t5v0__dffrnq_1
*I *1544:CLK I *D gf180mcu_fd_sc_mcu7t5v0__dffrnq_1
*I *1581:Z O *D gf180mcu_fd_sc_mcu7t5v0__clkbuf_8
*CAP
1 *1595:I 0
2 *1571:CLK 0.000544742
3 *1543:CLK 0
4 *1568:CLK 0.000285408
5 *1544:CLK 0
6 *1581:Z 0.000440005
7 *303:34 0.000863132
8 *303:13 0.000633604
9 *303:6 0.000469811
10 *1568:CLK *1458:I 2.38773e-05
11 *1571:CLK *1461:I 6.40114e-06
12 *1571:CLK *1490:I 0.000343529
13 *1571:CLK *1629:I 0
14 *1571:CLK *349:8 0.000215256
15 *1571:CLK *395:10 0.000573531
16 *303:13 *349:43 0
17 *303:34 *1341:A1 0.000113027
18 *303:34 *1629:I 0
19 *303:34 *1634:I 8.21146e-06
20 *303:34 *349:8 0.000186231
21 *303:34 *349:43 0.000238784
22 *1342:A2 *303:6 1.85523e-05
23 *1344:A2 *1568:CLK 4.18042e-05
24 *1543:D *1568:CLK 8.28681e-05
25 *1543:D *303:13 1.71326e-05
26 *1544:D *303:6 0.000126399
27 *1544:D *303:13 1.12327e-05
28 *1568:RN *1568:CLK 0.000169099
29 *1571:SETN *1571:CLK 3.04625e-05
30 *1656:I *1571:CLK 1.823e-05
31 *239:16 *1568:CLK 0.000183045
32 *239:33 *1568:CLK 8.7794e-05
33 *239:33 *303:6 5.45754e-05
34 *239:33 *303:13 0.000140071
*RES
1 *1581:Z *303:6 5.852 
2 *303:6 *1544:CLK 4.5 
3 *303:6 *303:13 3.016 
4 *303:13 *1568:CLK 7.828 
5 *303:13 *1543:CLK 4.5 
6 *1581:Z *303:34 7.724 
7 *303:34 *1571:CLK 19.116 
8 *303:34 *1595:I 4.5 
*END

*D_NET *304 0.00973548
*CONN
*I *1542:CLK I *D gf180mcu_fd_sc_mcu7t5v0__dffrnq_1
*I *1596:I I *D gf180mcu_fd_sc_mcu7t5v0__clkbuf_2
*I *1541:CLK I *D gf180mcu_fd_sc_mcu7t5v0__dffrnq_1
*I *1539:CLK I *D gf180mcu_fd_sc_mcu7t5v0__dffrnq_1
*I *1529:CLK I *D gf180mcu_fd_sc_mcu7t5v0__dffsnq_1
*I *1582:Z O *D gf180mcu_fd_sc_mcu7t5v0__clkbuf_8
*CAP
1 *1542:CLK 0.000113173
2 *1596:I 0.000273219
3 *1541:CLK 7.64919e-05
4 *1539:CLK 0.000551447
5 *1529:CLK 6.25227e-05
6 *1582:Z 0.000264303
7 *304:23 0.000818999
8 *304:19 0.00065201
9 *304:8 0.000401384
10 *1529:CLK *1330:A4 0.000137956
11 *1529:CLK *397:39 0.000408707
12 *1539:CLK *1354:S 6.8199e-07
13 *1539:CLK *1629:I 1.36858e-05
14 *1539:CLK *1652:I 0
15 *1539:CLK *349:23 9.69551e-05
16 *1542:CLK *311:26 0.00101328
17 *1542:CLK *332:16 0.000800373
18 *1596:I *1346:A2 0.000548443
19 *1596:I *1652:I 0.000220007
20 *304:8 *1330:A4 0.000799093
21 *304:8 *397:39 0.000268975
22 *304:19 *1634:I 0.000212324
23 *304:19 *1635:I 9.60672e-05
24 *304:19 *332:16 9.87827e-05
25 *304:23 *1348:A2 1.41661e-05
26 *304:23 *1495:I 1.5359e-05
27 *304:23 *1623:I 0
28 *304:23 *1634:I 0.000402842
29 *1346:A1 *1596:I 0.000105345
30 *1360:A1 *1596:I 9.09864e-05
31 *1539:D *1539:CLK 6.8199e-07
32 *1541:RN *1539:CLK 0.000242266
33 *1541:RN *1541:CLK 6.64873e-05
34 *1542:D *1596:I 5.13977e-05
35 *1544:RN *1539:CLK 2.46351e-05
36 *1544:RN *1541:CLK 6.37346e-05
37 *144:41 *304:19 0.000520846
38 *144:41 *304:23 0.00019369
39 *245:24 *1596:I 1.41642e-05
*RES
1 *1582:Z *304:8 6.996 
2 *304:8 *1529:CLK 5.644 
3 *304:8 *304:19 6.892 
4 *304:19 *304:23 7.1 
5 *304:23 *1539:CLK 8.556 
6 *304:23 *1541:CLK 5.332 
7 *304:19 *1596:I 12.432 
8 *1582:Z *1542:CLK 11.808 
*END

*D_NET *305 0.010861
*CONN
*I *1509:CLK I *D gf180mcu_fd_sc_mcu7t5v0__dffrnq_1
*I *1597:I I *D gf180mcu_fd_sc_mcu7t5v0__clkbuf_2
*I *1527:CLK I *D gf180mcu_fd_sc_mcu7t5v0__dffrnq_1
*I *1525:CLK I *D gf180mcu_fd_sc_mcu7t5v0__dffrnq_1
*I *1533:CLK I *D gf180mcu_fd_sc_mcu7t5v0__dffrnq_1
*I *1583:Z O *D gf180mcu_fd_sc_mcu7t5v0__clkbuf_8
*CAP
1 *1509:CLK 0.000452811
2 *1597:I 0.000409815
3 *1527:CLK 9.44732e-05
4 *1525:CLK 0
5 *1533:CLK 0.000305973
6 *1583:Z 0.00136169
7 *305:20 0.000948752
8 *305:10 0.00123632
9 *1509:CLK *1278:A2 0.000184177
10 *1509:CLK *1637:I 0.000296865
11 *1527:CLK *1613:I 5.41656e-05
12 *1527:CLK *327:20 0.000491544
13 *1533:CLK *1375:A2 0
14 *1533:CLK *371:6 1.37466e-05
15 *1597:I *1369:A2 5.03323e-05
16 *305:10 *384:10 0
17 *305:20 *1375:A2 0
18 *305:20 *1613:I 7.93118e-05
19 *305:20 *326:41 0
20 *305:20 *327:20 0.000957921
21 *305:20 *370:10 7.75174e-05
22 *1278:A1 *1509:CLK 0.00103808
23 *1279:B2 *305:10 1.95034e-05
24 *1292:B1 *1509:CLK 8.69655e-05
25 *1292:B1 *1597:I 0
26 *1358:S *305:20 1.38602e-05
27 *1372:A1 *1597:I 2.42026e-05
28 *1372:A1 *305:10 9.50858e-05
29 *1425:A3 *1509:CLK 2.36809e-05
30 *1524:RN *1533:CLK 0.000934795
31 *1524:RN *305:20 0.000415983
32 *1533:D *1509:CLK 0.000944197
33 *1534:RN *1533:CLK 6.95001e-05
34 *150:6 *1597:I 4.08451e-05
35 *294:19 *1597:I 0
36 *294:19 *305:10 0.000138845
*RES
1 *1583:Z *305:10 17.556 
2 *305:10 *305:20 15.136 
3 *305:20 *1533:CLK 7.516 
4 *305:20 *1525:CLK 4.5 
5 *305:10 *1527:CLK 5.852 
6 *1583:Z *1597:I 11.392 
7 *1583:Z *1509:CLK 15.136 
*END

*D_NET *306 0.00854833
*CONN
*I *1512:CLK I *D gf180mcu_fd_sc_mcu7t5v0__dffrnq_1
*I *1598:I I *D gf180mcu_fd_sc_mcu7t5v0__clkbuf_2
*I *1511:CLK I *D gf180mcu_fd_sc_mcu7t5v0__dffrnq_1
*I *1508:CLK I *D gf180mcu_fd_sc_mcu7t5v0__dffrnq_1
*I *1510:CLK I *D gf180mcu_fd_sc_mcu7t5v0__dffrnq_1
*I *1584:Z O *D gf180mcu_fd_sc_mcu7t5v0__clkbuf_8
*CAP
1 *1512:CLK 5.53181e-05
2 *1598:I 0.000185595
3 *1511:CLK 0
4 *1508:CLK 0.000407826
5 *1510:CLK 0.000258061
6 *1584:Z 0
7 *306:37 0.000313264
8 *306:30 0.000182975
9 *306:6 0.000915297
10 *306:4 0.000360033
11 *1508:CLK *1279:B1 0.000104482
12 *1508:CLK *1481:I 0.000113027
13 *1508:CLK *313:35 0.000288634
14 *1508:CLK *426:29 0.000137688
15 *1508:CLK *427:12 5.27208e-05
16 *1508:CLK *427:14 1.65487e-05
17 *1510:CLK *426:12 0.000103788
18 *1512:CLK *313:27 0.000569964
19 *1512:CLK *335:20 0.00021731
20 *1598:I *1240:I 6.31944e-05
21 *1598:I *1435:A1 0
22 *1598:I *429:18 0.000262946
23 *306:6 *313:27 7.17062e-05
24 *306:30 *313:27 6.77421e-05
25 *306:30 *335:20 0.000362738
26 *306:37 *313:27 0.000569953
27 *306:37 *335:20 0.000198112
28 *1276:A2 *1598:I 8.23267e-05
29 *1280:A1 *1508:CLK 0.000683259
30 *1431:A1 *306:6 0.000628535
31 *1431:A2 *306:6 0.000628535
32 *1431:A2 *306:30 0.00025082
33 *1433:A2 *1598:I 0.000116466
34 *1508:RN *1510:CLK 4.53712e-05
35 *1510:D *1510:CLK 1.05221e-05
36 *1510:D *306:6 6.57563e-06
37 *1607:I *1598:I 0
38 *182:12 *1598:I 0.000143493
39 *282:8 *1510:CLK 4.26306e-05
40 *282:8 *306:6 3.08757e-05
*RES
1 *1584:Z *306:4 4.5 
2 *306:4 *306:6 3.016 
3 *306:6 *1510:CLK 6.268 
4 *306:6 *1508:CLK 18.284 
5 *306:4 *306:30 1.664 
6 *306:30 *1511:CLK 4.5 
7 *306:30 *306:37 1.56 
8 *306:37 *1598:I 15.892 
9 *306:37 *1512:CLK 6.06 
*END

*D_NET *307 0.00887781
*CONN
*I *1523:CLK I *D gf180mcu_fd_sc_mcu7t5v0__dffrnq_1
*I *1531:CLK I *D gf180mcu_fd_sc_mcu7t5v0__dffsnq_1
*I *1519:CLK I *D gf180mcu_fd_sc_mcu7t5v0__dffrnq_1
*I *1530:CLK I *D gf180mcu_fd_sc_mcu7t5v0__dffrnq_1
*I *1599:I I *D gf180mcu_fd_sc_mcu7t5v0__clkbuf_2
*I *1585:Z O *D gf180mcu_fd_sc_mcu7t5v0__clkbuf_8
*CAP
1 *1523:CLK 0.000251022
2 *1531:CLK 0
3 *1519:CLK 0.000764598
4 *1530:CLK 0.000343388
5 *1599:I 0.000202541
6 *1585:Z 0.000426114
7 *307:23 0.00125802
8 *307:19 0.000277511
9 *307:6 0.000505107
10 *1519:CLK *1365:A1 0.000103788
11 *1519:CLK *1387:I1 0
12 *1519:CLK *1618:I 0.000131287
13 *1519:CLK *1635:I 9.87902e-05
14 *1519:CLK *325:10 0.000135766
15 *1519:CLK *329:16 0
16 *1523:CLK *1473:I 0.000205716
17 *1523:CLK *1474:I 1.25323e-05
18 *1523:CLK *325:23 0.000500761
19 *1523:CLK *354:29 7.44831e-05
20 *1530:CLK *1365:A1 0.000165721
21 *1530:CLK *329:16 0
22 *1530:CLK *330:6 4.71367e-05
23 *1599:I *1363:A1 0.00010677
24 *1599:I *1380:A1 7.53004e-05
25 *1599:I *1483:I 0.000177729
26 *307:6 *1380:A1 0.000236752
27 *307:19 *1361:A1 0.000277579
28 *307:19 *1361:A2 4.98369e-05
29 *307:19 *1474:I 0.00019118
30 *307:19 *350:19 0.00071939
31 *307:23 *1361:A2 0.000173912
32 *307:23 *1496:I 0.000355275
33 *307:23 *328:47 0.000188241
34 *307:23 *350:19 0.000116476
35 *307:23 *400:36 8.38181e-05
36 *1362:B *1519:CLK 4.88451e-05
37 *1366:B *1530:CLK 0.000194522
38 *1529:SETN *1530:CLK 0.000148864
39 *1530:D *1530:CLK 0
40 *1531:SETN *1523:CLK 8.58959e-05
41 *1542:RN *1519:CLK 4.81167e-05
42 *294:7 *307:6 1.55925e-05
43 *294:9 *1599:I 5.52709e-06
44 *294:9 *307:6 7.39057e-05
45 *294:65 *307:19 0
*RES
1 *1585:Z *307:6 6.268 
2 *307:6 *1599:I 6.372 
3 *307:6 *307:19 6.892 
4 *307:19 *307:23 6.684 
5 *307:23 *1530:CLK 7.828 
6 *307:23 *1519:CLK 10.844 
7 *307:19 *1531:CLK 9 
8 *1585:Z *1523:CLK 11.808 
*END

*D_NET *308 0.00970506
*CONN
*I *1514:CLK I *D gf180mcu_fd_sc_mcu7t5v0__dffrnq_1
*I *1522:CLK I *D gf180mcu_fd_sc_mcu7t5v0__dffrnq_1
*I *1513:CLK I *D gf180mcu_fd_sc_mcu7t5v0__dffrnq_1
*I *1600:I I *D gf180mcu_fd_sc_mcu7t5v0__clkbuf_2
*I *1515:CLK I *D gf180mcu_fd_sc_mcu7t5v0__dffrnq_1
*I *1586:Z O *D gf180mcu_fd_sc_mcu7t5v0__clkbuf_8
*CAP
1 *1514:CLK 0
2 *1522:CLK 0.000495214
3 *1513:CLK 0
4 *1600:I 0.000413175
5 *1515:CLK 0.000135744
6 *1586:Z 0
7 *308:35 0.000852084
8 *308:26 0.000482032
9 *308:6 0.000567962
10 *308:4 0.000144205
11 *1515:CLK *1281:A2 0
12 *1522:CLK *1262:A1 4.91818e-05
13 *1522:CLK *1265:A1 0.000752333
14 *1522:CLK *1648:I 1.77303e-05
15 *1522:CLK *1649:I 4.31567e-05
16 *1522:CLK *380:8 0.000202054
17 *1600:I *354:53 0.00029898
18 *1600:I *432:8 0
19 *1600:I *432:14 0
20 *308:6 *1281:A2 0
21 *308:26 *1281:A2 0
22 *308:26 *356:8 1.19663e-05
23 *308:35 *1476:I 0.00011113
24 *308:35 *356:8 8.68743e-05
25 *308:35 *381:10 0.000256285
26 *308:35 *381:27 2.39156e-06
27 *1273:A3 *1522:CLK 0.00034637
28 *1381:A1 *1522:CLK 0.00055766
29 *1442:A2 *1515:CLK 7.87395e-06
30 *1443:A3 *1600:I 1.93816e-05
31 *1522:RN *308:35 0.0001133
32 *1586:I *1600:I 0.000246039
33 *1609:I *1522:CLK 4.98252e-05
34 *1621:I *1515:CLK 0.000569964
35 *1621:I *308:6 0.000113027
36 *1621:I *308:26 0.000487137
37 *1621:I *308:35 0.00221911
38 *155:25 *1522:CLK 5.28832e-05
*RES
1 *1586:Z *308:4 4.5 
2 *308:4 *308:6 0.312 
3 *308:6 *1515:CLK 6.06 
4 *308:6 *1600:I 17.764 
5 *308:4 *308:26 1.352 
6 *308:26 *1513:CLK 4.5 
7 *308:26 *308:35 6.24 
8 *308:35 *1522:CLK 20.364 
9 *308:35 *1514:CLK 4.5 
*END

*D_NET *309 0.00493129
*CONN
*I *1567:CLK I *D gf180mcu_fd_sc_mcu7t5v0__dffsnq_1
*I *1559:CLK I *D gf180mcu_fd_sc_mcu7t5v0__dffrnq_1
*I *1570:CLK I *D gf180mcu_fd_sc_mcu7t5v0__dffsnq_1
*I *1535:CLK I *D gf180mcu_fd_sc_mcu7t5v0__dffrnq_1
*I *1587:Z O *D gf180mcu_fd_sc_mcu7t5v0__clkbuf_8
*CAP
1 *1567:CLK 0.000137136
2 *1559:CLK 0.000784983
3 *1570:CLK 0.000483855
4 *1535:CLK 0.000125647
5 *1587:Z 0
6 *309:19 0.00167461
7 *309:6 0.000646674
8 *309:4 0.000252396
9 *1535:CLK *1645:I 4.10573e-06
10 *1535:CLK *360:25 0
11 *1559:CLK *1355:I1 0
12 *1567:CLK *1645:I 2.62781e-05
13 *1570:CLK *1355:I0 0.000171329
14 *1570:CLK *1355:I1 0
15 *309:6 *1645:I 2.28981e-05
16 *309:19 *1355:I0 0
17 *309:19 *1355:S 0.000302285
18 *1559:D *1559:CLK 0
19 *1568:D *1535:CLK 4.21691e-05
20 *1568:D *1567:CLK 0.000158905
21 *1568:D *309:6 9.80245e-05
22 *239:16 *1559:CLK 0
23 *239:16 *1570:CLK 0
*RES
1 *1587:Z *309:4 4.5 
2 *309:4 *309:6 1.144 
3 *309:6 *1535:CLK 5.228 
4 *309:6 *309:19 12.224 
5 *309:19 *1570:CLK 8.14 
6 *309:19 *1559:CLK 9.804 
7 *309:4 *1567:CLK 5.852 
*END

*D_NET *310 0.00821219
*CONN
*I *1516:CLK I *D gf180mcu_fd_sc_mcu7t5v0__dffsnq_1
*I *1540:CLK I *D gf180mcu_fd_sc_mcu7t5v0__dffrnq_1
*I *1520:CLK I *D gf180mcu_fd_sc_mcu7t5v0__dffrnq_1
*I *1518:CLK I *D gf180mcu_fd_sc_mcu7t5v0__dffsnq_1
*I *1588:Z O *D gf180mcu_fd_sc_mcu7t5v0__clkbuf_8
*CAP
1 *1516:CLK 0.00030666
2 *1540:CLK 0
3 *1520:CLK 0.000355112
4 *1518:CLK 0.00100389
5 *1588:Z 0.000399943
6 *310:35 0.000881653
7 *310:22 0.00153405
8 *1516:CLK *1355:I0 9.07895e-05
9 *1516:CLK *1390:I1 0.000124466
10 *1516:CLK *1489:I 8.16884e-06
11 *1516:CLK *1644:I 0
12 *1516:CLK *334:27 8.85498e-05
13 *1518:CLK *1569:D 0.000203364
14 *1518:CLK *1623:I 3.07284e-05
15 *1518:CLK *346:12 8.75081e-05
16 *1520:CLK *311:36 0.000105345
17 *1520:CLK *324:20 0.000182145
18 *1520:CLK *324:26 4.18042e-05
19 *310:22 *311:36 7.77455e-05
20 *310:22 *324:20 0.000405897
21 *310:35 *1390:S 0
22 *310:35 *1619:I 7.81001e-06
23 *310:35 *1643:I 0
24 *310:35 *323:12 0.000680568
25 *310:35 *334:31 9.66623e-05
26 *1516:D *1516:CLK 0.000419265
27 *1520:D *1520:CLK 7.86954e-06
28 *1562:RN *1518:CLK 1.71326e-05
29 *233:18 *1518:CLK 0.000462993
30 *233:18 *1520:CLK 8.41771e-05
31 *233:18 *310:22 0.000507897
*RES
1 *1588:Z *1518:CLK 13.784 
2 *1518:CLK *310:22 10.74 
3 *310:22 *1520:CLK 7.516 
4 *310:22 *310:35 13.472 
5 *310:35 *1540:CLK 4.5 
6 *310:35 *1516:CLK 7.516 
*END

*D_NET *311 0.0272926
*CONN
*I *1444:I0 I *D gf180mcu_fd_sc_mcu7t5v0__mux2_2
*I *1565:D I *D gf180mcu_fd_sc_mcu7t5v0__dffrnq_1
*I *1654:Z O *D gf180mcu_fd_sc_mcu7t5v0__dlyb_1
*CAP
1 *1444:I0 0.000987665
2 *1565:D 0
3 *1654:Z 0.0033653
4 *311:36 0.0025199
5 *311:26 0.00489754
6 *1444:I0 *1260:I 5.47431e-06
7 *1444:I0 *1444:I1 1.78817e-06
8 *1444:I0 *1452:I 0
9 *1444:I0 *405:10 0
10 *311:26 *1345:A2 0.000569964
11 *311:26 *1357:I1 0.000219886
12 *311:26 *1490:I 1.63544e-05
13 *311:26 *1636:I 9.22469e-05
14 *311:26 *1653:I 0
15 *311:26 *1660:I 0
16 *311:26 *328:6 2.83206e-05
17 *311:26 *328:32 5.13217e-06
18 *311:26 *328:47 0
19 *311:26 *331:16 0.0018861
20 *311:26 *332:16 0.000375969
21 *311:26 *345:6 2.38773e-05
22 *311:26 *345:10 7.91253e-05
23 *311:26 *345:56 0.00298009
24 *311:26 *348:16 0.00037905
25 *311:26 *348:55 0.000144754
26 *311:26 *351:6 0
27 *311:26 *358:14 0.00116184
28 *311:36 *1235:I 0
29 *311:36 *1384:I0 0.000485392
30 *311:36 *1610:I 0
31 *311:36 *324:20 0.0022668
32 *311:36 *324:26 0.000103788
33 *311:36 *359:10 0.000119928
34 *311:36 *359:14 0
35 *311:36 *363:52 1.12246e-05
36 *311:36 *399:8 0
37 cap_ctrl[0] *311:26 1.07369e-05
38 *1332:A2 *311:26 0
39 *1332:A2 *311:36 2.36218e-05
40 *1366:B *311:26 0.000936492
41 *1368:B *311:26 5.01206e-05
42 *1406:A1 *1444:I0 8.96201e-05
43 *1406:A1 *311:36 3.41371e-05
44 *1516:SETN *311:36 0.0004162
45 *1520:CLK *311:36 0.000105345
46 *1526:D *311:26 9.48851e-05
47 *1532:RN *311:26 0
48 *1534:CLK *311:26 0.0001579
49 *1538:RN *311:26 3.11243e-05
50 *1540:RN *311:26 7.45646e-05
51 *1540:RN *311:36 0
52 *1542:CLK *311:26 0.00101328
53 *1553:D *1444:I0 0
54 *1562:D *1444:I0 9.80196e-06
55 *1620:I *311:36 9.74378e-05
56 *29:8 *1444:I0 3.56133e-05
57 *217:16 *1444:I0 2.76367e-05
58 *217:16 *311:36 0.000375216
59 *233:18 *311:36 0.000344871
60 *294:115 *311:36 0.000452197
61 *294:131 *311:36 0.000106496
62 *310:22 *311:36 7.77455e-05
*RES
1 *1654:Z *311:26 48.964 
2 *311:26 *311:36 22.388 
3 *311:36 *1565:D 9 
4 *311:36 *1444:I0 16.696 
*END

*D_NET *312 0.0212072
*CONN
*I *1659:I I *D gf180mcu_fd_sc_mcu7t5v0__dlyb_1
*I *1444:Z O *D gf180mcu_fd_sc_mcu7t5v0__mux2_2
*CAP
1 *1659:I 0.00332743
2 *1444:Z 0.00224659
3 *312:16 0.00557403
4 *1659:I *1231:I 0.000125251
5 *1659:I *1664:I 0.000124533
6 *1659:I *361:51 0
7 *312:16 *1304:A1 7.42486e-05
8 *312:16 *1304:A3 0.000166777
9 *312:16 *1305:A3 1.67036e-05
10 *312:16 *1307:A1 6.89509e-05
11 *312:16 *1313:A3 0.000420378
12 *312:16 *1315:A1 6.22117e-05
13 *312:16 *1420:A1 0.000145731
14 *312:16 *1420:B2 0
15 *312:16 *1664:I 0.00050979
16 *312:16 *361:22 0.000152714
17 *312:16 *408:32 3.6966e-05
18 *1310:A3 *312:16 0.000317564
19 *1315:A3 *312:16 0.000307657
20 *1333:A2 *312:16 0.000205191
21 *1333:B *1659:I 3.99399e-06
22 *1339:A1 *1659:I 0
23 *1409:A1 *312:16 2.81522e-06
24 *1414:A2 *312:16 1.23682e-05
25 *1546:CLK *1659:I 0.00222218
26 *1554:D *312:16 8.39223e-05
27 *1554:CLK *312:16 0.000456308
28 *1562:CLK *312:16 3.20647e-05
29 *1574:I *312:16 8.25022e-05
30 *1665:I *312:16 0
31 *160:12 *312:16 1.92092e-05
32 *160:16 *312:16 1.48534e-05
33 *212:12 *312:16 0.002107
34 *218:10 *312:16 0.00106292
35 *233:24 *312:16 0.000866996
36 *237:29 *312:16 8.61406e-05
37 *271:10 *312:16 0.000271239
38 *297:29 *312:16 0
*RES
1 *1444:Z *312:16 38.772 
2 *312:16 *1659:I 30.292 
*END

*D_NET *313 0.0165292
*CONN
*I *1432:A1 I *D gf180mcu_fd_sc_mcu7t5v0__nor4_1
*I *1429:A1 I *D gf180mcu_fd_sc_mcu7t5v0__nor3_1
*I *1425:A1 I *D gf180mcu_fd_sc_mcu7t5v0__nor3_1
*I *1422:A2 I *D gf180mcu_fd_sc_mcu7t5v0__nor3_1
*I *1435:A1 I *D gf180mcu_fd_sc_mcu7t5v0__nor4_1
*I *1603:Z O *D gf180mcu_fd_sc_mcu7t5v0__dlyb_1
*CAP
1 *1432:A1 0.000391658
2 *1429:A1 4.07993e-05
3 *1425:A1 4.49173e-05
4 *1422:A2 0.000322583
5 *1435:A1 0.000188226
6 *1603:Z 0.000146658
7 *313:53 0.00069456
8 *313:35 0.000974563
9 *313:27 0.00136417
10 *313:10 0.00082989
11 *1422:A2 *1422:A3 0.00163827
12 *1422:A2 *1481:I 0.000157034
13 *1422:A2 *352:30 7.17602e-05
14 *1422:A2 *357:8 3.18325e-05
15 *1425:A1 *1279:B1 0.000333743
16 *1425:A1 *1422:A3 0.000441226
17 *1432:A1 *1242:I 8.73926e-05
18 *1432:A1 *1429:A2 4.12917e-05
19 *1432:A1 *1432:A2 0.000194522
20 *1432:A1 *1638:I 9.58004e-06
21 *1435:A1 *429:29 0.000476175
22 *313:27 *335:20 1.26329e-05
23 *313:35 *1242:I 0.00051537
24 *313:35 *1279:B1 0.000531905
25 *313:35 *357:8 0.000764938
26 *313:35 *426:29 1.57182e-05
27 *313:53 *1242:I 0.00025098
28 *1280:A1 *313:35 0.000225966
29 *1283:A1 *1435:A1 0.000190584
30 *1430:A1 *313:27 0
31 *1430:A2 *313:27 0.000157331
32 *1431:A2 *313:27 0.000844759
33 *1432:A3 *313:27 0
34 *1432:A4 *313:27 0.000135894
35 *1433:A2 *1435:A1 0
36 *1433:A2 *313:10 0
37 *1508:CLK *313:35 0.000288634
38 *1510:D *1429:A1 7.39118e-06
39 *1510:D *1432:A1 0
40 *1510:D *313:27 5.26269e-05
41 *1511:D *313:27 2.06289e-05
42 *1512:D *313:10 0.000397744
43 *1512:CLK *313:27 0.000569964
44 *1598:I *1435:A1 0
45 *1607:I *1435:A1 0.000418233
46 *1607:I *313:10 0.00082319
47 *151:10 *1432:A1 0.000104974
48 *168:14 *313:35 0.000481086
49 *287:10 *313:10 3.99399e-06
50 *287:10 *313:27 0.000500761
51 *287:27 *313:10 2.36218e-05
52 *306:6 *313:27 7.17062e-05
53 *306:30 *313:27 6.77421e-05
54 *306:37 *313:27 0.000569953
*RES
1 *1603:Z *313:10 11.496 
2 *313:10 *1435:A1 11.496 
3 *313:10 *313:27 15.76 
4 *313:27 *313:35 12.716 
5 *313:35 *1422:A2 9.492 
6 *313:35 *1425:A1 5.852 
7 *313:27 *313:53 1.976 
8 *313:53 *1429:A1 9.312 
9 *313:53 *1432:A1 12.224 
*END

*D_NET *314 0.00315421
*CONN
*I *1438:A1 I *D gf180mcu_fd_sc_mcu7t5v0__nor3_1
*I *1443:A1 I *D gf180mcu_fd_sc_mcu7t5v0__nor3_1
*I *1604:Z O *D gf180mcu_fd_sc_mcu7t5v0__dlyb_1
*CAP
1 *1438:A1 0.000456871
2 *1443:A1 2.08474e-05
3 *1604:Z 0.00028776
4 *314:6 0.000765479
5 *1438:A1 *1438:A2 0
6 *1438:A1 *1439:A1 6.86347e-05
7 *1438:A1 *1468:I 0
8 *1438:A1 *1606:I 0.000866606
9 *1443:A1 *1606:I 5.13977e-05
10 *314:6 *1439:A1 0.000134462
11 *314:6 *1606:I 0.000457237
12 *1513:D *1438:A1 4.49163e-05
*RES
1 *1604:Z *314:6 7.724 
2 *314:6 *1443:A1 4.812 
3 *314:6 *1438:A1 8.764 
*END

*D_NET *315 0.0104153
*CONN
*I *1400:A2 I *D gf180mcu_fd_sc_mcu7t5v0__nor3_1
*I *1398:A2 I *D gf180mcu_fd_sc_mcu7t5v0__nor3_1
*I *1396:A2 I *D gf180mcu_fd_sc_mcu7t5v0__nor3_1
*I *1402:A2 I *D gf180mcu_fd_sc_mcu7t5v0__nor3_1
*I *1298:A2 I *D gf180mcu_fd_sc_mcu7t5v0__nor4_1
*I *1605:Z O *D gf180mcu_fd_sc_mcu7t5v0__dlyb_1
*CAP
1 *1400:A2 0.000132526
2 *1398:A2 0
3 *1396:A2 0.000591268
4 *1402:A2 0.000543953
5 *1298:A2 0.000460476
6 *1605:Z 0
7 *315:34 0.000747908
8 *315:32 0.000499705
9 *315:19 0.000907973
10 *315:6 0.000613958
11 *1298:A2 *1402:A1 0
12 *1298:A2 *1444:I1 0
13 *1298:A2 *1446:I 0
14 *1298:A2 *316:57 0.000337769
15 *1298:A2 *319:29 0.000129961
16 *1298:A2 *320:10 0
17 *1298:A2 *418:12 1.71324e-06
18 *1396:A2 *1447:I 0.000832916
19 *1396:A2 *1608:I 2.90272e-05
20 *1396:A2 *319:29 0.0004674
21 *1396:A2 *421:8 0
22 *1400:A2 *1400:A1 0.00021731
23 *1402:A2 *1394:A4 0.000654535
24 *1402:A2 *1402:A1 0.00018099
25 *1402:A2 *419:25 0.000516912
26 *1402:A2 *419:27 8.14957e-05
27 *1402:A2 *419:29 0.000500772
28 *1402:A2 *420:16 3.10787e-05
29 *315:19 *319:29 9.10801e-05
30 *315:19 *320:10 0
31 *315:32 *1392:A1 0
32 *315:32 *1397:A1 0.000188231
33 *315:32 *319:29 7.46165e-05
34 *315:32 *421:8 0.000728207
35 *315:34 *421:21 0
36 *1296:A2 *1298:A2 3.93494e-05
37 *1398:A3 *315:32 0.000107711
38 *1398:A3 *315:34 0
39 *1402:A3 *1402:A2 0
40 *1404:A4 *1298:A2 7.87395e-06
41 *1555:RN *1402:A2 0
42 *1557:D *1400:A2 0.000103788
43 *1557:D *315:34 0.00047924
44 *1557:CLK *1400:A2 9.56769e-05
45 *203:26 *1298:A2 1.99013e-05
46 *301:48 *1402:A2 0
*RES
1 *1605:Z *315:6 9 
2 *315:6 *1298:A2 12.536 
3 *315:6 *315:19 1.56 
4 *315:19 *1402:A2 14.72 
5 *315:19 *315:32 7.516 
6 *315:32 *315:34 1.352 
7 *315:34 *1396:A2 18.284 
8 *315:34 *1398:A2 4.5 
9 *315:32 *1400:A2 6.268 
*END

*D_NET *316 0.0158741
*CONN
*I *1404:A2 I *D gf180mcu_fd_sc_mcu7t5v0__nor4_1
*I *1605:I I *D gf180mcu_fd_sc_mcu7t5v0__dlyb_1
*I *1302:A2 I *D gf180mcu_fd_sc_mcu7t5v0__nor3_1
*I *1300:A2 I *D gf180mcu_fd_sc_mcu7t5v0__nor3_1
*I *1441:A1 I *D gf180mcu_fd_sc_mcu7t5v0__nor3_1
*I *1606:Z O *D gf180mcu_fd_sc_mcu7t5v0__dlyb_1
*CAP
1 *1404:A2 0.00017291
2 *1605:I 0
3 *1302:A2 0
4 *1300:A2 0
5 *1441:A1 0.000414255
6 *1606:Z 0.000121514
7 *316:57 0.00112141
8 *316:42 0.001717
9 *316:25 0.00173814
10 *316:8 0.00150541
11 *1404:A2 *1404:A1 4.67771e-06
12 *1404:A2 *319:40 9.41008e-05
13 *1441:A1 *1440:A1 0
14 *1441:A1 *431:10 0
15 *316:8 *431:10 0
16 *316:25 *1468:I 0.000139043
17 *316:25 *1606:I 1.06067e-05
18 *316:25 *336:6 0
19 *316:25 *365:23 0.000790237
20 *316:25 *431:10 0
21 *316:25 *431:25 0
22 *316:42 *1448:I 8.07956e-05
23 *316:42 *318:19 0
24 *316:42 *318:27 0.000689375
25 *316:42 *319:10 1.17984e-05
26 *316:42 *365:23 0.000515004
27 *316:42 *415:29 0.000497696
28 *316:57 *1257:I 0
29 *316:57 *1395:A1 0
30 *316:57 *1447:I 0.0027332
31 *316:57 *1608:I 1.26446e-05
32 *316:57 *318:27 4.18042e-05
33 *316:57 *318:36 0.000278372
34 *316:57 *319:40 0.000319799
35 *1296:A2 *316:57 5.63044e-06
36 *1297:A1 *316:57 6.32781e-05
37 *1297:A2 *316:57 5.63044e-06
38 *1298:A2 *316:57 0.000337769
39 *1299:A2 *316:25 1.40331e-05
40 *1299:A2 *316:42 0.000496136
41 *1395:A2 *316:57 0
42 *1396:A3 *316:42 6.41072e-05
43 *1396:A3 *316:57 7.16472e-05
44 *1401:A2 *1404:A2 1.07369e-05
45 *1404:A4 *1404:A2 2.98389e-05
46 *1404:A4 *316:57 2.47364e-05
47 *1437:A2 *1441:A1 0
48 *1438:A3 *1441:A1 7.03033e-05
49 *1438:A3 *316:8 1.51772e-05
50 *1440:A2 *316:25 0
51 *1514:RN *316:25 0.000237629
52 *1554:D *1404:A2 7.2883e-05
53 *1557:D *316:57 3.4596e-05
54 *1558:D *316:42 2.21751e-05
55 *1558:RN *316:42 0.000585142
56 *1572:I *316:42 0
57 *1572:I *316:57 0.00066212
58 *1579:I *316:57 4.07109e-05
59 *1609:I *316:25 0
60 *1609:I *316:42 0
*RES
1 *1606:Z *316:8 9.936 
2 *316:8 *1441:A1 12.016 
3 *316:8 *316:25 12.924 
4 *316:25 *1300:A2 4.5 
5 *316:25 *316:42 18.776 
6 *316:42 *1302:A2 4.5 
7 *316:42 *316:57 20.96 
8 *316:57 *1605:I 4.5 
9 *316:57 *1404:A2 6.164 
*END

*D_NET *317 0.00608629
*CONN
*I *1606:I I *D gf180mcu_fd_sc_mcu7t5v0__dlyb_1
*I *1604:I I *D gf180mcu_fd_sc_mcu7t5v0__dlyb_1
*I *1603:I I *D gf180mcu_fd_sc_mcu7t5v0__dlyb_1
*I *1607:Z O *D gf180mcu_fd_sc_mcu7t5v0__dlyb_1
*CAP
1 *1606:I 0.000749076
2 *1604:I 9.6575e-05
3 *1603:I 0.000223089
4 *1607:Z 0
5 *317:13 0.00107736
6 *317:4 0.000454802
7 *1606:I *1443:A2 8.95237e-05
8 *1606:I *1468:I 0
9 *1606:I *431:25 0.00108556
10 *317:13 *1439:A1 0
11 *1435:A4 *1603:I 2.38656e-05
12 *1438:A1 *1606:I 0.000866606
13 *1439:A3 *1604:I 0.000325271
14 *1443:A1 *1606:I 5.13977e-05
15 *1443:A3 *1606:I 4.49307e-05
16 *1515:D *1606:I 0.000159517
17 *1607:I *1603:I 0
18 *1607:I *317:13 0
19 *287:27 *1604:I 0.000292328
20 *287:33 *1606:I 7.85431e-05
21 *314:6 *1606:I 0.000457237
22 *316:25 *1606:I 1.06067e-05
*RES
1 *1607:Z *317:4 4.5 
2 *317:4 *1603:I 6.06 
3 *317:4 *317:13 1.56 
4 *317:13 *1604:I 15.06 
5 *317:13 *1606:I 12.924 
*END

*D_NET *318 0.00795837
*CONN
*I *1396:A1 I *D gf180mcu_fd_sc_mcu7t5v0__nor3_1
*I *1400:A1 I *D gf180mcu_fd_sc_mcu7t5v0__nor3_1
*I *1398:A1 I *D gf180mcu_fd_sc_mcu7t5v0__nor3_1
*I *1302:A1 I *D gf180mcu_fd_sc_mcu7t5v0__nor3_1
*I *1300:A1 I *D gf180mcu_fd_sc_mcu7t5v0__nor3_1
*I *1608:Z O *D gf180mcu_fd_sc_mcu7t5v0__dlyb_1
*CAP
1 *1396:A1 0
2 *1400:A1 0.000291903
3 *1398:A1 0
4 *1302:A1 0
5 *1300:A1 0.000245179
6 *1608:Z 4.35847e-05
7 *318:36 0.000503272
8 *318:27 0.000273945
9 *318:19 0.000759522
10 *318:6 0.000985709
11 *1400:A1 *319:29 9.35542e-06
12 *318:6 *336:6 4.18157e-05
13 *318:19 *1608:I 0
14 *318:19 *336:6 0.000386322
15 *318:27 *1608:I 0.000103788
16 *318:27 *319:10 3.62739e-05
17 *318:36 *1608:I 0.00033778
18 *318:36 *319:29 0.000598408
19 *1299:A2 *1300:A1 0.00052527
20 *1299:A2 *318:6 2.04597e-06
21 *1299:A2 *318:19 3.95998e-05
22 *1300:A3 *1300:A1 3.646e-05
23 *1396:A3 *318:27 0.000438808
24 *1400:A2 *1400:A1 0.00021731
25 *1557:D *1400:A1 0.000560736
26 *1557:D *318:36 1.40331e-05
27 *1558:D *318:19 0.000497696
28 *299:48 *1300:A1 0
29 *316:42 *318:19 0
30 *316:42 *318:27 0.000689375
31 *316:57 *318:27 4.18042e-05
32 *316:57 *318:36 0.000278372
*RES
1 *1608:Z *318:6 4.812 
2 *318:6 *1300:A1 15.892 
3 *318:6 *318:19 5.72 
4 *318:19 *318:27 11.08 
5 *318:27 *1302:A1 4.5 
6 *318:27 *318:36 3.12 
7 *318:36 *1398:A1 4.5 
8 *318:36 *1400:A1 7.516 
9 *318:19 *1396:A1 4.5 
*END

*D_NET *319 0.0178476
*CONN
*I *1404:A1 I *D gf180mcu_fd_sc_mcu7t5v0__nor4_1
*I *1402:A1 I *D gf180mcu_fd_sc_mcu7t5v0__nor3_1
*I *1444:I1 I *D gf180mcu_fd_sc_mcu7t5v0__mux2_2
*I *1298:A1 I *D gf180mcu_fd_sc_mcu7t5v0__nor4_1
*I *1608:I I *D gf180mcu_fd_sc_mcu7t5v0__dlyb_1
*I *1609:Z O *D gf180mcu_fd_sc_mcu7t5v0__dlyb_1
*CAP
1 *1404:A1 3.15885e-05
2 *1402:A1 0.000666147
3 *1444:I1 0.000753505
4 *1298:A1 0
5 *1608:I 0.000956883
6 *1609:Z 0.000119904
7 *319:42 0.00141965
8 *319:40 0.000294077
9 *319:29 0.000961889
10 *319:10 0.00177619
11 *1402:A1 *1401:A1 0
12 *1402:A1 *1446:I 4.93913e-05
13 *1402:A1 *320:10 0.000113027
14 *1402:A1 *420:14 1.18566e-06
15 *1444:I1 *1650:I 0.000174665
16 *1608:I *1395:A1 0
17 *1608:I *336:6 0.000148105
18 *319:29 *1447:I 0.000404976
19 *319:29 *421:8 1.99199e-05
20 *319:29 *421:37 0.000824108
21 *1296:A2 *1444:I1 0
22 *1298:A2 *1402:A1 0
23 *1298:A2 *1444:I1 0
24 *1298:A2 *319:29 0.000129961
25 *1391:A2 *1402:A1 0.000479251
26 *1396:A2 *1608:I 2.90272e-05
27 *1396:A2 *319:29 0.0004674
28 *1396:A3 *319:10 7.24282e-05
29 *1398:A3 *319:29 0.000542895
30 *1400:A1 *319:29 9.35542e-06
31 *1401:A2 *1404:A1 3.4596e-05
32 *1402:A2 *1402:A1 0.00018099
33 *1402:A3 *1402:A1 0.00057304
34 *1404:A2 *1404:A1 4.67771e-06
35 *1404:A2 *319:40 9.41008e-05
36 *1404:A3 *1444:I1 0.000280581
37 *1444:I0 *1444:I1 1.78817e-06
38 *1444:S *1444:I1 0.00028351
39 *1551:D *1608:I 0.000195711
40 *1554:D *1444:I1 0.000201957
41 *1554:RN *1444:I1 0.00080879
42 *1555:D *1402:A1 0.00133865
43 *1555:RN *1402:A1 3.57634e-06
44 *1558:RN *1608:I 4.91701e-05
45 *1562:CLK *1444:I1 0
46 *1572:I *319:10 0.000214059
47 *1579:I *1402:A1 0.000143721
48 *1579:I *1404:A1 3.22108e-05
49 *1579:I *319:40 0.000293486
50 *1621:I *1608:I 0
51 *29:8 *1444:I1 0
52 *203:26 *319:29 0.000673265
53 *261:19 *1402:A1 0.000333297
54 *261:19 *1444:I1 7.47044e-05
55 *315:19 *319:29 9.10801e-05
56 *315:32 *319:29 7.46165e-05
57 *316:42 *319:10 1.17984e-05
58 *316:57 *1608:I 1.26446e-05
59 *316:57 *319:40 0.000319799
60 *318:19 *1608:I 0
61 *318:27 *1608:I 0.000103788
62 *318:27 *319:10 3.62739e-05
63 *318:36 *1608:I 0.00033778
64 *318:36 *319:29 0.000598408
*RES
1 *1609:Z *319:10 15.476 
2 *319:10 *1608:I 11.884 
3 *319:10 *319:29 18.984 
4 *319:29 *1298:A1 4.5 
5 *319:29 *319:40 3.016 
6 *319:40 *319:42 4.5 
7 *319:42 *1444:I1 16.904 
8 *319:42 *1402:A1 26.112 
9 *319:40 *1404:A1 4.812 
*END

*D_NET *320 0.00371265
*CONN
*I *1392:A2 I *D gf180mcu_fd_sc_mcu7t5v0__nand2_1
*I *1393:A3 I *D gf180mcu_fd_sc_mcu7t5v0__nand3_1
*I *1394:A4 I *D gf180mcu_fd_sc_mcu7t5v0__nand4_1
*I *1658:Z O *D gf180mcu_fd_sc_mcu7t5v0__clkbuf_1
*CAP
1 *1392:A2 0.000173009
2 *1393:A3 0
3 *1394:A4 0.000315218
4 *1658:Z 0.000127616
5 *320:12 0.000315218
6 *320:10 0.000300625
7 *1392:A2 *1392:A1 0.000346468
8 *1392:A2 *1446:I 0.000489998
9 *1392:A2 *420:16 1.93777e-05
10 *1394:A4 *419:29 0.00016066
11 *1394:A4 *421:37 2.81522e-06
12 *320:10 *1446:I 0.000608792
13 *1298:A2 *320:10 0
14 *1391:A2 *1394:A4 0
15 *1399:A2 *1392:A2 7.53438e-05
16 *1402:A1 *320:10 0.000113027
17 *1402:A2 *1394:A4 0.000654535
18 *1557:CLK *1392:A2 9.94797e-06
19 *261:8 *1394:A4 0
20 *315:19 *320:10 0
*RES
1 *1658:Z *320:10 10.872 
2 *320:10 *320:12 4.5 
3 *320:12 *1394:A4 7.516 
4 *320:12 *1393:A3 4.5 
5 *320:10 *1392:A2 11.184 
*END

*D_NET *321 0.00513599
*CONN
*I *1326:A1 I *D gf180mcu_fd_sc_mcu7t5v0__oai22_1
*I *1323:A2 I *D gf180mcu_fd_sc_mcu7t5v0__nor2_1
*I *1319:B I *D gf180mcu_fd_sc_mcu7t5v0__aoi21_1
*I *1322:B2 I *D gf180mcu_fd_sc_mcu7t5v0__oai22_1
*I *1665:Z O *D gf180mcu_fd_sc_mcu7t5v0__clkbuf_1
*CAP
1 *1326:A1 0.000119238
2 *1323:A2 0
3 *1319:B 0.000199517
4 *1322:B2 0
5 *1665:Z 0.000163652
6 *321:25 0.000393744
7 *321:17 0.000562912
8 *321:6 0.000413099
9 *1326:A1 *1318:A2 0.000469419
10 *1326:A1 *1318:A3 5.49113e-05
11 *321:6 *1320:A1 0.000256274
12 *321:17 *1318:A2 4.18042e-05
13 *321:17 *1318:A3 4.18042e-05
14 *1320:A2 *321:6 3.4596e-05
15 *1320:A2 *321:17 0.000419276
16 *1321:A1 *321:6 0
17 *1323:A1 *1319:B 1.71326e-05
18 *1323:A1 *321:25 5.13977e-05
19 *1326:A2 *1319:B 0.000103788
20 *1326:A2 *1326:A1 2.89755e-05
21 *1326:A2 *321:17 0.00010319
22 *1327:B *1326:A1 0
23 *1328:A2 *1319:B 7.02352e-05
24 *1548:CLK *1319:B 0.000139409
25 *1548:CLK *321:6 6.49637e-06
26 *1548:CLK *321:17 2.28589e-05
27 *1548:CLK *321:25 2.43266e-05
28 *222:10 *1319:B 0.000116466
29 *222:23 *1319:B 0.00042999
30 *223:6 *321:17 0.00040915
31 *227:8 *321:25 4.07478e-05
32 *227:21 *321:25 0.000293451
33 *300:8 *321:6 1.40331e-05
34 *300:10 *321:6 9.41008e-05
*RES
1 *1665:Z *321:6 6.06 
2 *321:6 *1322:B2 4.5 
3 *321:6 *321:17 3.432 
4 *321:17 *321:25 11.496 
5 *321:25 *1319:B 16.1 
6 *321:25 *1323:A2 4.5 
7 *321:17 *1326:A1 6.268 
*END

*D_NET *322 0.0105581
*CONN
*I *1653:I I *D gf180mcu_fd_sc_mcu7t5v0__dlyb_1
*I *1655:Z O *D gf180mcu_fd_sc_mcu7t5v0__dlyb_1
*CAP
1 *1653:I 0.00203229
2 *1655:Z 0.00203229
3 *1653:I *1243:I 7.36158e-05
4 *1653:I *1357:I1 0.00144667
5 *1653:I *1359:I0 0.000200602
6 *1653:I *1359:I1 0
7 *1653:I *1375:A1 5.40307e-05
8 *1653:I *1641:I 2.21166e-05
9 *1653:I *1662:I 0
10 *1653:I *342:50 8.1882e-05
11 *1653:I *347:14 0.00029875
12 *1653:I *347:34 0.000382337
13 *1653:I *347:43 1.39347e-05
14 *1374:A1 *1653:I 5.63044e-06
15 *1524:RN *1653:I 0.000435879
16 *1525:RN *1653:I 0.00108863
17 *1526:RN *1653:I 0.0015295
18 *1533:D *1653:I 0.000853491
19 *1534:D *1653:I 6.40114e-06
20 *311:26 *1653:I 0
*RES
1 *1655:Z *1653:I 42.232 
*END

*D_NET *323 0.00934045
*CONN
*I *1390:S I *D gf180mcu_fd_sc_mcu7t5v0__mux2_2
*I *1387:S I *D gf180mcu_fd_sc_mcu7t5v0__mux2_2
*I *1388:A2 I *D gf180mcu_fd_sc_mcu7t5v0__nand2_1
*I *1383:A2 I *D gf180mcu_fd_sc_mcu7t5v0__oai21_1
*I *1382:A2 I *D gf180mcu_fd_sc_mcu7t5v0__nand2_1
*I *1610:Z O *D gf180mcu_fd_sc_mcu7t5v0__dlyb_1
*CAP
1 *1390:S 7.81888e-05
2 *1387:S 0
3 *1388:A2 2.24627e-05
4 *1383:A2 6.65985e-05
5 *1382:A2 0
6 *1610:Z 0.000232599
7 *323:38 0.000254123
8 *323:21 0.000617417
9 *323:12 0.000920216
10 *323:6 0.000911845
11 *1388:A2 *1387:I0 0.000447626
12 *1388:A2 *1651:I 0.000605863
13 *1388:A2 *374:19 6.41072e-05
14 *1390:S *1643:I 0.000355286
15 *323:6 *1623:I 4.79347e-05
16 *323:6 *346:12 0.0007145
17 *323:12 *1494:I 0
18 *323:12 *1619:I 0.000315237
19 *323:12 *1623:I 0.000148399
20 *323:12 *359:10 0
21 *323:21 *1494:I 0
22 *323:21 *1619:I 3.57296e-05
23 *323:21 *324:26 0
24 *323:38 *1388:A1 0
25 *323:38 *1611:I 0.000591484
26 *323:38 *325:10 0
27 *1383:A1 *323:21 3.48215e-05
28 *1383:A1 *323:38 1.77568e-05
29 *1517:D *323:38 8.10026e-05
30 *1521:CLK *1383:A2 0.000337769
31 *1521:CLK *323:38 0.00120221
32 *1612:I *1383:A2 0.000203244
33 *233:18 *323:6 0.000214903
34 *233:18 *323:12 0.000138566
35 *310:35 *1390:S 0
36 *310:35 *323:12 0.000680568
*RES
1 *1610:Z *323:6 7.308 
2 *323:6 *323:12 10.532 
3 *323:12 *1382:A2 9 
4 *323:12 *323:21 1.976 
5 *323:21 *1383:A2 10.248 
6 *323:21 *323:38 8.244 
7 *323:38 *1388:A2 15.06 
8 *323:38 *1387:S 4.5 
9 *323:6 *1390:S 14.436 
*END

*D_NET *324 0.0110828
*CONN
*I *1384:S I *D gf180mcu_fd_sc_mcu7t5v0__mux2_2
*I *1385:A2 I *D gf180mcu_fd_sc_mcu7t5v0__nand2_1
*I *1389:A2 I *D gf180mcu_fd_sc_mcu7t5v0__oai21_1
*I *1386:A2 I *D gf180mcu_fd_sc_mcu7t5v0__oai21_1
*I *1610:I I *D gf180mcu_fd_sc_mcu7t5v0__dlyb_1
*I *1611:Z O *D gf180mcu_fd_sc_mcu7t5v0__dlyb_1
*CAP
1 *1384:S 0
2 *1385:A2 0.000245271
3 *1389:A2 0.000186014
4 *1386:A2 0.000185543
5 *1610:I 0.000827964
6 *1611:Z 0.00050498
7 *324:37 0.000479686
8 *324:26 0.000646837
9 *324:20 0.000735878
10 *1385:A2 *1245:I 4.44673e-06
11 *1385:A2 *378:25 7.19592e-05
12 *1386:A2 *1388:A1 0.000103468
13 *1389:A2 *1388:A1 0
14 *1610:I *1387:I1 5.12575e-05
15 *1610:I *1494:I 0.000276007
16 *1610:I *359:10 0
17 *1610:I *359:14 0.000310595
18 *324:26 *1384:I0 0.000290168
19 *324:26 *1619:I 0.000102675
20 *324:26 *378:25 3.71367e-05
21 *324:37 *378:25 0.000103536
22 *1383:A1 *1385:A2 0.00017114
23 *1383:A1 *324:26 0.000533987
24 *1383:A1 *324:37 0.000219354
25 *1516:SETN *1610:I 0.000146025
26 *1518:D *1610:I 0.0001133
27 *1520:D *324:26 8.77606e-06
28 *1520:CLK *324:20 0.000182145
29 *1520:CLK *324:26 4.18042e-05
30 *1521:D *324:26 0.000680568
31 *1521:CLK *1610:I 0
32 *144:8 *324:26 0.000749394
33 *154:6 *1385:A2 2.90272e-05
34 *294:7 *1385:A2 0.000165792
35 *294:7 *1386:A2 0
36 *294:7 *1389:A2 0.000101539
37 *310:22 *324:20 0.000405897
38 *311:36 *1610:I 0
39 *311:36 *324:20 0.0022668
40 *311:36 *324:26 0.000103788
41 *323:21 *324:26 0
*RES
1 *1611:Z *1610:I 14.408 
2 *1610:I *324:20 10.636 
3 *324:20 *324:26 11.572 
4 *324:26 *1386:A2 10.352 
5 *324:26 *324:37 1.352 
6 *324:37 *1389:A2 10.352 
7 *324:37 *1385:A2 11.496 
8 *324:20 *1384:S 4.5 
*END

*D_NET *325 0.00918173
*CONN
*I *1611:I I *D gf180mcu_fd_sc_mcu7t5v0__dlyb_1
*I *1381:A2 I *D gf180mcu_fd_sc_mcu7t5v0__oai21_1
*I *1379:A2 I *D gf180mcu_fd_sc_mcu7t5v0__aoi21_1
*I *1378:A2 I *D gf180mcu_fd_sc_mcu7t5v0__nor2_1
*I *1380:A2 I *D gf180mcu_fd_sc_mcu7t5v0__nand2_1
*I *1612:Z O *D gf180mcu_fd_sc_mcu7t5v0__dlyb_1
*CAP
1 *1611:I 0.000294338
2 *1381:A2 0.000411138
3 *1379:A2 0
4 *1378:A2 0.000299312
5 *1380:A2 0
6 *1612:Z 0
7 *325:23 0.000399208
8 *325:19 0.000839775
9 *325:10 0.00138075
10 *325:4 0.00134634
11 *1378:A2 *354:29 9.65696e-05
12 *1378:A2 *354:53 4.28898e-05
13 *1381:A2 *1378:A1 7.11788e-06
14 *1611:I *1388:A1 0
15 *325:10 *1234:I 0.000447626
16 *325:10 *1388:A1 0.00199824
17 *325:10 *1618:I 0
18 *1379:A1 *1378:A2 0.000292328
19 *1379:A1 *325:10 0
20 *1379:A1 *325:19 0
21 *1381:B *1381:A2 0
22 *1381:B *325:19 0
23 *1383:A1 *1611:I 0
24 *1517:D *1611:I 0
25 *1519:D *325:10 0
26 *1519:CLK *325:10 0.000135766
27 *1521:D *325:10 3.32327e-05
28 *1521:CLK *325:10 0
29 *1523:D *1381:A2 6.8199e-07
30 *1523:D *325:23 6.41721e-05
31 *1523:CLK *325:23 0.000500761
32 *1612:I *325:10 0
33 *143:10 *325:10 0
34 *143:12 *325:10 0
35 *323:38 *1611:I 0.000591484
36 *323:38 *325:10 0
*RES
1 *1612:Z *325:4 4.5 
2 *325:4 *325:10 14.9 
3 *325:10 *1380:A2 9 
4 *325:10 *325:19 1.976 
5 *325:19 *325:23 5.852 
6 *325:23 *1378:A2 16.204 
7 *325:23 *1379:A2 4.5 
8 *325:19 *1381:A2 12.744 
9 *325:4 *1611:I 16.412 
*END

*D_NET *326 0.0163182
*CONN
*I *1376:A2 I *D gf180mcu_fd_sc_mcu7t5v0__aoi21_1
*I *1375:A2 I *D gf180mcu_fd_sc_mcu7t5v0__nor2_1
*I *1369:A2 I *D gf180mcu_fd_sc_mcu7t5v0__nor2_1
*I *1372:A2 I *D gf180mcu_fd_sc_mcu7t5v0__aoi21_1
*I *1371:A2 I *D gf180mcu_fd_sc_mcu7t5v0__nor2_1
*I *1613:Z O *D gf180mcu_fd_sc_mcu7t5v0__dlyb_1
*CAP
1 *1376:A2 3.6366e-05
2 *1375:A2 0.000324597
3 *1369:A2 0.000345311
4 *1372:A2 0
5 *1371:A2 0.000268594
6 *1613:Z 0
7 *326:41 0.000819838
8 *326:10 0.000331659
9 *326:8 0.00070066
10 *326:4 0.000751159
11 *1369:A2 *1369:A1 0.000206614
12 *1369:A2 *341:12 3.70435e-05
13 *1371:A2 *341:12 7.29199e-05
14 *1375:A2 *1488:I 1.07369e-05
15 *1375:A2 *347:14 3.43018e-05
16 *1375:A2 *348:33 0.000266665
17 *326:8 *341:12 0.000182208
18 *326:8 *345:56 2.83206e-05
19 *326:8 *396:14 0
20 *326:10 *341:12 0.000229344
21 *326:41 *345:56 0
22 *326:41 *348:33 5.78299e-05
23 *1279:B2 *1369:A2 0.000158209
24 *1292:B1 *1369:A2 3.57634e-06
25 *1370:A1 *1369:A2 0.00261166
26 *1372:A1 *1369:A2 0.0027105
27 *1372:A1 *1371:A2 0.000208806
28 *1372:A1 *326:10 0.000540577
29 *1372:B *1371:A2 0.000990996
30 *1376:A1 *1375:A2 0.000419276
31 *1524:D *326:41 0.000106908
32 *1526:D *326:8 0.000269899
33 *1527:RN *1369:A2 4.3257e-05
34 *1533:CLK *1375:A2 0
35 *1534:RN *1375:A2 1.63326e-05
36 *1538:RN *1371:A2 0.00271127
37 *1597:I *1369:A2 5.03323e-05
38 *294:19 *1369:A2 0
39 *302:19 *326:8 0.00064089
40 *302:27 *326:8 0.000131542
41 *305:20 *1375:A2 0
42 *305:20 *326:41 0
*RES
1 *1613:Z *326:4 4.5 
2 *326:4 *326:8 7.932 
3 *326:8 *326:10 1.56 
4 *326:10 *1371:A2 16.592 
5 *326:10 *1372:A2 9 
6 *326:8 *1369:A2 18.776 
7 *326:4 *326:41 3.12 
8 *326:41 *1375:A2 7.828 
9 *326:41 *1376:A2 4.812 
*END

*D_NET *327 0.00559696
*CONN
*I *1374:A2 I *D gf180mcu_fd_sc_mcu7t5v0__aoi21_1
*I *1373:A2 I *D gf180mcu_fd_sc_mcu7t5v0__nor2_1
*I *1370:A2 I *D gf180mcu_fd_sc_mcu7t5v0__aoi21_1
*I *1614:Z O *D gf180mcu_fd_sc_mcu7t5v0__dlyb_1
*CAP
1 *1374:A2 0.000204347
2 *1373:A2 0.000320958
3 *1370:A2 0.000103981
4 *1614:Z 0.000898105
5 *327:20 0.00131943
6 *1370:A2 *330:10 2.38656e-05
7 *1374:A2 *1290:A4 0.000110509
8 *1374:A2 *382:8 0.000464112
9 *327:20 *1613:I 2.28534e-05
10 *327:20 *330:10 0
11 *327:20 *342:50 0.000439467
12 *1358:S *1374:A2 2.21533e-05
13 *1374:B *1373:A2 0.000174669
14 *1374:B *327:20 4.67771e-06
15 *1524:RN *1373:A2 3.83663e-05
16 *1527:CLK *327:20 0.000491544
17 *305:20 *327:20 0.000957921
*RES
1 *1614:Z *1370:A2 9.832 
2 *1614:Z *327:20 11.884 
3 *327:20 *1373:A2 6.892 
4 *327:20 *1374:A2 15.268 
*END

*D_NET *328 0.00682637
*CONN
*I *1361:A2 I *D gf180mcu_fd_sc_mcu7t5v0__nand2_1
*I *1365:A2 I *D gf180mcu_fd_sc_mcu7t5v0__nand2_1
*I *1368:A2 I *D gf180mcu_fd_sc_mcu7t5v0__aoi21_1
*I *1366:A2 I *D gf180mcu_fd_sc_mcu7t5v0__oai21_1
*I *1367:A2 I *D gf180mcu_fd_sc_mcu7t5v0__nor2_1
*I *1615:Z O *D gf180mcu_fd_sc_mcu7t5v0__dlyb_1
*CAP
1 *1361:A2 0.000289136
2 *1365:A2 0
3 *1368:A2 0.000302239
4 *1366:A2 0
5 *1367:A2 6.15797e-05
6 *1615:Z 5.36415e-05
7 *328:47 0.000866317
8 *328:32 0.00106798
9 *328:10 0.000376228
10 *328:6 0.000556846
11 *1361:A2 *1361:A1 0.000178559
12 *1361:A2 *1616:I 3.42651e-05
13 *1367:A2 *1330:A4 4.18042e-05
14 *1367:A2 *1347:A1 6.55615e-05
15 *1367:A2 *398:27 3.3698e-05
16 *1368:A2 *1387:I1 0.000214453
17 *328:10 *1347:A1 1.23748e-05
18 *328:10 *332:16 0
19 *328:10 *342:50 0
20 *328:10 *400:36 0
21 *328:47 *1387:I1 0.000134839
22 *328:47 *1635:I 0.000680568
23 *328:47 *332:16 9.57819e-06
24 *328:47 *400:36 5.62607e-06
25 *1366:A1 *1367:A2 0.000115856
26 *1366:A1 *328:10 7.29199e-05
27 *1366:B *328:47 4.04633e-05
28 *1368:B *1368:A2 8.49787e-05
29 *1368:B *328:6 3.4596e-05
30 *1368:B *328:10 0.000177599
31 *1528:D *1368:A2 0.0004162
32 *1531:D *1361:A2 0.000260055
33 *1581:I *328:47 1.18566e-06
34 *1617:I *328:47 7.87395e-06
35 *294:65 *1361:A2 0.000121002
36 *294:65 *328:47 6.29019e-05
37 *307:19 *1361:A2 4.98369e-05
38 *307:23 *1361:A2 0.000173912
39 *307:23 *328:47 0.000188241
40 *311:26 *328:6 2.83206e-05
41 *311:26 *328:32 5.13217e-06
42 *311:26 *328:47 0
*RES
1 *1615:Z *328:6 5.228 
2 *328:6 *328:10 7.1 
3 *328:10 *1367:A2 10.04 
4 *328:10 *1366:A2 9 
5 *328:6 *328:32 1.04 
6 *328:32 *1368:A2 8.244 
7 *328:32 *328:47 9.908 
8 *328:47 *1365:A2 9 
9 *328:47 *1361:A2 12.432 
*END

*D_NET *329 0.00859747
*CONN
*I *1362:A2 I *D gf180mcu_fd_sc_mcu7t5v0__oai21_1
*I *1364:A2 I *D gf180mcu_fd_sc_mcu7t5v0__aoi21_1
*I *1363:A2 I *D gf180mcu_fd_sc_mcu7t5v0__nor2_1
*I *1616:Z O *D gf180mcu_fd_sc_mcu7t5v0__dlyb_1
*CAP
1 *1362:A2 2.31576e-05
2 *1364:A2 0
3 *1363:A2 0.000420046
4 *1616:Z 0.000150436
5 *329:16 0.000952127
6 *329:10 0.000705675
7 *1363:A2 *1363:A1 0.00152558
8 *1363:A2 *1483:I 0.000262284
9 *1363:A2 *387:12 6.52236e-05
10 *329:10 *1385:A1 0.000344349
11 *329:16 *1365:A1 4.03134e-05
12 *329:16 *1616:I 2.08457e-05
13 *329:16 *350:8 0.000710104
14 *1364:A1 *1363:A2 0.000904691
15 *1364:B *1363:A2 0.000716985
16 *1364:B *329:16 1.78817e-06
17 *1379:A1 *329:10 0.000310596
18 *1519:CLK *329:16 0
19 *1530:CLK *329:16 0
20 *1531:D *1362:A2 0.000103788
21 *1531:D *329:16 0.000147762
22 *1542:RN *1362:A2 1.26329e-05
23 *1542:RN *329:16 0.000325862
24 *1585:I *329:10 1.41733e-05
25 *143:10 *329:10 0.000832926
26 *294:9 *1363:A2 6.12327e-06
*RES
1 *1616:Z *329:10 16.516 
2 *329:10 *329:16 5.096 
3 *329:16 *1363:A2 20.572 
4 *329:16 *1364:A2 4.5 
5 *329:10 *1362:A2 4.812 
*END

*D_NET *330 0.0103823
*CONN
*I *1616:I I *D gf180mcu_fd_sc_mcu7t5v0__dlyb_1
*I *1615:I I *D gf180mcu_fd_sc_mcu7t5v0__dlyb_1
*I *1614:I I *D gf180mcu_fd_sc_mcu7t5v0__dlyb_1
*I *1613:I I *D gf180mcu_fd_sc_mcu7t5v0__dlyb_1
*I *1617:Z O *D gf180mcu_fd_sc_mcu7t5v0__dlyb_1
*CAP
1 *1616:I 0.00096174
2 *1615:I 0
3 *1614:I 0.00121622
4 *1613:I 0.000638357
5 *1617:Z 0.000208029
6 *330:10 0.00127586
7 *330:6 0.000591054
8 *1613:I *1387:I1 5.35362e-06
9 *1613:I *1627:I 0.000103788
10 *1613:I *396:14 0.000138102
11 *1614:I *342:50 1.8858e-05
12 *1616:I *1361:A1 0.000256285
13 *1616:I *342:50 0
14 *1616:I *347:43 0
15 *1616:I *350:8 3.57634e-06
16 *330:6 *1387:I1 0.000209009
17 *330:10 *1387:I1 0.000281364
18 *330:10 *342:50 0
19 *1361:A2 *1616:I 3.42651e-05
20 *1364:B *1616:I 0.00072993
21 *1366:B *330:6 2.38773e-05
22 *1368:A1 *1614:I 5.06028e-05
23 *1370:A1 *1613:I 0.000218157
24 *1370:A1 *330:10 0.000268613
25 *1370:A2 *330:10 2.38656e-05
26 *1370:B *1614:I 0.000448125
27 *1527:D *1614:I 0.000346618
28 *1527:CLK *1613:I 5.41656e-05
29 *1528:RN *1614:I 0.000126046
30 *1528:RN *1616:I 0.000134833
31 *1529:SETN *330:6 0.000509988
32 *1529:SETN *330:10 0.000509988
33 *1530:CLK *330:6 4.71367e-05
34 *1531:D *1616:I 0.000157062
35 *294:7 *1616:I 0.000120424
36 *294:9 *1616:I 0.000547963
37 *305:20 *1613:I 7.93118e-05
38 *327:20 *1613:I 2.28534e-05
39 *327:20 *330:10 0
40 *329:16 *1616:I 2.08457e-05
*RES
1 *1617:Z *330:6 7.1 
2 *330:6 *330:10 4.16 
3 *330:10 *1613:I 9.596 
4 *330:10 *1614:I 17.244 
5 *330:6 *1615:I 4.5 
6 *1614:I *1616:I 18.152 
*END

*D_NET *331 0.0187826
*CONN
*I *1345:A2 I *D gf180mcu_fd_sc_mcu7t5v0__nand2_1
*I *1351:S I *D gf180mcu_fd_sc_mcu7t5v0__mux2_2
*I *1352:S I *D gf180mcu_fd_sc_mcu7t5v0__mux2_2
*I *1354:S I *D gf180mcu_fd_sc_mcu7t5v0__mux2_2
*I *1353:S I *D gf180mcu_fd_sc_mcu7t5v0__mux2_2
*I *1618:Z O *D gf180mcu_fd_sc_mcu7t5v0__dlyb_1
*CAP
1 *1345:A2 3.74982e-05
2 *1351:S 1.55601e-05
3 *1352:S 0.00026907
4 *1354:S 0.000229421
5 *1353:S 0.00055929
6 *1618:Z 0.000155509
7 *331:20 0.0010469
8 *331:18 0.00088145
9 *331:16 0.000961152
10 *331:10 0.000784408
11 *1345:A2 *1345:A1 0.000456948
12 *1345:A2 *345:10 3.42651e-05
13 *1351:S *1330:A4 0.000113016
14 *1351:S *1490:I 4.18042e-05
15 *1352:S *1652:I 0.000219115
16 *1353:S *1353:I0 0.000419265
17 *1353:S *1353:I1 0.000493659
18 *1353:S *1354:I1 5.39368e-06
19 *1353:S *1492:I 0.000346997
20 *1353:S *349:23 0
21 *1354:S *1353:I1 4.13954e-05
22 *331:10 *1385:A1 0.000336561
23 *331:16 *1345:A1 0.00116399
24 *331:16 *1490:I 1.91439e-05
25 *331:16 *342:50 7.11031e-05
26 *331:16 *345:35 0.000485138
27 *331:16 *397:12 3.43806e-05
28 *331:16 *400:8 0.000106926
29 *331:18 *1352:I0 1.63629e-05
30 *331:18 *1492:I 0
31 *331:18 *342:50 0.000101628
32 *331:18 *397:12 3.69337e-05
33 *331:20 *1353:I1 1.49279e-05
34 *331:20 *1492:I 0
35 *331:20 *342:10 0.000109601
36 *1366:B *331:16 0.000945792
37 *1536:D *1353:S 0.000594916
38 *1536:D *331:20 0.000949505
39 *1536:CLK *1352:S 0.000582267
40 *1536:CLK *331:20 0
41 *1537:CLK *1353:S 0
42 *1539:D *331:18 0.000271764
43 *1539:D *331:20 0.00052233
44 *1539:RN *331:16 0.000265501
45 *1539:CLK *1354:S 6.8199e-07
46 *143:12 *331:10 0.000881167
47 *245:24 *1352:S 0.00170375
48 *311:26 *1345:A2 0.000569964
49 *311:26 *331:16 0.0018861
*RES
1 *1618:Z *331:10 15.892 
2 *331:10 *331:16 14.276 
3 *331:16 *331:18 2.808 
4 *331:18 *331:20 3.848 
5 *331:20 *1353:S 15.24 
6 *331:20 *1354:S 10.352 
7 *331:18 *1352:S 13.68 
8 *331:16 *1351:S 9.312 
9 *331:10 *1345:A2 6.06 
*END

*D_NET *332 0.00760773
*CONN
*I *1346:A2 I *D gf180mcu_fd_sc_mcu7t5v0__oai21_1
*I *1347:A2 I *D gf180mcu_fd_sc_mcu7t5v0__nor2_1
*I *1348:A2 I *D gf180mcu_fd_sc_mcu7t5v0__aoi21_1
*I *1619:Z O *D gf180mcu_fd_sc_mcu7t5v0__dlyb_1
*CAP
1 *1346:A2 0.000238009
2 *1347:A2 8.03417e-06
3 *1348:A2 0.000235484
4 *1619:Z 0.00122903
5 *332:18 0.000285307
6 *332:16 0.00150883
7 *1346:A2 *1652:I 3.49373e-06
8 *1348:A2 *1623:I 8.49559e-05
9 *332:16 *1347:A1 7.02288e-05
10 *332:16 *1387:I1 0
11 *332:16 *1635:I 2.66791e-05
12 *332:16 *400:12 0.000345373
13 *332:16 *400:36 0.000369033
14 *1540:RN *332:16 0.000335549
15 *1542:D *332:16 5.42966e-05
16 *1542:CLK *332:16 0.000800373
17 *1596:I *1346:A2 0.000548443
18 *1617:I *332:16 0.00012524
19 *144:41 *1346:A2 1.28148e-05
20 *144:41 *1348:A2 3.62815e-05
21 *144:41 *332:16 0.000490944
22 *245:24 *1346:A2 7.27224e-05
23 *245:24 *1347:A2 5.88321e-05
24 *245:24 *1348:A2 0.000128813
25 *245:24 *332:16 4.04633e-05
26 *304:19 *332:16 9.87827e-05
27 *304:23 *1348:A2 1.41661e-05
28 *311:26 *332:16 0.000375969
29 *328:10 *332:16 0
30 *328:47 *332:16 9.57819e-06
*RES
1 *1619:Z *332:16 21.168 
2 *332:16 *332:18 0.312 
3 *332:18 *1348:A2 11.08 
4 *332:18 *1347:A2 9.52 
5 *332:16 *1346:A2 10.976 
*END

*D_NET *333 0.000858425
*CONN
*I *1571:D I *D gf180mcu_fd_sc_mcu7t5v0__dffsnq_1
*I *1656:Z O *D gf180mcu_fd_sc_mcu7t5v0__dlyb_1
*CAP
1 *1571:D 0.000403627
2 *1656:Z 0.000403627
3 *1571:D *395:10 0
4 *1342:A2 *1571:D 2.73715e-06
5 *1342:B *1571:D 0
6 *1656:I *1571:D 4.84332e-05
*RES
1 *1656:Z *1571:D 12.12 
*END

*D_NET *334 0.0148076
*CONN
*I *1618:I I *D gf180mcu_fd_sc_mcu7t5v0__dlyb_1
*I *1350:A2 I *D gf180mcu_fd_sc_mcu7t5v0__oai21_1
*I *1619:I I *D gf180mcu_fd_sc_mcu7t5v0__dlyb_1
*I *1349:A2 I *D gf180mcu_fd_sc_mcu7t5v0__nand2_1
*I *1355:S I *D gf180mcu_fd_sc_mcu7t5v0__mux2_2
*I *1620:Z O *D gf180mcu_fd_sc_mcu7t5v0__dlyb_1
*CAP
1 *1618:I 0.000313781
2 *1350:A2 0
3 *1619:I 0.000934537
4 *1349:A2 8.61265e-05
5 *1355:S 0.000564021
6 *1620:Z 0.000158405
7 *334:31 0.000908662
8 *334:27 0.00104858
9 *334:8 0.00156923
10 *1349:A2 *1384:I1 0.000419265
11 *1349:A2 *1623:I 0.000114687
12 *1355:S *1355:I0 0
13 *1355:S *1645:I 0.000712102
14 *1355:S *1651:I 0
15 *1355:S *363:52 0.000304727
16 *1618:I *1387:I1 7.45061e-05
17 *1619:I *1384:I0 0
18 *1619:I *1387:I1 0.00118069
19 *1619:I *1494:I 0.000381168
20 *334:8 *406:10 0.00054704
21 *334:27 *1355:I0 5.06058e-05
22 *334:27 *1390:I0 0.00011444
23 *334:27 *1390:I1 6.46582e-05
24 *334:27 *1630:I 0.000252784
25 *334:27 *1631:I 5.75636e-05
26 *334:27 *1651:I 0
27 *334:27 *1652:I 4.84242e-05
28 *334:27 *363:52 0.00031697
29 *1350:A1 *1619:I 2.46957e-05
30 *1350:A1 *334:31 0.000220531
31 *1356:A2 *334:31 0
32 *1383:B *1619:I 0.000194511
33 *1516:D *334:27 0.000191446
34 *1516:CLK *334:27 8.85498e-05
35 *1519:CLK *1618:I 0.000131287
36 *1535:D *1355:S 0.000686446
37 *1535:RN *334:8 3.4596e-05
38 *1535:RN *334:27 0
39 *1540:D *334:27 0.000410048
40 *1612:I *1618:I 0.000500772
41 *1612:I *1619:I 1.83778e-05
42 *1620:I *334:8 0
43 *144:8 *1619:I 0.000631613
44 *144:25 *1349:A2 0.000569964
45 *233:18 *1349:A2 2.13874e-05
46 *309:19 *1355:S 0.000302285
47 *310:35 *1619:I 7.81001e-06
48 *310:35 *334:31 9.66623e-05
49 *323:12 *1619:I 0.000315237
50 *323:21 *1619:I 3.57296e-05
51 *324:26 *1619:I 0.000102675
52 *325:10 *1618:I 0
*RES
1 *1620:Z *334:8 10.56 
2 *334:8 *1355:S 15.136 
3 *334:8 *334:27 12.82 
4 *334:27 *334:31 6.476 
5 *334:31 *1349:A2 10.976 
6 *334:31 *1619:I 27.256 
7 *334:27 *1350:A2 4.5 
8 *1619:I *1618:I 12.328 
*END

*D_NET *335 0.0143742
*CONN
*I *1435:A2 I *D gf180mcu_fd_sc_mcu7t5v0__nor4_1
*I *1432:A2 I *D gf180mcu_fd_sc_mcu7t5v0__nor4_1
*I *1429:A2 I *D gf180mcu_fd_sc_mcu7t5v0__nor3_1
*I *1422:A3 I *D gf180mcu_fd_sc_mcu7t5v0__nor3_1
*I *1425:A2 I *D gf180mcu_fd_sc_mcu7t5v0__nor3_1
*I *1621:Z O *D gf180mcu_fd_sc_mcu7t5v0__dlyb_1
*CAP
1 *1435:A2 0
2 *1432:A2 8.37655e-05
3 *1429:A2 0.000163457
4 *1422:A3 0.000474777
5 *1425:A2 0
6 *1621:Z 0.000210534
7 *335:44 0.000451474
8 *335:26 0.00112622
9 *335:20 0.00135853
10 *335:12 0.000713376
11 *1422:A3 *1279:B1 3.10787e-05
12 *1422:A3 *1290:A4 3.30363e-05
13 *1422:A3 *1637:I 0.000162959
14 *1422:A3 *352:30 5.78216e-06
15 *1432:A2 *1638:I 0.000127972
16 *335:12 *1285:B1 0.000427061
17 *335:12 *429:29 0.000199585
18 *335:20 *1240:I 0.000260037
19 *335:20 *429:18 0.000103788
20 *335:20 *429:29 0.00109611
21 *335:26 *1279:B1 0.000168324
22 *335:26 *1290:A2 0.000103788
23 *335:26 *1290:A4 0.000109579
24 *335:26 *1481:I 0.000245653
25 *335:26 *1637:I 8.30969e-05
26 *335:26 *1638:I 0.000630232
27 *335:26 *357:10 0.000118926
28 *335:26 *357:27 0.000169331
29 *335:44 *1638:I 0.000312535
30 *1276:A2 *335:20 0
31 *1280:B *335:26 7.11788e-06
32 *1280:C *335:20 2.541e-05
33 *1282:A1 *335:12 2.54037e-05
34 *1422:A2 *1422:A3 0.00163827
35 *1425:A1 *1422:A3 0.000441226
36 *1431:A1 *335:20 0.000276018
37 *1432:A1 *1429:A2 4.12917e-05
38 *1432:A1 *1432:A2 0.000194522
39 *1432:A4 *1429:A2 9.95819e-06
40 *1432:A4 *1432:A2 0
41 *1509:D *1422:A3 0.000360562
42 *1510:D *1429:A2 4.63309e-05
43 *1512:CLK *335:20 0.00021731
44 *1584:I *335:26 0.000201707
45 *167:8 *1432:A2 6.52129e-05
46 *167:10 *1432:A2 2.80993e-05
47 *167:10 *335:44 0.000193629
48 *167:31 *335:26 0.000202412
49 *167:31 *335:44 8.35178e-06
50 *182:12 *335:20 1.52319e-05
51 *190:14 *335:12 0.000361145
52 *282:8 *335:20 9.68436e-05
53 *287:10 *335:12 1.71326e-05
54 *287:10 *335:20 0.000117338
55 *287:27 *335:12 0.000105333
56 *294:19 *335:26 0.000133854
57 *306:30 *335:20 0.000362738
58 *306:37 *335:20 0.000198112
59 *313:27 *335:20 1.26329e-05
*RES
1 *1621:Z *335:12 16.412 
2 *335:12 *335:20 11.26 
3 *335:20 *335:26 12.404 
4 *335:26 *1425:A2 4.5 
5 *335:26 *1422:A3 11.468 
6 *335:20 *335:44 2.392 
7 *335:44 *1429:A2 10.144 
8 *335:44 *1432:A2 10.456 
9 *335:12 *1435:A2 4.5 
*END

*D_NET *336 0.00952292
*CONN
*I *1294:A2 I *D gf180mcu_fd_sc_mcu7t5v0__nand2_1
*I *1301:A2 I *D gf180mcu_fd_sc_mcu7t5v0__xor2_1
*I *1438:A2 I *D gf180mcu_fd_sc_mcu7t5v0__nor3_1
*I *1443:A2 I *D gf180mcu_fd_sc_mcu7t5v0__nor3_1
*I *1441:A2 I *D gf180mcu_fd_sc_mcu7t5v0__nor3_1
*I *1622:Z O *D gf180mcu_fd_sc_mcu7t5v0__dlyb_1
*CAP
1 *1294:A2 0.000273251
2 *1301:A2 0.000415198
3 *1438:A2 0.000343512
4 *1443:A2 0.0002463
5 *1441:A2 0.00014119
6 *1622:Z 0
7 *336:43 0.000688449
8 *336:17 0.000765665
9 *336:6 0.00157766
10 *336:4 0.00126061
11 *1294:A2 *1448:I 2.46717e-05
12 *1294:A2 *365:23 4.07478e-05
13 *1294:A2 *415:12 4.58772e-05
14 *1294:A2 *415:29 0.000232484
15 *1301:A2 *415:29 0.000201978
16 *1438:A2 *1437:A1 0.000107648
17 *1438:A2 *1468:I 4.18042e-05
18 *1438:A2 *430:8 3.70435e-05
19 *1438:A2 *430:14 0.000318158
20 *1438:A2 *431:29 1.57245e-05
21 *1441:A2 *1640:I 0
22 *1443:A2 *430:14 0.000178541
23 *1443:A2 *431:25 1.26446e-05
24 *336:17 *430:14 9.76253e-05
25 *336:17 *431:25 4.91431e-05
26 *1302:A3 *1301:A2 3.4596e-05
27 *1436:A2 *1438:A2 3.0542e-05
28 *1437:A2 *336:17 1.01781e-05
29 *1438:A1 *1438:A2 0
30 *1438:A3 *1438:A2 0.000164494
31 *1440:A2 *336:6 0.000354655
32 *1440:A2 *336:17 6.87156e-05
33 *1441:A3 *1441:A2 3.54273e-06
34 *1441:A3 *336:6 0.000440809
35 *1513:D *1438:A2 1.12327e-05
36 *1514:D *336:6 3.75723e-05
37 *1552:RN *336:6 0
38 *1558:D *1294:A2 2.37133e-06
39 *1606:I *1443:A2 8.95237e-05
40 *1608:I *336:6 0.000148105
41 *201:14 *1301:A2 1.01702e-05
42 *287:33 *1443:A2 0.000240038
43 *287:33 *336:17 4.37332e-05
44 *299:35 *1301:A2 7.87449e-05
45 *299:48 *1294:A2 8.64179e-05
46 *299:48 *1301:A2 0.000123414
47 *316:25 *336:6 0
48 *318:6 *336:6 4.18157e-05
49 *318:19 *336:6 0.000386322
*RES
1 *1622:Z *336:4 4.5 
2 *336:4 *336:6 11.128 
3 *336:6 *1441:A2 5.332 
4 *336:6 *336:17 1.56 
5 *336:17 *1443:A2 6.788 
6 *336:17 *1438:A2 16.932 
7 *336:4 *336:43 4.5 
8 *336:43 *1301:A2 12.952 
9 *336:43 *1294:A2 11.704 
*END

*D_NET *337 0.0107596
*CONN
*I *1311:A2 I *D gf180mcu_fd_sc_mcu7t5v0__nand2_1
*I *1252:I I *D gf180mcu_fd_sc_mcu7t5v0__clkinv_1
*I *1303:A2 I *D gf180mcu_fd_sc_mcu7t5v0__nor2_1
*I *1304:A3 I *D gf180mcu_fd_sc_mcu7t5v0__nor3_1
*I *1569:D I *D gf180mcu_fd_sc_mcu7t5v0__dffsnq_1
*I *1623:Z O *D gf180mcu_fd_sc_mcu7t5v0__dlyb_1
*CAP
1 *1311:A2 5.27571e-05
2 *1252:I 0.000299714
3 *1303:A2 0.000129649
4 *1304:A3 5.93374e-05
5 *1569:D 0.000264035
6 *1623:Z 0
7 *337:44 0.000875454
8 *337:25 0.00118483
9 *337:19 0.00104849
10 *337:4 0.00058037
11 *1252:I *340:17 0.000268766
12 *1252:I *412:8 0
13 *1303:A2 *340:17 0.000229355
14 *1304:A3 *1304:A1 0.000352357
15 *1311:A2 *1311:A1 4.07478e-05
16 *1311:A2 *1624:I 0.000247744
17 *1569:D *1623:I 2.89664e-05
18 *1569:D *411:12 0
19 *337:19 *1311:A1 7.19592e-05
20 *337:19 *1413:A1 0.000184061
21 *337:19 *1416:A1 1.65086e-05
22 *337:19 *1624:I 0.000794337
23 *337:19 *411:12 8.16884e-06
24 *337:19 *411:19 5.52911e-05
25 *337:44 *339:8 0.000552623
26 *337:44 *339:30 0.000146725
27 *337:44 *413:18 0.000200404
28 *1410:B2 *1569:D 0.00102866
29 *1410:B2 *337:19 4.05503e-05
30 *1420:B1 *337:44 2.14739e-05
31 *1421:A2 *1311:A2 7.30684e-05
32 *1518:CLK *1569:D 0.000203364
33 *1562:RN *1569:D 0.000102563
34 *1562:RN *337:19 0.000786187
35 *1569:CLK *337:19 0
36 *1569:CLK *337:44 0.000288316
37 *160:16 *1304:A3 1.94294e-05
38 *213:20 *1252:I 2.79795e-05
39 *233:18 *1252:I 0.000129992
40 *233:18 *1303:A2 9.74919e-05
41 *233:24 *1303:A2 8.82081e-06
42 *297:25 *337:44 7.22679e-05
43 *312:16 *1304:A3 0.000166777
*RES
1 *1623:Z *337:4 4.5 
2 *337:4 *1569:D 8.452 
3 *337:4 *337:19 9.076 
4 *337:19 *337:25 12.64 
5 *337:25 *1304:A3 10.144 
6 *337:25 *337:44 13.68 
7 *337:44 *1303:A2 10.56 
8 *337:44 *1252:I 12.224 
9 *337:19 *1311:A2 9.728 
*END

*D_NET *338 0.00241018
*CONN
*I *1305:A3 I *D gf180mcu_fd_sc_mcu7t5v0__or3_1
*I *1313:B I *D gf180mcu_fd_sc_mcu7t5v0__oai31_1
*I *1624:Z O *D gf180mcu_fd_sc_mcu7t5v0__dlyb_1
*CAP
1 *1305:A3 0.000157998
2 *1313:B 0.000161382
3 *1624:Z 8.48539e-05
4 *338:6 0.000404234
5 *1305:A3 *1251:I 0.000188231
6 *1305:A3 *1310:A1 8.44565e-06
7 *1313:B *1310:A1 2.81522e-06
8 *1310:A3 *1305:A3 0.000161723
9 *1310:A3 *1313:B 1.36398e-06
10 *1316:B *1305:A3 5.0164e-05
11 *1575:I *1313:B 0
12 *160:12 *1305:A3 0.000498827
13 *218:10 *1313:B 6.95118e-05
14 *233:18 *1305:A3 6.91919e-05
15 *233:18 *1313:B 0.000534736
16 *312:16 *1305:A3 1.67036e-05
*RES
1 *1624:Z *338:6 5.228 
2 *338:6 *1313:B 6.06 
3 *338:6 *1305:A3 15.788 
*END

*D_NET *339 0.0108847
*CONN
*I *1333:C I *D gf180mcu_fd_sc_mcu7t5v0__aoi211_1
*I *1334:A1 I *D gf180mcu_fd_sc_mcu7t5v0__aoi21_1
*I *1338:C I *D gf180mcu_fd_sc_mcu7t5v0__aoi211_1
*I *1305:A1 I *D gf180mcu_fd_sc_mcu7t5v0__or3_1
*I *1304:A1 I *D gf180mcu_fd_sc_mcu7t5v0__nor3_1
*I *1625:Z O *D gf180mcu_fd_sc_mcu7t5v0__dlyb_1
*CAP
1 *1333:C 0
2 *1334:A1 0.000111676
3 *1338:C 0.000221085
4 *1305:A1 0
5 *1304:A1 6.02027e-05
6 *1625:Z 3.6366e-05
7 *339:32 0.000337557
8 *339:30 0.000577141
9 *339:8 0.000230733
10 *339:6 0.000779243
11 *1338:C *1253:I 0.000645286
12 *1338:C *373:10 0
13 *339:30 *1253:I 0.000833098
14 *339:30 *1255:I 0.000594096
15 *339:30 *1405:A1 1.34951e-05
16 *339:30 *1626:I 0.00016066
17 *339:30 *340:17 3.38238e-06
18 *339:30 *413:18 1.41642e-05
19 *339:32 *1253:I 0.000164116
20 *1304:A3 *1304:A1 0.000352357
21 *1333:A2 *1338:C 0.000262946
22 *1333:B *1334:A1 2.19883e-05
23 *1334:B *1334:A1 0.000325477
24 *1338:B *1338:C 8.77606e-06
25 *1408:B2 *339:30 0
26 *1409:A1 *1334:A1 0.000103788
27 *1409:A1 *1338:C 0.000107648
28 *1409:A1 *339:30 0.00194204
29 *1409:A1 *339:32 0.000199998
30 *1420:B1 *339:8 0.000913326
31 *1546:CLK *1338:C 0
32 *1563:D *339:30 3.4596e-05
33 *1563:CLK *339:8 5.25526e-05
34 *1563:CLK *339:30 0.000346003
35 *160:16 *1304:A1 0.000427051
36 *208:10 *339:30 0
37 *212:12 *1334:A1 0.000217494
38 *297:29 *1304:A1 1.28023e-05
39 *312:16 *1304:A1 7.42486e-05
40 *337:44 *339:8 0.000552623
41 *337:44 *339:30 0.000146725
*RES
1 *1625:Z *339:6 4.812 
2 *339:6 *339:8 3.016 
3 *339:8 *1304:A1 15.06 
4 *339:8 *1305:A1 4.5 
5 *339:6 *339:30 12.82 
6 *339:30 *339:32 0.52 
7 *339:32 *1338:C 11.392 
8 *339:32 *1334:A1 10.352 
9 *339:30 *1333:C 9 
*END

*D_NET *340 0.0102445
*CONN
*I *1663:I I *D gf180mcu_fd_sc_mcu7t5v0__dlyb_1
*I *1405:A1 I *D gf180mcu_fd_sc_mcu7t5v0__nand2_1
*I *1625:I I *D gf180mcu_fd_sc_mcu7t5v0__dlyb_1
*I *1626:Z O *D gf180mcu_fd_sc_mcu7t5v0__dlyb_1
*CAP
1 *1663:I 0.00229653
2 *1405:A1 0.000116173
3 *1625:I 0.00011818
4 *1626:Z 0
5 *340:17 0.00280975
6 *340:4 0.000515229
7 *1625:I *412:21 0.000112835
8 *1663:I *1626:I 0
9 *340:17 *1255:I 0.000148556
10 *340:17 *412:8 3.41371e-05
11 *340:17 *412:21 3.18325e-05
12 *1252:I *340:17 0.000268766
13 *1303:A1 *1663:I 1.07369e-05
14 *1303:A2 *340:17 0.000229355
15 *1408:A1 *1663:I 8.42801e-05
16 *1408:B1 *1663:I 2.25463e-05
17 *1409:B2 *1663:I 5.90026e-05
18 *1546:RN *1663:I 0.000103256
19 *1547:CLK *1625:I 0.000557671
20 *1547:CLK *340:17 0.000185295
21 *1564:D *1663:I 0.000203364
22 *1564:CLK *1663:I 0.0021038
23 *208:8 *1405:A1 0.000128423
24 *233:24 *340:17 1.19766e-05
25 *272:31 *1663:I 7.59002e-05
26 *339:30 *1405:A1 1.34951e-05
27 *339:30 *340:17 3.38238e-06
*RES
1 *1626:Z *340:4 4.5 
2 *340:4 *1625:I 6.06 
3 *340:4 *340:17 8.868 
4 *340:17 *1405:A1 9.936 
5 *340:17 *1663:I 36.096 
*END

*D_NET *341 0.0175749
*CONN
*I *1330:A4 I *D gf180mcu_fd_sc_mcu7t5v0__nor4_1
*I *1371:A1 I *D gf180mcu_fd_sc_mcu7t5v0__nor2_1
*I *1353:I0 I *D gf180mcu_fd_sc_mcu7t5v0__mux2_2
*I *1352:I1 I *D gf180mcu_fd_sc_mcu7t5v0__mux2_2
*I *1357:I0 I *D gf180mcu_fd_sc_mcu7t5v0__mux2_2
*I *1627:Z O *D gf180mcu_fd_sc_mcu7t5v0__dlyb_1
*CAP
1 *1330:A4 0.0011819
2 *1371:A1 4.00295e-05
3 *1353:I0 0.000438263
4 *1352:I1 0
5 *1357:I0 0.00081524
6 *1627:Z 0.000278855
7 *341:42 0.000941613
8 *341:22 0.000871684
9 *341:18 0.00118787
10 *341:12 0.00212886
11 *1330:A4 *1330:A3 0.000296432
12 *1330:A4 *1331:A4 0.00111012
13 *1330:A4 *1347:A1 0.000492672
14 *1330:A4 *1351:I0 0.000345449
15 *1330:A4 *1490:I 0.000291719
16 *1330:A4 *345:35 2.9833e-05
17 *1330:A4 *348:55 9.45586e-05
18 *1330:A4 *351:12 6.83298e-05
19 *1330:A4 *397:39 7.6152e-05
20 *1330:A4 *398:16 4.61897e-05
21 *1330:A4 *398:27 7.26813e-06
22 *1353:I0 *1492:I 0
23 *1357:I0 *1642:I 0.000211381
24 *1357:I0 *1652:I 0.000275829
25 *1371:A1 *1353:I1 6.57403e-05
26 *341:12 *1369:A1 0.000265462
27 *341:12 *1387:I1 7.18295e-06
28 *341:12 *1492:I 0.0003528
29 *341:12 *396:14 5.12872e-06
30 *341:18 *348:55 5.47028e-05
31 *341:18 *351:12 3.30212e-05
32 *341:18 *396:14 1.18566e-06
33 *1332:A2 *1330:A4 0.000437347
34 *1346:B *1330:A4 3.75024e-05
35 *1351:S *1330:A4 0.000113016
36 *1353:S *1353:I0 0.000419265
37 *1357:S *1357:I0 0.000159517
38 *1359:S *1357:I0 5.09083e-05
39 *1367:A2 *1330:A4 4.18042e-05
40 *1369:A2 *341:12 3.70435e-05
41 *1371:A2 *341:12 7.29199e-05
42 *1372:B *341:18 0.000270698
43 *1372:B *341:42 0.00119671
44 *1529:D *1330:A4 3.46716e-05
45 *1529:CLK *1330:A4 0.000137956
46 *1532:D *1357:I0 0.000428493
47 *1532:CLK *1357:I0 0
48 *1534:D *1357:I0 0
49 *1537:RN *1357:I0 0.000241038
50 *1537:RN *341:18 0
51 *1537:CLK *1353:I0 0
52 *1537:CLK *1371:A1 6.57403e-05
53 *1538:RN *1353:I0 1.61674e-05
54 *1538:RN *341:12 0.00042999
55 *1538:RN *341:42 3.09073e-06
56 *1573:I *1330:A4 5.46677e-05
57 *1573:I *341:18 4.50575e-05
58 *245:24 *1357:I0 5.18602e-06
59 *302:19 *341:12 4.99581e-05
60 *304:8 *1330:A4 0.000799093
61 *326:8 *341:12 0.000182208
62 *326:10 *341:12 0.000229344
*RES
1 *1627:Z *341:12 17.66 
2 *341:12 *341:18 9.7 
3 *341:18 *341:22 4.812 
4 *341:22 *1357:I0 12.508 
5 *341:22 *1352:I1 4.5 
6 *341:18 *341:42 4.16 
7 *341:42 *1353:I0 11.704 
8 *341:42 *1371:A1 9.52 
9 *341:12 *1330:A4 17.916 
*END

*D_NET *342 0.0230997
*CONN
*I *1331:A1 I *D gf180mcu_fd_sc_mcu7t5v0__nor4_1
*I *1358:I0 I *D gf180mcu_fd_sc_mcu7t5v0__mux2_2
*I *1373:A1 I *D gf180mcu_fd_sc_mcu7t5v0__nor2_1
*I *1354:I0 I *D gf180mcu_fd_sc_mcu7t5v0__mux2_2
*I *1353:I1 I *D gf180mcu_fd_sc_mcu7t5v0__mux2_2
*I *1628:Z O *D gf180mcu_fd_sc_mcu7t5v0__dlyb_1
*CAP
1 *1331:A1 0.000374315
2 *1358:I0 0.000191753
3 *1373:A1 0.00019525
4 *1354:I0 0
5 *1353:I1 0.000892451
6 *1628:Z 0
7 *342:50 0.00240651
8 *342:10 0.00112155
9 *342:8 0.00237196
10 *342:4 0.000497673
11 *1331:A1 *1330:A3 7.90367e-05
12 *1331:A1 *1347:A1 0.000329061
13 *1331:A1 *1623:I 6.11661e-05
14 *1331:A1 *397:39 0.00201362
15 *1331:A1 *398:27 0.00165181
16 *1353:I1 *1354:I1 0.000469578
17 *1353:I1 *1492:I 0.000196311
18 *1358:I0 *347:43 4.23984e-06
19 *1373:A1 *1243:I 9.87902e-05
20 *1373:A1 *371:6 6.8199e-07
21 *342:8 *397:39 0.000205662
22 *342:10 *1354:I1 0.00161539
23 *342:50 *1354:I1 0.00114353
24 *342:50 *345:56 0.000301757
25 *342:50 *347:43 0
26 *1278:B2 *1358:I0 1.37509e-05
27 *1353:S *1353:I1 0.000493659
28 *1354:S *1353:I1 4.13954e-05
29 *1358:S *1358:I0 0.00119188
30 *1368:A1 *342:50 9.52568e-05
31 *1368:B *342:50 0
32 *1371:A1 *1353:I1 6.57403e-05
33 *1374:A1 *1358:I0 0.000976446
34 *1374:A1 *1373:A1 0.000106908
35 *1374:A1 *342:50 0.000227865
36 *1374:B *1373:A1 0.000644067
37 *1374:B *342:50 0.000199994
38 *1524:RN *1373:A1 0
39 *1525:D *1358:I0 1.57245e-05
40 *1525:D *1373:A1 5.89482e-05
41 *1525:RN *1373:A1 8.16884e-06
42 *1526:RN *342:50 1.5675e-05
43 *1527:D *342:50 0.000959605
44 *1528:RN *342:50 1.5675e-05
45 *1529:SETN *342:50 0.000226085
46 *1536:D *1353:I1 4.81384e-05
47 *1536:RN *1353:I1 5.47431e-06
48 *1537:CLK *1353:I1 0.000103043
49 *1539:D *342:10 0.000142073
50 *1614:I *342:50 1.8858e-05
51 *1616:I *342:50 0
52 *1653:I *342:50 8.1882e-05
53 *245:24 *1331:A1 0.000178884
54 *245:24 *342:8 0.000205662
55 *327:20 *342:50 0.000439467
56 *328:10 *342:50 0
57 *330:10 *342:50 0
58 *331:16 *342:50 7.11031e-05
59 *331:18 *342:50 0.000101628
60 *331:20 *1353:I1 1.49279e-05
61 *331:20 *342:10 0.000109601
*RES
1 *1628:Z *342:4 4.5 
2 *342:4 *342:8 6.06 
3 *342:8 *342:10 4.264 
4 *342:10 *1353:I1 17.528 
5 *342:10 *1354:I0 9 
6 *342:8 *342:50 23.428 
7 *342:50 *1373:A1 6.996 
8 *342:50 *1358:I0 17.036 
9 *342:4 *1331:A1 20.78 
*END

*D_NET *343 0.0141034
*CONN
*I *1388:A1 I *D gf180mcu_fd_sc_mcu7t5v0__nand2_1
*I *1341:A1 I *D gf180mcu_fd_sc_mcu7t5v0__nor2_1
*I *1629:Z O *D gf180mcu_fd_sc_mcu7t5v0__dlyb_1
*CAP
1 *1388:A1 0.00258233
2 *1341:A1 0.000729108
3 *1629:Z 0
4 *343:4 0.00331144
5 *1341:A1 *1629:I 0
6 *1341:A1 *349:43 0.0012145
7 *1388:A1 *1232:I 1.5359e-05
8 *1388:A1 *1343:A1 3.25001e-05
9 *1388:A1 *1356:A1 1.51736e-05
10 *1388:A1 *1494:I 1.28023e-05
11 *1388:A1 *1652:I 0.000103002
12 *1388:A1 *414:27 0.000251178
13 *1342:A1 *1341:A1 8.73875e-05
14 *1346:A1 *1388:A1 0
15 *1386:A2 *1388:A1 0.000103468
16 *1389:A2 *1388:A1 0
17 *1389:B *1388:A1 0.000367222
18 *1517:D *1388:A1 1.6659e-05
19 *1519:D *1388:A1 7.77243e-05
20 *1542:D *1388:A1 0.000188231
21 *1543:RN *1388:A1 0
22 *1611:I *1388:A1 0
23 *1612:I *1388:A1 0.00288407
24 *143:12 *1388:A1 0
25 *303:34 *1341:A1 0.000113027
26 *323:38 *1388:A1 0
27 *325:10 *1388:A1 0.00199824
*RES
1 *1629:Z *343:4 4.5 
2 *343:4 *1341:A1 20.572 
3 *343:4 *1388:A1 37.42 
*END

*D_NET *344 0.00175302
*CONN
*I *1570:D I *D gf180mcu_fd_sc_mcu7t5v0__dffsnq_1
*I *1657:Z O *D gf180mcu_fd_sc_mcu7t5v0__dlyb_1
*CAP
1 *1570:D 0.000225037
2 *1657:Z 0.000225037
3 *1570:D *1355:I0 0
4 *1568:D *1570:D 0.00065147
5 *239:16 *1570:D 0.00065147
*RES
1 *1657:Z *1570:D 21.12 
*END

*D_NET *345 0.0249956
*CONN
*I *1343:A1 I *D gf180mcu_fd_sc_mcu7t5v0__nor2_1
*I *1375:A1 I *D gf180mcu_fd_sc_mcu7t5v0__nor2_1
*I *1359:I0 I *D gf180mcu_fd_sc_mcu7t5v0__mux2_2
*I *1354:I1 I *D gf180mcu_fd_sc_mcu7t5v0__mux2_2
*I *1331:A2 I *D gf180mcu_fd_sc_mcu7t5v0__nor4_1
*I *1630:Z O *D gf180mcu_fd_sc_mcu7t5v0__dlyb_1
*CAP
1 *1343:A1 0.000727863
2 *1375:A1 9.87944e-05
3 *1359:I0 0.000213312
4 *1354:I1 0.000547212
5 *1331:A2 0.000130522
6 *1630:Z 2.53235e-05
7 *345:56 0.00145579
8 *345:35 0.00233642
9 *345:10 0.00100612
10 *345:6 0.000983255
11 *1331:A2 *1385:A1 0.000112403
12 *1343:A1 *1497:I 0
13 *1343:A1 *1630:I 0.00012475
14 *1343:A1 *1652:I 0.000963621
15 *1343:A1 *398:44 1.34602e-05
16 *1354:I1 *1490:I 0.000150327
17 *1354:I1 *349:23 0.000561908
18 *1354:I1 *398:10 0.000195846
19 *1359:I0 *1641:I 0.00019118
20 *1359:I0 *355:10 9.63241e-05
21 *1375:A1 *1641:I 0.000418233
22 *1375:A1 *348:33 0.000337769
23 *345:10 *1345:A1 0.000488468
24 *345:35 *1331:A4 0.00113801
25 *345:35 *1345:A1 0.000181803
26 *345:35 *1347:A1 0.000201654
27 *345:35 *1385:A1 0.000185538
28 *345:35 *1490:I 0.000137143
29 *345:35 *400:8 2.01852e-05
30 *345:56 *1369:A1 2.44781e-05
31 *345:56 *1636:I 3.22108e-05
32 *345:56 *348:33 3.21686e-06
33 *345:56 *355:10 0.000256285
34 *345:56 *358:14 8.56225e-05
35 *345:56 *397:12 9.75546e-05
36 *345:56 *398:10 0.000122905
37 *1330:A4 *345:35 2.9833e-05
38 *1332:A2 *345:6 1.32276e-05
39 *1332:A2 *345:10 6.75681e-05
40 *1345:A2 *345:10 3.42651e-05
41 *1346:A1 *1331:A2 0.000188231
42 *1346:B *345:10 0.000488468
43 *1346:B *345:35 0.000158673
44 *1353:I1 *1354:I1 0.000469578
45 *1353:S *1354:I1 5.39368e-06
46 *1376:B *1375:A1 0.000337769
47 *1388:A1 *1343:A1 3.25001e-05
48 *1520:D *1343:A1 0
49 *1524:D *345:56 5.27594e-05
50 *1528:CLK *345:56 0.000204124
51 *1529:D *345:35 0.000419276
52 *1532:RN *345:56 0.000183497
53 *1534:D *1359:I0 0.000769958
54 *1543:RN *1343:A1 0.000105844
55 *1612:I *1343:A1 0.000352492
56 *1653:I *1359:I0 0.000200602
57 *1653:I *1375:A1 5.40307e-05
58 *143:12 *1331:A2 0.000310585
59 *302:19 *345:56 0.000108322
60 *302:27 *345:56 8.58875e-05
61 *311:26 *345:6 2.38773e-05
62 *311:26 *345:10 7.91253e-05
63 *311:26 *345:56 0.00298009
64 *326:8 *345:56 2.83206e-05
65 *326:41 *345:56 0
66 *331:16 *345:35 0.000485138
67 *342:10 *1354:I1 0.00161539
68 *342:50 *1354:I1 0.00114353
69 *342:50 *345:56 0.000301757
*RES
1 *1630:Z *345:6 4.812 
2 *345:6 *345:10 7.308 
3 *345:10 *1331:A2 10.664 
4 *345:10 *345:35 17.424 
5 *345:35 *1354:I1 17.632 
6 *345:35 *345:56 22.312 
7 *345:56 *1359:I0 12.432 
8 *345:56 *1375:A1 11.08 
9 *345:6 *1343:A1 20.572 
*END

*D_NET *346 0.00796575
*CONN
*I *1355:I0 I *D gf180mcu_fd_sc_mcu7t5v0__mux2_2
*I *1390:I1 I *D gf180mcu_fd_sc_mcu7t5v0__mux2_2
*I *1631:Z O *D gf180mcu_fd_sc_mcu7t5v0__dlyb_1
*CAP
1 *1355:I0 0.00117176
2 *1390:I1 9.75197e-05
3 *1631:Z 0.000512562
4 *346:12 0.00178184
5 *1355:I0 *1355:I1 1.85523e-05
6 *1355:I0 *1460:I 2.2764e-05
7 *1355:I0 *1643:I 3.03544e-05
8 *1355:I0 *1651:I 0.00153272
9 *1355:I0 *360:21 2.51389e-05
10 *1355:I0 *360:41 4.09333e-05
11 *346:12 *1390:I0 0.000411041
12 *346:12 *1623:I 0.000682602
13 *346:12 *1643:I 0.000202687
14 *346:12 *1651:I 5.49704e-05
15 *1355:S *1355:I0 0
16 *1516:D *1355:I0 1.07369e-05
17 *1516:CLK *1355:I0 9.07895e-05
18 *1516:CLK *1390:I1 0.000124466
19 *1518:CLK *346:12 8.75081e-05
20 *1535:D *1355:I0 0
21 *1570:D *1355:I0 0
22 *1570:CLK *1355:I0 0.000171329
23 *233:18 *346:12 6.57139e-05
24 *239:16 *1355:I0 0
25 *309:19 *1355:I0 0
26 *323:6 *346:12 0.0007145
27 *334:27 *1355:I0 5.06058e-05
28 *334:27 *1390:I1 6.46582e-05
*RES
1 *1631:Z *346:12 20.572 
2 *346:12 *1390:I1 5.436 
3 *346:12 *1355:I0 24.004 
*END

*D_NET *347 0.0164217
*CONN
*I *1482:I I *D gf180mcu_fd_sc_mcu7t5v0__clkinv_1
*I *1492:I I *D gf180mcu_fd_sc_mcu7t5v0__clkinv_1
*I *1480:I I *D gf180mcu_fd_sc_mcu7t5v0__clkinv_1
*I *1478:I I *D gf180mcu_fd_sc_mcu7t5v0__clkinv_1
*I *1488:I I *D gf180mcu_fd_sc_mcu7t5v0__clkinv_1
*I *1632:Z O *D gf180mcu_fd_sc_mcu7t5v0__dlyb_1
*CAP
1 *1482:I 3.40025e-05
2 *1492:I 0.00103399
3 *1480:I 0
4 *1478:I 0
5 *1488:I 0.000198228
6 *1632:Z 0.000286047
7 *347:43 0.00199818
8 *347:34 0.00121976
9 *347:14 0.000469396
10 *347:8 0.000846784
11 *1488:I *1632:I 7.87395e-06
12 *1488:I *348:33 8.27443e-05
13 *1492:I *1352:I0 5.47866e-05
14 *1492:I *1369:A1 0.00229447
15 *1492:I *397:12 3.25001e-05
16 *347:8 *1662:I 6.41721e-05
17 *347:8 *371:6 4.28472e-05
18 *347:14 *1641:I 0.00017324
19 *347:34 *1424:A1 0
20 *347:34 *1641:I 0.000114094
21 *347:43 *1424:A1 0
22 *347:43 *384:10 0.000346997
23 *1278:B2 *347:43 0
24 *1353:I0 *1492:I 0
25 *1353:I1 *1492:I 0.000196311
26 *1353:S *1492:I 0.000346997
27 *1358:I0 *347:43 4.23984e-06
28 *1358:S *347:43 0
29 *1375:A2 *1488:I 1.07369e-05
30 *1375:A2 *347:14 3.43018e-05
31 *1524:RN *347:14 0.000427051
32 *1525:RN *347:8 2.79867e-05
33 *1526:RN *347:43 0.00183575
34 *1527:D *1482:I 5.13239e-06
35 *1527:D *347:43 0
36 *1533:D *347:34 4.94991e-05
37 *1534:RN *1488:I 0.000190116
38 *1534:RN *347:14 6.06951e-05
39 *1536:D *1492:I 0
40 *1536:CLK *1492:I 0.000192311
41 *1538:RN *1492:I 0.000633008
42 *1573:I *1492:I 0.00131497
43 *1589:I *1492:I 5.84336e-05
44 *1616:I *347:43 0
45 *1653:I *347:14 0.00029875
46 *1653:I *347:34 0.000382337
47 *1653:I *347:43 1.39347e-05
48 *150:6 *347:43 2.98154e-06
49 *294:19 *1482:I 1.30757e-05
50 *294:19 *347:43 0.00019849
51 *294:41 *1492:I 0.000137017
52 *295:22 *1492:I 0.000334677
53 *331:18 *1492:I 0
54 *331:20 *1492:I 0
55 *341:12 *1492:I 0.0003528
56 *342:50 *347:43 0
*RES
1 *1632:Z *347:8 10.976 
2 *347:8 *347:14 8.036 
3 *347:14 *1488:I 6.372 
4 *347:14 *1478:I 4.5 
5 *347:8 *347:34 7.62 
6 *347:34 *1480:I 4.5 
7 *347:34 *347:43 8.528 
8 *347:43 *1492:I 30.556 
9 *347:43 *1482:I 4.812 
*END

*D_NET *348 0.016727
*CONN
*I *1493:I I *D gf180mcu_fd_sc_mcu7t5v0__clkinv_1
*I *1490:I I *D gf180mcu_fd_sc_mcu7t5v0__clkinv_1
*I *1632:I I *D gf180mcu_fd_sc_mcu7t5v0__dlyb_1
*I *1486:I I *D gf180mcu_fd_sc_mcu7t5v0__clkinv_1
*I *1491:I I *D gf180mcu_fd_sc_mcu7t5v0__clkinv_1
*I *1633:Z O *D gf180mcu_fd_sc_mcu7t5v0__dlyb_1
*CAP
1 *1493:I 7.85776e-05
2 *1490:I 0.00122212
3 *1632:I 0.000301425
4 *1486:I 3.6366e-05
5 *1491:I 0.000621365
6 *1633:Z 6.06099e-05
7 *348:55 0.00178505
8 *348:33 0.00119599
9 *348:16 0.00189168
10 *348:6 0.000957082
11 *1490:I *1623:I 0.000148835
12 *1490:I *1628:I 0.000250004
13 *1490:I *349:8 3.42651e-05
14 *1490:I *349:23 3.23491e-05
15 *1490:I *395:10 0.000261213
16 *1490:I *398:10 8.12752e-05
17 *1491:I *358:14 0.000405223
18 *1491:I *370:10 3.77656e-05
19 *1632:I *1357:I1 0
20 *348:16 *351:6 0
21 *348:16 *351:12 0
22 *348:16 *396:14 8.93645e-06
23 *348:33 *358:14 0.000171821
24 *348:33 *370:10 3.15777e-05
25 *348:55 *351:12 0
26 cap_ctrl[0] *1632:I 0
27 *1330:A4 *1490:I 0.000291719
28 *1330:A4 *348:55 9.45586e-05
29 *1351:S *1490:I 4.18042e-05
30 *1354:I1 *1490:I 0.000150327
31 *1358:S *1491:I 0.000184998
32 *1358:S *348:33 0.000151141
33 *1366:A1 *1490:I 0.000872934
34 *1368:B *1490:I 0.000438808
35 *1372:B *348:55 4.18157e-05
36 *1375:A1 *348:33 0.000337769
37 *1375:A2 *348:33 0.000266665
38 *1376:A1 *348:33 0.000428493
39 *1376:B *348:33 0.000319217
40 *1488:I *1632:I 7.87395e-06
41 *1488:I *348:33 8.27443e-05
42 *1524:D *348:33 0.000106908
43 *1524:CLK *348:16 0.000477377
44 *1526:D *348:55 0.000102989
45 *1532:RN *348:33 0.000102056
46 *1536:RN *1490:I 0.000476164
47 *1538:RN *348:55 0.000236426
48 *1539:RN *1490:I 6.17397e-05
49 *1539:RN *1493:I 1.36858e-05
50 *1571:SETN *1490:I 0.000669585
51 *1571:CLK *1490:I 0.000343529
52 *311:26 *1490:I 1.63544e-05
53 *311:26 *348:16 0.00037905
54 *311:26 *348:55 0.000144754
55 *326:41 *348:33 5.78299e-05
56 *331:16 *1490:I 1.91439e-05
57 *341:18 *348:55 5.47028e-05
58 *345:35 *1490:I 0.000137143
59 *345:56 *348:33 3.21686e-06
*RES
1 *1633:Z *348:6 5.02 
2 *348:6 *348:16 8.452 
3 *348:16 *1491:I 13.68 
4 *348:16 *348:33 12.924 
5 *348:33 *1486:I 4.812 
6 *348:33 *1632:I 15.996 
7 *348:6 *348:55 4.056 
8 *348:55 *1490:I 28.06 
9 *348:55 *1493:I 5.228 
*END

*D_NET *349 0.0128323
*CONN
*I *1497:I I *D gf180mcu_fd_sc_mcu7t5v0__clkinv_1
*I *1458:I I *D gf180mcu_fd_sc_mcu7t5v0__clkinv_1
*I *1498:I I *D gf180mcu_fd_sc_mcu7t5v0__clkinv_1
*I *1495:I I *D gf180mcu_fd_sc_mcu7t5v0__clkinv_1
*I *1461:I I *D gf180mcu_fd_sc_mcu7t5v0__clkinv_1
*I *1634:Z O *D gf180mcu_fd_sc_mcu7t5v0__dlyb_1
*CAP
1 *1497:I 0.000593788
2 *1458:I 0.00026504
3 *1498:I 0
4 *1495:I 0.000297328
5 *1461:I 0.000116654
6 *1634:Z 0
7 *349:43 0.00163649
8 *349:23 0.000857956
9 *349:8 0.00103762
10 *349:4 0.001138
11 *1495:I *1623:I 6.17212e-05
12 *1495:I *1628:I 1.81121e-05
13 *1495:I *1634:I 0
14 *1497:I *1630:I 0.000113027
15 *349:23 *1629:I 0.000419276
16 *1341:A1 *349:43 0.0012145
17 *1342:A2 *349:43 0
18 *1343:A1 *1497:I 0
19 *1343:A2 *1458:I 2.50874e-05
20 *1344:A1 *1458:I 7.29199e-05
21 *1344:A1 *1497:I 7.70281e-05
22 *1344:B *1458:I 0.000367033
23 *1344:B *1497:I 0.00143083
24 *1353:S *349:23 0
25 *1354:I1 *349:23 0.000561908
26 *1356:A2 *1497:I 0.000108107
27 *1490:I *349:8 3.42651e-05
28 *1490:I *349:23 3.23491e-05
29 *1536:D *349:23 0
30 *1536:RN *349:8 0.000839313
31 *1539:CLK *349:23 9.69551e-05
32 *1543:D *349:43 0
33 *1543:RN *1497:I 0.000213155
34 *1544:D *349:43 5.18778e-05
35 *1568:CLK *1458:I 2.38773e-05
36 *1571:SETN *1461:I 4.54885e-05
37 *1571:SETN *349:8 2.72796e-06
38 *1571:SETN *349:23 0.000110544
39 *1571:CLK *1461:I 6.40114e-06
40 *1571:CLK *349:8 0.000215256
41 *142:8 *1497:I 6.99894e-05
42 *239:33 *1458:I 0.000237304
43 *303:13 *349:43 0
44 *303:34 *349:8 0.000186231
45 *303:34 *349:43 0.000238784
46 *304:23 *1495:I 1.5359e-05
*RES
1 *1634:Z *349:4 4.5 
2 *349:4 *349:8 8.556 
3 *349:8 *1461:I 9.936 
4 *349:8 *349:23 9.492 
5 *349:23 *1495:I 15.268 
6 *349:23 *1498:I 4.5 
7 *349:4 *349:43 11.676 
8 *349:43 *1458:I 12.12 
9 *349:43 *1497:I 15.24 
*END

*D_NET *350 0.00896475
*CONN
*I *1474:I I *D gf180mcu_fd_sc_mcu7t5v0__clkinv_1
*I *1483:I I *D gf180mcu_fd_sc_mcu7t5v0__clkinv_1
*I *1496:I I *D gf180mcu_fd_sc_mcu7t5v0__clkinv_1
*I *1635:Z O *D gf180mcu_fd_sc_mcu7t5v0__dlyb_1
*CAP
1 *1474:I 0.000982361
2 *1483:I 0.000382599
3 *1496:I 3.31286e-05
4 *1635:Z 0.000116423
5 *350:19 0.00144087
6 *350:8 0.000225466
7 *1474:I *1262:A4 0
8 *1474:I *1291:A1 3.99505e-05
9 *1474:I *1361:A1 9.96738e-05
10 *1474:I *1380:A1 0.000545935
11 *1474:I *1385:A1 0.000130877
12 *1474:I *1473:I 0.000115239
13 *1474:I *354:29 8.06415e-05
14 *1474:I *387:12 4.36433e-05
15 *1474:I *400:36 0.000114373
16 *1483:I *1363:A1 2.81522e-06
17 *1496:I *400:36 0.000138378
18 *350:19 *400:36 0.000303401
19 *1363:A2 *1483:I 0.000262284
20 *1364:B *1483:I 0.000260037
21 *1381:B *1474:I 0.000582267
22 *1519:RN *1474:I 0.000150262
23 *1523:CLK *1474:I 1.25323e-05
24 *1531:D *350:8 0.00023872
25 *1531:SETN *1474:I 0
26 *1599:I *1483:I 0.000177729
27 *1616:I *350:8 3.57634e-06
28 *294:9 *1483:I 0.000389139
29 *307:19 *1474:I 0.00019118
30 *307:19 *350:19 0.00071939
31 *307:23 *1496:I 0.000355275
32 *307:23 *350:19 0.000116476
33 *329:16 *350:8 0.000710104
*RES
1 *1635:Z *350:8 10.976 
2 *350:8 *1496:I 9.936 
3 *350:8 *350:19 2.184 
4 *350:19 *1483:I 13.472 
5 *350:19 *1474:I 18.88 
*END

*D_NET *351 0.0152155
*CONN
*I *1633:I I *D gf180mcu_fd_sc_mcu7t5v0__dlyb_1
*I *1635:I I *D gf180mcu_fd_sc_mcu7t5v0__dlyb_1
*I *1634:I I *D gf180mcu_fd_sc_mcu7t5v0__dlyb_1
*I *1636:Z O *D gf180mcu_fd_sc_mcu7t5v0__dlyb_1
*CAP
1 *1633:I 0
2 *1635:I 0.000715125
3 *1634:I 0.000506206
4 *1636:Z 0.000955155
5 *351:12 0.00216635
6 *351:6 0.00190017
7 *1634:I *1629:I 3.7384e-05
8 *1635:I *1387:I1 6.98116e-05
9 *1635:I *400:12 6.96556e-05
10 *1635:I *400:36 2.54037e-05
11 *351:6 *1660:I 0.000780637
12 *351:6 *396:14 1.80494e-05
13 *351:12 *1351:I0 8.3325e-05
14 *351:12 *1352:I0 0.000184927
15 *351:12 *1623:I 0.000893693
16 *351:12 *397:27 0.000419276
17 *351:12 *397:39 0.00042527
18 *351:12 *398:16 0.000135977
19 *351:12 *398:27 0.00105676
20 *1330:A4 *351:12 6.83298e-05
21 *1342:A1 *1634:I 0.000228483
22 *1359:S *351:6 0
23 *1366:B *1635:I 0.000581194
24 *1495:I *1634:I 0
25 *1519:CLK *1635:I 9.87902e-05
26 *1524:CLK *351:6 7.13292e-05
27 *1534:CLK *351:6 0.000238588
28 *1541:RN *1634:I 0.00136547
29 *1541:RN *1635:I 0.000323759
30 *1573:I *351:12 0.000199278
31 *1581:I *1635:I 0
32 *1617:I *1635:I 0.000122123
33 *141:25 *1634:I 1.52889e-05
34 *245:24 *351:6 0
35 *303:34 *1634:I 8.21146e-06
36 *304:19 *1634:I 0.000212324
37 *304:19 *1635:I 9.60672e-05
38 *304:23 *1634:I 0.000402842
39 *311:26 *351:6 0
40 *328:47 *1635:I 0.000680568
41 *332:16 *1635:I 2.66791e-05
42 *341:18 *351:12 3.30212e-05
43 *348:16 *351:6 0
44 *348:16 *351:12 0
45 *348:55 *351:12 0
*RES
1 *1636:Z *351:6 11.884 
2 *351:6 *351:12 15.316 
3 *351:12 *1634:I 15.032 
4 *351:12 *1635:I 16.696 
5 *351:6 *1633:I 4.5 
*END

*D_NET *352 0.014648
*CONN
*I *1481:I I *D gf180mcu_fd_sc_mcu7t5v0__clkinv_1
*I *1462:I I *D gf180mcu_fd_sc_mcu7t5v0__clkinv_1
*I *1463:I I *D gf180mcu_fd_sc_mcu7t5v0__clkinv_1
*I *1487:I I *D gf180mcu_fd_sc_mcu7t5v0__clkinv_1
*I *1479:I I *D gf180mcu_fd_sc_mcu7t5v0__clkinv_1
*I *1637:Z O *D gf180mcu_fd_sc_mcu7t5v0__dlyb_1
*CAP
1 *1481:I 0.00106139
2 *1462:I 0.000186503
3 *1463:I 0
4 *1487:I 0
5 *1479:I 7.96739e-05
6 *1637:Z 0
7 *352:34 0.000611514
8 *352:30 0.00187214
9 *352:8 0.00013418
10 *352:6 0.00044025
11 *1462:I *1662:I 0
12 *1479:I *1662:I 0.000793462
13 *1481:I *1274:B2 0.000510264
14 *1481:I *1422:A1 0.00112378
15 *1481:I *1637:I 0.000188241
16 *1481:I *1638:I 7.17651e-05
17 *1481:I *357:8 0.00126928
18 *1481:I *357:10 0.000301767
19 *1481:I *357:27 0.00145645
20 *1481:I *384:19 0.000188231
21 *1481:I *385:10 0.000169324
22 *1481:I *426:29 0.00015226
23 *352:8 *1662:I 0.000501134
24 *352:30 *1422:A1 0.000419265
25 *352:30 *1661:I 0
26 *352:30 *1662:I 0.00146815
27 *352:34 *1662:I 0
28 *1274:B1 *1481:I 2.14739e-05
29 *1280:A1 *1481:I 1.01591e-05
30 *1292:A1 *1481:I 4.18157e-05
31 *1292:A2 *1481:I 9.7618e-05
32 *1292:B1 *1481:I 0.000710099
33 *1292:B2 *1481:I 1.39027e-05
34 *1422:A2 *1481:I 0.000157034
35 *1422:A2 *352:30 7.17602e-05
36 *1422:A3 *352:30 5.78216e-06
37 *1427:A2 *1481:I 0
38 *1508:D *1481:I 5.35362e-06
39 *1508:CLK *1481:I 0.000113027
40 *1527:RN *1481:I 0
41 *1533:D *1479:I 6.08108e-05
42 *1533:D *352:8 4.16074e-05
43 *1533:D *352:30 4.16074e-05
44 *168:14 *1481:I 1.13079e-05
45 *335:26 *1481:I 0.000245653
*RES
1 *1637:Z *352:6 9 
2 *352:6 *352:8 1.352 
3 *352:8 *1479:I 10.976 
4 *352:8 *1487:I 9 
5 *352:6 *352:30 9.7 
6 *352:30 *352:34 8.14 
7 *352:34 *1463:I 9 
8 *352:34 *1462:I 10.768 
9 *352:30 *1481:I 29.1 
*END

*D_NET *353 0.0035115
*CONN
*I *1465:I I *D gf180mcu_fd_sc_mcu7t5v0__clkinv_1
*I *1466:I I *D gf180mcu_fd_sc_mcu7t5v0__clkinv_1
*I *1464:I I *D gf180mcu_fd_sc_mcu7t5v0__clkinv_1
*I *1638:Z O *D gf180mcu_fd_sc_mcu7t5v0__dlyb_1
*CAP
1 *1465:I 0
2 *1466:I 0.000730941
3 *1464:I 0.000236354
4 *1638:Z 3.86329e-05
5 *353:17 0.000971802
6 *353:6 0.000515847
7 *1466:I *1258:I 0.00012524
8 *1466:I *429:10 4.79893e-05
9 *353:17 *1638:I 0
10 *1511:RN *1466:I 0.000579191
11 *1512:RN *1466:I 0.000265501
*RES
1 *1638:Z *353:6 4.812 
2 *353:6 *1464:I 6.164 
3 *353:6 *353:17 1.768 
4 *353:17 *1466:I 11.156 
5 *353:17 *1465:I 4.5 
*END

*D_NET *354 0.0146212
*CONN
*I *1468:I I *D gf180mcu_fd_sc_mcu7t5v0__clkinv_1
*I *1467:I I *D gf180mcu_fd_sc_mcu7t5v0__clkinv_1
*I *1473:I I *D gf180mcu_fd_sc_mcu7t5v0__clkinv_1
*I *1485:I I *D gf180mcu_fd_sc_mcu7t5v0__clkinv_1
*I *1484:I I *D gf180mcu_fd_sc_mcu7t5v0__clkinv_1
*I *1639:Z O *D gf180mcu_fd_sc_mcu7t5v0__dlyb_1
*CAP
1 *1468:I 0.000660881
2 *1467:I 6.26506e-05
3 *1473:I 0.000529976
4 *1485:I 0
5 *1484:I 0.000613341
6 *1639:Z 0
7 *354:53 0.00185699
8 *354:29 0.000796272
9 *354:23 0.00185195
10 *354:4 0.00106554
11 *1467:I *1469:I 3.73635e-05
12 *1467:I *430:36 3.42651e-05
13 *1468:I *1469:I 2.14631e-05
14 *1473:I *1262:A4 0.000306858
15 *1473:I *377:6 5.13977e-05
16 *1484:I *1289:A2 0.000286984
17 *1484:I *357:27 0.00215008
18 *1484:I *385:10 4.77321e-05
19 *1484:I *432:14 4.9014e-05
20 *354:23 *1236:I 1.19584e-05
21 *354:23 *1291:A1 0
22 *354:23 *357:27 5.31445e-05
23 *354:23 *432:14 9.57283e-05
24 *354:29 *389:8 0
25 *354:53 *1236:I 0
26 *354:53 *1378:A1 4.22179e-05
27 *354:53 *1469:I 0.000947916
28 *354:53 *1477:I 0.00040734
29 *354:53 *389:8 0
30 *1281:A1 *354:23 0
31 *1281:A1 *354:53 1.42728e-05
32 *1287:A1 *1484:I 0
33 *1287:C *1484:I 0.000145476
34 *1292:A1 *1484:I 4.04718e-05
35 *1370:A1 *1484:I 5.39368e-06
36 *1378:A2 *354:29 9.65696e-05
37 *1378:A2 *354:53 4.28898e-05
38 *1379:A1 *354:29 3.16659e-05
39 *1381:B *1473:I 8.80888e-05
40 *1438:A1 *1468:I 0
41 *1438:A2 *1468:I 4.18042e-05
42 *1443:A3 *354:53 0
43 *1474:I *1473:I 0.000115239
44 *1474:I *354:29 8.06415e-05
45 *1513:D *1468:I 2.9722e-05
46 *1513:RN *1467:I 0.000178541
47 *1513:RN *1468:I 0.000380864
48 *1519:RN *1473:I 0.000119242
49 *1523:CLK *1473:I 0.000205716
50 *1523:CLK *354:29 7.44831e-05
51 *1531:SETN *354:23 9.57648e-05
52 *1531:SETN *354:29 0.000165023
53 *1585:I *354:29 0.000140672
54 *1586:I *354:23 8.08428e-05
55 *1586:I *354:53 2.05531e-05
56 *1600:I *354:53 0.00029898
57 *1606:I *1468:I 0
58 *1607:I *1484:I 0
59 *145:6 *354:23 8.21146e-06
60 *316:25 *1468:I 0.000139043
*RES
1 *1639:Z *354:4 4.5 
2 *354:4 *1484:I 20.884 
3 *354:4 *354:23 8.14 
4 *354:23 *354:29 7.828 
5 *354:29 *1485:I 4.5 
6 *354:29 *1473:I 9.804 
7 *354:23 *354:53 15.628 
8 *354:53 *1467:I 5.228 
9 *354:53 *1468:I 10.22 
*END

*D_NET *355 0.00364118
*CONN
*I *1660:I I *D gf180mcu_fd_sc_mcu7t5v0__dlyb_1
*I *1359:I1 I *D gf180mcu_fd_sc_mcu7t5v0__mux2_2
*I *1532:Q O *D gf180mcu_fd_sc_mcu7t5v0__dffrnq_1
*CAP
1 *1660:I 0.000420246
2 *1359:I1 0.000252658
3 *1532:Q 0.000328144
4 *355:10 0.00100105
5 *355:10 *1641:I 4.58772e-05
6 *355:10 *358:14 4.91818e-05
7 cap_ctrl[0] *1660:I 0
8 *1357:S *1660:I 0
9 *1358:S *1359:I1 0
10 *1358:S *355:10 0
11 *1359:I0 *355:10 9.63241e-05
12 *1359:S *1660:I 7.86587e-06
13 *1532:RN *355:10 0
14 *1534:D *1359:I1 0.000146434
15 *1534:D *1660:I 6.41721e-05
16 *1534:D *355:10 0.000192311
17 *1653:I *1359:I1 0
18 *311:26 *1660:I 0
19 *345:56 *355:10 0.000256285
20 *351:6 *1660:I 0.000780637
*RES
1 *1532:Q *355:10 12.328 
2 *355:10 *1359:I1 11.184 
3 *355:10 *1660:I 12.64 
*END

*D_NET *356 0.00971318
*CONN
*I *1476:I I *D gf180mcu_fd_sc_mcu7t5v0__clkinv_1
*I *1469:I I *D gf180mcu_fd_sc_mcu7t5v0__clkinv_1
*I *1477:I I *D gf180mcu_fd_sc_mcu7t5v0__clkinv_1
*I *1640:Z O *D gf180mcu_fd_sc_mcu7t5v0__dlyb_1
*CAP
1 *1476:I 0.000198378
2 *1469:I 0.00098445
3 *1477:I 0.000117409
4 *1640:Z 0
5 *356:8 0.00134634
6 *356:4 0.000442861
7 *1469:I *1439:A2 6.8199e-07
8 *1469:I *430:8 0.000112365
9 *1469:I *430:14 4.04633e-05
10 *1469:I *430:36 2.62817e-05
11 *1469:I *431:29 0.000320505
12 *1476:I *381:27 0.000428213
13 *1477:I *431:29 8.88029e-05
14 *356:8 *1281:A2 4.18157e-05
15 *356:8 *1284:A2 3.57634e-06
16 *356:8 *381:10 3.26853e-05
17 *356:8 *381:27 0.000888517
18 *1281:A1 *1477:I 0.000841723
19 *1467:I *1469:I 3.73635e-05
20 *1468:I *1469:I 2.14631e-05
21 *1513:D *1469:I 0.00148642
22 *1515:RN *1469:I 0.000189938
23 *1522:RN *1476:I 0.000497696
24 *308:26 *356:8 1.19663e-05
25 *308:35 *1476:I 0.00011113
26 *308:35 *356:8 8.68743e-05
27 *354:53 *1469:I 0.000947916
28 *354:53 *1477:I 0.00040734
*RES
1 *1640:Z *356:4 4.5 
2 *356:4 *356:8 7.516 
3 *356:8 *1477:I 11.808 
4 *356:8 *1469:I 20.648 
5 *356:4 *1476:I 7.828 
*END

*D_NET *357 0.025891
*CONN
*I *1638:I I *D gf180mcu_fd_sc_mcu7t5v0__dlyb_1
*I *1640:I I *D gf180mcu_fd_sc_mcu7t5v0__dlyb_1
*I *1639:I I *D gf180mcu_fd_sc_mcu7t5v0__dlyb_1
*I *1637:I I *D gf180mcu_fd_sc_mcu7t5v0__dlyb_1
*I *1641:Z O *D gf180mcu_fd_sc_mcu7t5v0__dlyb_1
*CAP
1 *1638:I 0.000688229
2 *1640:I 0.00109253
3 *1639:I 0.000216379
4 *1637:I 0.000676489
5 *1641:Z 0.00024137
6 *357:27 0.00193626
7 *357:10 0.00136131
8 *357:8 0.000987068
9 *1637:I *1290:A4 0.000540079
10 *1637:I *384:19 6.41072e-05
11 *1638:I *1242:I 0.000103604
12 *1638:I *1274:B2 2.46957e-05
13 *1639:I *1291:A1 0.000124557
14 *1639:I *388:8 1.07369e-05
15 *1639:I *389:8 2.73457e-05
16 *1640:I *1236:I 1.78348e-06
17 *1640:I *1284:B1 0.000329328
18 *1640:I *1437:A1 3.09205e-05
19 *1640:I *389:8 1.72395e-05
20 *1640:I *432:8 0.000153342
21 *1640:I *432:14 0.000282967
22 *357:8 *1274:B2 1.56624e-05
23 *357:8 *1279:B1 3.32518e-05
24 *357:8 *1290:A1 6.93471e-05
25 *357:27 *1274:B2 1.09486e-05
26 *357:27 *1275:A1 2.91549e-05
27 *357:27 *1279:B1 0.000786206
28 *357:27 *1290:A1 0.000133485
29 *357:27 *1291:A1 0
30 *357:27 *388:8 4.84242e-05
31 cap_ctrl[1] *1637:I 0.000566888
32 *1278:A1 *1637:I 0.00103808
33 *1280:A2 *1638:I 0.000112049
34 *1292:B1 *1637:I 0.000106908
35 *1364:A1 *1639:I 0.000142811
36 *1364:A1 *1640:I 0.000146161
37 *1422:A2 *357:8 3.18325e-05
38 *1422:A3 *1637:I 0.000162959
39 *1429:A3 *1638:I 0.00175293
40 *1432:A1 *1638:I 9.58004e-06
41 *1432:A2 *1638:I 0.000127972
42 *1441:A2 *1640:I 0
43 *1442:A2 *1640:I 0.000522341
44 *1481:I *1637:I 0.000188241
45 *1481:I *1638:I 7.17651e-05
46 *1481:I *357:8 0.00126928
47 *1481:I *357:10 0.000301767
48 *1481:I *357:27 0.00145645
49 *1484:I *357:27 0.00215008
50 *1509:D *1637:I 0.000342471
51 *1509:CLK *1637:I 0.000296865
52 *1514:D *1640:I 2.73715e-06
53 *1530:RN *357:27 0
54 *1533:D *1637:I 0.000114701
55 *1621:I *1640:I 0.00256626
56 *146:19 *1640:I 0.000149173
57 *167:8 *1638:I 6.70356e-05
58 *287:33 *1640:I 0
59 *294:19 *1637:I 2.4598e-05
60 *313:35 *357:8 0.000764938
61 *335:26 *1637:I 8.30969e-05
62 *335:26 *1638:I 0.000630232
63 *335:26 *357:10 0.000118926
64 *335:26 *357:27 0.000169331
65 *335:44 *1638:I 0.000312535
66 *353:17 *1638:I 0
67 *354:23 *357:27 5.31445e-05
*RES
1 *1641:Z *357:8 12.848 
2 *357:8 *357:10 0.936 
3 *357:10 *1637:I 18.152 
4 *357:10 *357:27 19.296 
5 *357:27 *1639:I 11.288 
6 *357:27 *1640:I 22.312 
7 *357:8 *1638:I 18.568 
*END

*D_NET *358 0.00900705
*CONN
*I *1641:I I *D gf180mcu_fd_sc_mcu7t5v0__dlyb_1
*I *1636:I I *D gf180mcu_fd_sc_mcu7t5v0__dlyb_1
*I *1642:Z O *D gf180mcu_fd_sc_mcu7t5v0__dlyb_1
*CAP
1 *1641:I 0.00105666
2 *1636:I 0.000164797
3 *1642:Z 0.000391308
4 *358:14 0.00161277
5 *1641:I *1358:I1 2.39167e-05
6 *1641:I *1661:I 6.58295e-06
7 *1641:I *425:18 0
8 *358:14 *370:10 7.46012e-05
9 *1278:B2 *1641:I 0.000438708
10 *1359:I0 *1641:I 0.00019118
11 *1374:A1 *1641:I 0
12 *1375:A1 *1641:I 0.000418233
13 *1376:A1 *1641:I 0.00076157
14 *1425:A3 *1641:I 0.000497696
15 *1491:I *358:14 0.000405223
16 *1524:D *1641:I 0
17 *1524:D *358:14 0.000324476
18 *1532:RN *1636:I 3.96072e-05
19 *1532:RN *1641:I 0
20 *1533:D *1641:I 0.00065147
21 *1653:I *1641:I 2.21166e-05
22 *311:26 *1636:I 9.22469e-05
23 *311:26 *358:14 0.00116184
24 *345:56 *1636:I 3.22108e-05
25 *345:56 *358:14 8.56225e-05
26 *347:14 *1641:I 0.00017324
27 *347:34 *1641:I 0.000114094
28 *348:33 *358:14 0.000171821
29 *355:10 *1641:I 4.58772e-05
30 *355:10 *358:14 4.91818e-05
*RES
1 *1642:Z *358:14 18.804 
2 *358:14 *1636:I 5.852 
3 *358:14 *1641:I 26.188 
*END

*D_NET *359 0.0122732
*CONN
*I *1494:I I *D gf180mcu_fd_sc_mcu7t5v0__clkinv_1
*I *1470:I I *D gf180mcu_fd_sc_mcu7t5v0__clkinv_1
*I *1452:I I *D gf180mcu_fd_sc_mcu7t5v0__clkinv_1
*I *1455:I I *D gf180mcu_fd_sc_mcu7t5v0__clkinv_1
*I *1472:I I *D gf180mcu_fd_sc_mcu7t5v0__clkinv_1
*I *1643:Z O *D gf180mcu_fd_sc_mcu7t5v0__dlyb_1
*CAP
1 *1494:I 0.00089522
2 *1470:I 0
3 *1452:I 0.000332864
4 *1455:I 0.000329254
5 *1472:I 0
6 *1643:Z 0.000159064
7 *359:33 0.000790874
8 *359:26 0.00063621
9 *359:14 0.000807335
10 *359:10 0.00135417
11 *1452:I *1646:I 0
12 *1452:I *405:10 0.000256274
13 *1455:I *1257:I 7.93873e-05
14 *1455:I *376:10 0.00061761
15 *1494:I *1235:I 0.000406972
16 *1494:I *1387:I1 0.00032394
17 *1494:I *1390:I0 2.80993e-05
18 *1494:I *374:19 2.84156e-05
19 *1494:I *399:8 0.000194522
20 *359:10 *1390:I0 0.000142811
21 *359:26 *1651:I 0.00013448
22 *1383:B *1494:I 0.0004162
23 *1388:A1 *1494:I 1.28023e-05
24 *1444:I0 *1452:I 0
25 *1516:SETN *359:14 0
26 *1517:CLK *359:26 0.000492635
27 *1518:D *359:26 5.78216e-06
28 *1518:SETN *359:26 0.000159517
29 *1521:CLK *359:26 0.000113027
30 *1540:RN *1494:I 0.00034366
31 *1542:D *1494:I 0.000424968
32 *1553:D *1455:I 0
33 *1562:D *1452:I 2.82894e-06
34 *1610:I *1494:I 0.000276007
35 *1610:I *359:10 0
36 *1610:I *359:14 0.000310595
37 *1619:I *1494:I 0.000381168
38 *143:12 *1494:I 0.000115856
39 *294:99 *359:26 5.31184e-05
40 *298:25 *1452:I 0.000476056
41 *298:25 *359:26 0.000500772
42 *298:25 *359:33 0.000550736
43 *311:36 *359:10 0.000119928
44 *311:36 *359:14 0
45 *323:12 *1494:I 0
46 *323:12 *359:10 0
47 *323:21 *1494:I 0
*RES
1 *1643:Z *359:10 11.08 
2 *359:10 *359:14 6.892 
3 *359:14 *359:26 14.616 
4 *359:26 *1472:I 4.5 
5 *359:26 *359:33 1.56 
6 *359:33 *1455:I 17.348 
7 *359:33 *1452:I 16.308 
8 *359:14 *1470:I 4.5 
9 *359:10 *1494:I 28.608 
*END

*D_NET *360 0.0102795
*CONN
*I *1643:I I *D gf180mcu_fd_sc_mcu7t5v0__dlyb_1
*I *1489:I I *D gf180mcu_fd_sc_mcu7t5v0__clkinv_1
*I *1457:I I *D gf180mcu_fd_sc_mcu7t5v0__clkinv_1
*I *1449:I I *D gf180mcu_fd_sc_mcu7t5v0__clkinv_1
*I *1460:I I *D gf180mcu_fd_sc_mcu7t5v0__clkinv_1
*I *1644:Z O *D gf180mcu_fd_sc_mcu7t5v0__dlyb_1
*CAP
1 *1643:I 0.000401873
2 *1489:I 8.61298e-05
3 *1457:I 9.77387e-05
4 *1449:I 3.84931e-05
5 *1460:I 0.000117187
6 *1644:Z 0.000549496
7 *360:41 0.000968353
8 *360:25 0.000950323
9 *360:21 0.00137789
10 *360:8 0.000750131
11 *1449:I *1645:I 6.32394e-06
12 *1489:I *1644:I 4.34378e-06
13 *1489:I *406:10 0.000346997
14 *1643:I *1390:I0 2.60017e-05
15 *1643:I *1652:I 0
16 *360:8 *1647:I 0.000215244
17 *360:25 *1644:I 0
18 *360:25 *1645:I 0.0012855
19 *360:25 *1647:I 8.28798e-05
20 *360:25 *1651:I 0.000182208
21 *360:25 *363:27 0
22 *360:41 *1652:I 0
23 *1355:I0 *1460:I 2.2764e-05
24 *1355:I0 *1643:I 3.03544e-05
25 *1355:I0 *360:21 2.51389e-05
26 *1355:I0 *360:41 4.09333e-05
27 *1390:S *1643:I 0.000355286
28 *1516:D *1489:I 8.14679e-05
29 *1516:CLK *1489:I 8.16884e-06
30 *1535:CLK *360:25 0
31 *1559:RN *1449:I 0
32 *1559:RN *1457:I 0
33 *1568:D *1460:I 0.000591484
34 *1568:D *360:8 7.67119e-05
35 *1568:D *360:25 0
36 *1570:SETN *1460:I 0.000703196
37 *1570:SETN *360:8 9.41008e-05
38 *1570:SETN *360:21 0.000402936
39 *1570:SETN *360:41 0.000157149
40 *1587:I *360:25 0
41 *239:16 *360:8 0
42 *310:35 *1643:I 0
43 *346:12 *1643:I 0.000202687
*RES
1 *1644:Z *360:8 13.472 
2 *360:8 *1460:I 11.496 
3 *360:8 *360:21 1.144 
4 *360:21 *360:25 11.468 
5 *360:25 *1449:I 4.812 
6 *360:25 *1457:I 5.228 
7 *360:21 *360:41 2.808 
8 *360:41 *1489:I 10.144 
9 *360:41 *1643:I 12.848 
*END

*D_NET *361 0.0140256
*CONN
*I *1451:I I *D gf180mcu_fd_sc_mcu7t5v0__clkinv_1
*I *1450:I I *D gf180mcu_fd_sc_mcu7t5v0__clkinv_1
*I *1500:I I *D gf180mcu_fd_sc_mcu7t5v0__clkinv_1
*I *1499:I I *D gf180mcu_fd_sc_mcu7t5v0__clkinv_1
*I *1453:I I *D gf180mcu_fd_sc_mcu7t5v0__clkinv_1
*I *1645:Z O *D gf180mcu_fd_sc_mcu7t5v0__dlyb_1
*CAP
1 *1451:I 0
2 *1450:I 0
3 *1500:I 0.000757586
4 *1499:I 0
5 *1453:I 0.00124125
6 *1645:Z 0.000358565
7 *361:51 0.00185033
8 *361:37 0.00113354
9 *361:22 0.00181108
10 *361:10 0.000887591
11 *1453:I *1646:I 9.85012e-05
12 *1453:I *409:8 0.000129248
13 *361:22 *1308:A1 0.000108036
14 *361:22 *1308:A3 4.07478e-05
15 *361:22 *409:8 0
16 *361:51 *373:10 0
17 *1316:A1 *1453:I 3.4596e-05
18 *1316:B *1453:I 0
19 *1317:A2 *1453:I 0.000263725
20 *1328:A2 *1453:I 6.18411e-06
21 *1333:B *361:51 0.000194026
22 *1334:B *361:51 1.32185e-05
23 *1337:A1 *361:51 4.91818e-05
24 *1337:A2 *361:51 4.42573e-05
25 *1417:A1 *1453:I 0
26 *1420:B1 *1453:I 0.0011692
27 *1545:SETN *361:51 2.38773e-05
28 *1546:D *1500:I 0.000151966
29 *1546:D *361:51 0.00107765
30 *1546:CLK *361:51 0
31 *1560:RN *361:22 3.93494e-05
32 *1560:RN *361:37 4.67771e-06
33 *1561:RN *361:10 0.000592665
34 *1659:I *361:51 0
35 *209:12 *361:10 8.77825e-05
36 *212:12 *361:51 0
37 *213:16 *361:22 8.58341e-05
38 *213:20 *1453:I 0.000802764
39 *213:33 *1453:I 8.87924e-05
40 *222:10 *1453:I 5.60123e-05
41 *237:29 *361:10 4.98468e-05
42 *237:29 *361:22 9.97165e-05
43 *237:29 *361:37 5.63044e-06
44 *237:29 *361:51 1.59524e-05
45 *273:12 *1453:I 0.000382424
46 *296:8 *361:22 9.17681e-06
47 *297:25 *1453:I 3.97039e-05
48 *297:29 *1453:I 6.81831e-05
49 *312:16 *361:22 0.000152714
*RES
1 *1645:Z *361:10 7.724 
2 *361:10 *361:22 13.368 
3 *361:22 *1453:I 25.564 
4 *361:22 *361:37 0.312 
5 *361:37 *361:51 17.632 
6 *361:51 *1499:I 4.5 
7 *361:51 *1500:I 18.7 
8 *361:37 *1450:I 4.5 
9 *361:10 *1451:I 4.5 
*END

*D_NET *362 0.00161488
*CONN
*I *1501:I I *D gf180mcu_fd_sc_mcu7t5v0__clkinv_1
*I *1454:I I *D gf180mcu_fd_sc_mcu7t5v0__clkinv_1
*I *1646:Z O *D gf180mcu_fd_sc_mcu7t5v0__dlyb_1
*CAP
1 *1501:I 0.0004462
2 *1454:I 0.000361238
3 *1646:Z 0
4 *362:6 0.000807438
5 *1454:I *413:12 0
6 *1329:A1 *1501:I 0
*RES
1 *1646:Z *362:6 9 
2 *362:6 *1454:I 12.224 
3 *362:6 *1501:I 12.328 
*END

*D_NET *363 0.0223711
*CONN
*I *1459:I I *D gf180mcu_fd_sc_mcu7t5v0__clkinv_1
*I *1646:I I *D gf180mcu_fd_sc_mcu7t5v0__dlyb_1
*I *1645:I I *D gf180mcu_fd_sc_mcu7t5v0__dlyb_1
*I *1644:I I *D gf180mcu_fd_sc_mcu7t5v0__dlyb_1
*I *1647:Z O *D gf180mcu_fd_sc_mcu7t5v0__dlyb_1
*CAP
1 *1459:I 0.000109098
2 *1646:I 0.00261723
3 *1645:I 0.00124822
4 *1644:I 0.00115422
5 *1647:Z 0
6 *363:52 0.00377023
7 *363:27 0.00256453
8 *363:4 0.00142663
9 *1644:I *1647:I 0
10 *1644:I *1652:I 0
11 *1644:I *406:10 4.98927e-05
12 *1645:I *1308:A3 0.000133946
13 *1645:I *1335:A1 8.21146e-06
14 *1645:I *408:12 4.91818e-05
15 *1645:I *408:21 6.41303e-05
16 *1646:I *1624:I 0.00118068
17 *1646:I *405:37 0.00150021
18 *363:27 *406:10 6.37959e-05
19 *363:52 *1651:I 0
20 *1310:A2 *1646:I 5.19755e-05
21 *1310:A3 *1646:I 6.95257e-05
22 *1314:A2 *1646:I 5.47431e-06
23 *1315:A2 *1646:I 0
24 *1316:A1 *1646:I 9.6838e-05
25 *1317:A2 *1646:I 1.81504e-05
26 *1328:A2 *1646:I 0
27 *1329:A1 *1646:I 6.29225e-05
28 *1340:A2 *1645:I 0.00035443
29 *1355:S *1645:I 0.000712102
30 *1355:S *363:52 0.000304727
31 *1449:I *1645:I 6.32394e-06
32 *1452:I *1646:I 0
33 *1453:I *1646:I 9.85012e-05
34 *1489:I *1644:I 4.34378e-06
35 *1516:CLK *1644:I 0
36 *1518:D *363:52 0
37 *1535:CLK *1645:I 4.10573e-06
38 *1547:D *1646:I 4.13954e-05
39 *1547:CLK *1646:I 0
40 *1559:RN *1645:I 0.000190584
41 *1563:RN *1646:I 5.90026e-05
42 *1564:RN *1646:I 0
43 *1565:CLK *1646:I 4.66641e-05
44 *1567:CLK *1645:I 2.62781e-05
45 *1568:D *1645:I 0
46 *1569:SETN *1646:I 5.45754e-05
47 *1575:I *1646:I 0.000195166
48 *1587:I *1645:I 2.18827e-05
49 *1587:I *363:52 0.00100004
50 *159:6 *1645:I 0
51 *217:16 *1646:I 0
52 *222:10 *1646:I 0
53 *239:12 *1645:I 9.84386e-05
54 *294:99 *363:52 5.91212e-05
55 *294:115 *1646:I 0.000462478
56 *294:115 *363:52 0.000249532
57 *294:131 *1646:I 0.000499677
58 *309:6 *1645:I 2.28981e-05
59 *311:36 *363:52 1.12246e-05
60 *334:27 *363:52 0.00031697
61 *360:25 *1644:I 0
62 *360:25 *1645:I 0.0012855
63 *360:25 *363:27 0
*RES
1 *1647:Z *363:4 4.5 
2 *363:4 *1644:I 12.3 
3 *363:4 *363:27 6.268 
4 *363:27 *1645:I 21.064 
5 *363:27 *363:52 14.9 
6 *363:52 *1646:I 28.732 
7 *363:52 *1459:I 5.436 
*END

*D_NET *364 0.0168805
*CONN
*I *1507:I I *D gf180mcu_fd_sc_mcu7t5v0__clkinv_1
*I *1447:I I *D gf180mcu_fd_sc_mcu7t5v0__clkinv_1
*I *1471:I I *D gf180mcu_fd_sc_mcu7t5v0__clkinv_1
*I *1456:I I *D gf180mcu_fd_sc_mcu7t5v0__clkinv_1
*I *1475:I I *D gf180mcu_fd_sc_mcu7t5v0__clkinv_1
*I *1648:Z O *D gf180mcu_fd_sc_mcu7t5v0__dlyb_1
*CAP
1 *1507:I 0
2 *1447:I 0.000560127
3 *1471:I 0.000576529
4 *1456:I 0
5 *1475:I 0
6 *1648:Z 8.80258e-05
7 *364:24 0.00139272
8 *364:20 0.000568975
9 *364:13 0.0012893
10 *364:6 0.00106442
11 *1447:I *1257:I 0
12 *1447:I *421:8 0
13 *1447:I *421:37 0.000844673
14 *1471:I *1227:I 5.90026e-05
15 *1471:I *1269:A1 0.000167598
16 *1471:I *418:12 0.00250077
17 *364:13 *1270:B1 5.77053e-05
18 *364:13 *374:27 0
19 *364:13 *376:14 5.29658e-05
20 *364:13 *423:12 2.81522e-06
21 *364:20 *1227:I 0
22 *364:20 *1269:A1 0
23 *364:20 *423:12 0.000130892
24 *1270:C *1471:I 0
25 *1270:C *364:13 0.000259315
26 *1271:A2 *364:13 0
27 *1296:A1 *1447:I 4.17612e-05
28 *1296:A1 *364:24 0.000447626
29 *1391:A1 *1447:I 0.000631861
30 *1396:A2 *1447:I 0.000832916
31 *1521:RN *364:6 5.61634e-05
32 *1553:D *1447:I 1.75485e-05
33 *1553:D *364:24 6.35457e-05
34 *1553:RN *364:20 0.000265501
35 *1566:RN *364:13 2.50972e-05
36 *1572:I *1447:I 0.000340307
37 *136:19 *1447:I 0.000457065
38 *154:23 *364:13 7.93118e-05
39 *203:26 *1447:I 9.42233e-05
40 *294:7 *364:13 0.000230303
41 *294:97 *364:13 0.000501436
42 *298:10 *364:13 4.18157e-05
43 *316:57 *1447:I 0.0027332
44 *319:29 *1447:I 0.000404976
*RES
1 *1648:Z *364:6 5.436 
2 *364:6 *1475:I 4.5 
3 *364:6 *364:13 8.84 
4 *364:13 *1456:I 4.5 
5 *364:13 *364:20 2.6 
6 *364:20 *364:24 6.892 
7 *364:24 *1471:I 16.072 
8 *364:24 *1447:I 22.208 
9 *364:20 *1507:I 4.5 
*END

*D_NET *365 0.00518487
*CONN
*I *1505:I I *D gf180mcu_fd_sc_mcu7t5v0__clkinv_1
*I *1448:I I *D gf180mcu_fd_sc_mcu7t5v0__clkinv_1
*I *1506:I I *D gf180mcu_fd_sc_mcu7t5v0__clkinv_1
*I *1649:Z O *D gf180mcu_fd_sc_mcu7t5v0__dlyb_1
*CAP
1 *1505:I 4.42032e-05
2 *1448:I 0.000276208
3 *1506:I 0
4 *1649:Z 5.87268e-05
5 *365:23 0.000778185
6 *365:10 0.0005165
7 *1448:I *415:29 6.69695e-05
8 *365:23 *415:29 2.46831e-05
9 *1294:A2 *1448:I 2.46717e-05
10 *1294:A2 *365:23 4.07478e-05
11 *1551:RN *1505:I 3.42651e-05
12 *1551:RN *365:23 0.000272076
13 *1552:D *365:23 0.000306679
14 *1552:RN *365:10 0.000698193
15 *1552:CLK *365:23 0.000124643
16 *1558:CLK *1448:I 0.000148864
17 *1558:CLK *365:23 1.35134e-05
18 *1609:I *1448:I 7.96342e-05
19 *1609:I *365:10 0.000223084
20 *1609:I *365:23 6.69856e-05
21 *316:25 *365:23 0.000790237
22 *316:42 *1448:I 8.07956e-05
23 *316:42 *365:23 0.000515004
*RES
1 *1649:Z *365:10 15.476 
2 *365:10 *1506:I 4.5 
3 *365:10 *365:23 6.448 
4 *365:23 *1448:I 7.308 
5 *365:23 *1505:I 5.02 
*END

*D_NET *366 0.00355958
*CONN
*I *1358:I1 I *D gf180mcu_fd_sc_mcu7t5v0__mux2_2
*I *1661:I I *D gf180mcu_fd_sc_mcu7t5v0__dlyb_1
*I *1533:Q O *D gf180mcu_fd_sc_mcu7t5v0__dffrnq_1
*CAP
1 *1358:I1 0.000542264
2 *1661:I 0.000393313
3 *1533:Q 0
4 *366:4 0.000935577
5 *1358:I1 *1278:B1 0.00054655
6 *1358:I1 *1424:A1 1.26446e-05
7 *1358:I1 *1424:A2 0.000500761
8 *1358:I1 *383:14 0.000139151
9 *1425:A3 *1358:I1 0.000121256
10 *1533:D *1358:I1 9.57622e-05
11 *1533:D *1661:I 0.000241804
12 *1533:RN *1661:I 0
13 *1641:I *1358:I1 2.39167e-05
14 *1641:I *1661:I 6.58295e-06
15 *352:30 *1661:I 0
*RES
1 *1533:Q *366:4 4.5 
2 *366:4 *1661:I 16.62 
3 *366:4 *1358:I1 9.7 
*END

*D_NET *367 0.0094404
*CONN
*I *1503:I I *D gf180mcu_fd_sc_mcu7t5v0__clkinv_1
*I *1445:I I *D gf180mcu_fd_sc_mcu7t5v0__clkinv_1
*I *1504:I I *D gf180mcu_fd_sc_mcu7t5v0__clkinv_1
*I *1502:I I *D gf180mcu_fd_sc_mcu7t5v0__clkinv_1
*I *1260:I I *D gf180mcu_fd_sc_mcu7t5v0__clkinv_1
*I *1650:Z O *D gf180mcu_fd_sc_mcu7t5v0__dlyb_1
*CAP
1 *1503:I 0.000408782
2 *1445:I 0.000399027
3 *1504:I 0
4 *1502:I 0.00131087
5 *1260:I 0.000253796
6 *1650:Z 3.0305e-05
7 *367:47 0.0010505
8 *367:34 0.000417071
9 *367:23 0.00202637
10 *367:6 0.000825213
11 *1445:I *393:10 0.000188241
12 *1502:I *1324:B 0
13 *1502:I *391:10 0
14 *367:23 *393:10 5.12018e-05
15 *367:34 *393:10 0.000128814
16 *367:47 *393:10 8.6099e-05
17 *1296:A1 *1260:I 0
18 *1325:A1 *1502:I 0
19 *1325:A2 *1502:I 0
20 *1391:A2 *367:47 0
21 *1402:A3 *1445:I 0.00061761
22 *1444:I0 *1260:I 5.47431e-06
23 *1549:RN *1502:I 5.90026e-05
24 *1550:RN *1502:I 0
25 *1550:RN *1503:I 2.47364e-05
26 *1550:RN *367:47 3.34231e-05
27 *1554:RN *1260:I 0
28 *1554:RN *367:23 0
29 *1555:D *1445:I 4.78993e-05
30 *1555:CLK *1445:I 0.000102348
31 *1555:CLK *1503:I 0.000276018
32 *1555:CLK *367:47 0.00047924
33 *1578:I *1503:I 6.56921e-05
34 *1579:I *1503:I 0
35 *29:8 *1260:I 0.000317207
36 *301:10 *1445:I 0.000235458
*RES
1 *1650:Z *367:6 4.812 
2 *367:6 *1260:I 6.684 
3 *367:6 *367:23 8.244 
4 *367:23 *1502:I 17.632 
5 *367:23 *367:34 1.976 
6 *367:34 *1504:I 9 
7 *367:34 *367:47 7.204 
8 *367:47 *1445:I 18.804 
9 *367:47 *1503:I 8.036 
*END

*D_NET *368 0.016752
*CONN
*I *1446:I I *D gf180mcu_fd_sc_mcu7t5v0__clkinv_1
*I *1650:I I *D gf180mcu_fd_sc_mcu7t5v0__dlyb_1
*I *1649:I I *D gf180mcu_fd_sc_mcu7t5v0__dlyb_1
*I *1648:I I *D gf180mcu_fd_sc_mcu7t5v0__dlyb_1
*I *1651:Z O *D gf180mcu_fd_sc_mcu7t5v0__dlyb_1
*CAP
1 *1446:I 0.00081655
2 *1650:I 0.000291987
3 *1649:I 0.00044097
4 *1648:I 0.000240016
5 *1651:Z 0
6 *368:36 0.0027058
7 *368:8 0.000844369
8 *368:4 0.00176064
9 *1446:I *1392:A1 5.82251e-05
10 *1446:I *1401:A1 0.000130867
11 *1446:I *419:10 5.90118e-05
12 *1446:I *420:14 0.000271147
13 *1446:I *421:8 0
14 *1648:I *1265:A1 0
15 *1650:I *418:6 0.000185295
16 *368:36 *1272:A2 0.000754475
17 *368:36 *421:37 1.51022e-05
18 *1263:A1 *1648:I 0.000427061
19 *1263:A1 *368:8 5.63044e-06
20 *1264:A2 *368:8 0.000276247
21 *1268:B2 *1648:I 0
22 *1268:B2 *1649:I 0
23 *1272:B2 *368:8 0.000465606
24 *1272:B2 *368:36 0.000431021
25 *1273:A1 *1649:I 0.000937003
26 *1273:A3 *1649:I 0.000160628
27 *1273:A4 *368:8 0.000325512
28 *1273:A4 *368:36 0.000317994
29 *1298:A2 *1446:I 0
30 *1391:A2 *1446:I 2.87521e-05
31 *1391:A2 *1650:I 0.000111861
32 *1392:A2 *1446:I 0.000489998
33 *1400:A3 *1446:I 0.000531148
34 *1402:A1 *1446:I 4.93913e-05
35 *1404:A3 *1650:I 0.000271764
36 *1444:I1 *1650:I 0.000174665
37 *1522:CLK *1648:I 1.77303e-05
38 *1522:CLK *1649:I 4.31567e-05
39 *1552:RN *1649:I 1.23748e-05
40 *1554:D *1650:I 0.00017113
41 *1554:RN *1650:I 5.13239e-06
42 *1572:I *368:36 0.000189884
43 *1609:I *1649:I 0.000865238
44 *153:23 *368:8 0.000819327
45 *153:23 *368:36 3.542e-05
46 *154:23 *1648:I 0
47 *261:19 *1446:I 7.14178e-05
48 *261:19 *1650:I 0.000333644
49 *320:10 *1446:I 0.000608792
*RES
1 *1651:Z *368:4 4.5 
2 *368:4 *368:8 7.932 
3 *368:8 *1648:I 10.976 
4 *368:8 *1649:I 14.928 
5 *368:4 *368:36 25.356 
6 *368:36 *1650:I 12.328 
7 *368:36 *1446:I 19.296 
*END

*D_NET *369 0.0111084
*CONN
*I *1651:I I *D gf180mcu_fd_sc_mcu7t5v0__dlyb_1
*I *1647:I I *D gf180mcu_fd_sc_mcu7t5v0__dlyb_1
*I *1652:Z O *D gf180mcu_fd_sc_mcu7t5v0__dlyb_1
*CAP
1 *1651:I 0.00185937
2 *1647:I 0.00216682
3 *1652:Z 0.000307449
4 *1651:I *1247:I 0.000397047
5 *1651:I *1261:A2 0.00131938
6 *1651:I *1387:I0 0.000307563
7 *1651:I *1390:I0 0.000538473
8 *1651:I *374:19 0.000233111
9 *1651:I *374:27 4.44673e-06
10 *1270:A1 *1651:I 8.44565e-06
11 *1270:B2 *1651:I 0.000999971
12 *1272:C2 *1651:I 9.35542e-06
13 *1355:I0 *1651:I 0.00153272
14 *1355:S *1651:I 0
15 *1388:A2 *1651:I 0.000605863
16 *1389:A1 *1651:I 0.000124761
17 *1568:D *1647:I 0
18 *1568:D *1651:I 0
19 *1644:I *1647:I 0
20 *155:25 *1651:I 2.38656e-05
21 *334:27 *1651:I 0
22 *346:12 *1651:I 5.49704e-05
23 *359:26 *1651:I 0.00013448
24 *360:8 *1647:I 0.000215244
25 *360:25 *1647:I 8.28798e-05
26 *360:25 *1651:I 0.000182208
27 *363:52 *1651:I 0
*RES
1 *1652:Z *1647:I 11.6 
2 *1647:I *1651:I 39.32 
*END

*D_NET *370 0.0157077
*CONN
*I *1652:I I *D gf180mcu_fd_sc_mcu7t5v0__dlyb_1
*I *1642:I I *D gf180mcu_fd_sc_mcu7t5v0__dlyb_1
*I *1653:Z O *D gf180mcu_fd_sc_mcu7t5v0__dlyb_1
*CAP
1 *1652:I 0.00270759
2 *1642:I 0.000156747
3 *1653:Z 0.001278
4 *370:10 0.00414233
5 *1652:I *1356:A1 7.96024e-05
6 *1652:I *1360:A2 0.0013969
7 *1652:I *1630:I 0
8 *1652:I *414:8 4.62012e-05
9 *1652:I *414:27 0.000320012
10 *370:10 *396:14 0.000114051
11 *1343:A1 *1652:I 0.000963621
12 *1346:A2 *1652:I 3.49373e-06
13 *1350:A1 *1652:I 8.21146e-06
14 *1352:S *1652:I 0.000219115
15 *1357:I0 *1642:I 0.000211381
16 *1357:I0 *1652:I 0.000275829
17 *1360:A1 *1652:I 0.000256285
18 *1366:A1 *1652:I 0.000488468
19 *1377:A1 *1652:I 5.37778e-05
20 *1377:A2 *1652:I 0.000774475
21 *1388:A1 *1652:I 0.000103002
22 *1491:I *370:10 3.77656e-05
23 *1532:CLK *1652:I 0
24 *1536:CLK *1652:I 0.000228047
25 *1537:RN *370:10 0.000245659
26 *1538:D *1652:I 0.000166218
27 *1539:D *1652:I 7.11701e-05
28 *1539:CLK *1652:I 0
29 *1541:D *1652:I 2.21714e-05
30 *1541:RN *1652:I 1.35124e-05
31 *1568:RN *1652:I 2.66703e-05
32 *1596:I *1652:I 0.000220007
33 *1643:I *1652:I 0
34 *1644:I *1652:I 0
35 *144:41 *1652:I 0.000387139
36 *245:24 *1642:I 7.29631e-05
37 *245:24 *1652:I 0.000217613
38 *302:27 *370:10 0.000167561
39 *305:20 *370:10 7.75174e-05
40 *334:27 *1652:I 4.84242e-05
41 *348:33 *370:10 3.15777e-05
42 *358:14 *370:10 7.46012e-05
43 *360:41 *1652:I 0
*RES
1 *1653:Z *370:10 22.756 
2 *370:10 *1642:I 6.06 
3 *370:10 *1652:I 47.668 
*END

*D_NET *371 0.0105095
*CONN
*I *1357:I1 I *D gf180mcu_fd_sc_mcu7t5v0__mux2_2
*I *1662:I I *D gf180mcu_fd_sc_mcu7t5v0__dlyb_1
*I *1534:Q O *D gf180mcu_fd_sc_mcu7t5v0__dffrnq_1
*CAP
1 *1357:I1 0.000564752
2 *1662:I 0.00212998
3 *1534:Q 0.000259522
4 *371:6 0.00295426
5 *1373:A1 *371:6 6.8199e-07
6 *1462:I *1662:I 0
7 *1479:I *1662:I 0.000793462
8 *1524:RN *371:6 5.02468e-05
9 *1525:RN *371:6 0
10 *1533:D *1662:I 0
11 *1533:CLK *371:6 1.37466e-05
12 *1534:RN *1662:I 0
13 *1534:RN *371:6 0
14 *1632:I *1357:I1 0
15 *1653:I *1357:I1 0.00144667
16 *1653:I *1662:I 0
17 *311:26 *1357:I1 0.000219886
18 *347:8 *1662:I 6.41721e-05
19 *347:8 *371:6 4.28472e-05
20 *352:8 *1662:I 0.000501134
21 *352:30 *1662:I 0.00146815
22 *352:34 *1662:I 0
*RES
1 *1534:Q *371:6 6.268 
2 *371:6 *1662:I 34.612 
3 *371:6 *1357:I1 22.34 
*END

*D_NET *372 0.00295273
*CONN
*I *1626:I I *D gf180mcu_fd_sc_mcu7t5v0__dlyb_1
*I *1546:Q O *D gf180mcu_fd_sc_mcu7t5v0__dffrnq_1
*CAP
1 *1626:I 0.000896735
2 *1546:Q 0.000896735
3 *1626:I *413:12 0.000133412
4 *1626:I *413:18 0.000224686
5 *1408:B1 *1626:I 1.85523e-05
6 *1408:B2 *1626:I 4.16649e-05
7 *1409:A1 *1626:I 2.24654e-05
8 *1409:A2 *1626:I 0.000247057
9 *1546:RN *1626:I 1.29379e-05
10 *1563:D *1626:I 0.000297825
11 *1564:D *1626:I 0
12 *1663:I *1626:I 0
13 *339:30 *1626:I 0.00016066
*RES
1 *1546:Q *1626:I 17.216 
*END

*D_NET *373 0.006528
*CONN
*I *1231:I I *D gf180mcu_fd_sc_mcu7t5v0__clkinv_1
*I *1664:I I *D gf180mcu_fd_sc_mcu7t5v0__dlyb_1
*I *1545:Q O *D gf180mcu_fd_sc_mcu7t5v0__dffsnq_1
*CAP
1 *1231:I 8.3713e-05
2 *1664:I 0.000464075
3 *1545:Q 0.0007945
4 *373:10 0.00134229
5 *1664:I *409:14 0.000316249
6 *1664:I *409:21 0.00109919
7 *1333:A2 *1664:I 0.000147623
8 *1338:C *373:10 0
9 *1339:A1 *1664:I 2.73715e-06
10 *1339:A2 *1231:I 4.81384e-05
11 *1339:A2 *1664:I 0.000208649
12 *1408:A1 *373:10 7.30016e-05
13 *1409:A1 *373:10 0
14 *1414:A2 *1664:I 0.000205027
15 *1546:CLK *373:10 0.000107022
16 *1659:I *1231:I 0.000125251
17 *1659:I *1664:I 0.000124533
18 *233:24 *1664:I 0.000876213
19 *312:16 *1664:I 0.00050979
20 *361:51 *373:10 0
*RES
1 *1545:Q *373:10 18.388 
2 *373:10 *1664:I 12.82 
3 *373:10 *1231:I 5.436 
*END

*D_NET *374 0.0118469
*CONN
*I *1261:A3 I *D gf180mcu_fd_sc_mcu7t5v0__nor3_1
*I *1267:B1 I *D gf180mcu_fd_sc_mcu7t5v0__oai221_1
*I *1270:A2 I *D gf180mcu_fd_sc_mcu7t5v0__aoi221_1
*I *1390:I0 I *D gf180mcu_fd_sc_mcu7t5v0__mux2_2
*I *1516:Q O *D gf180mcu_fd_sc_mcu7t5v0__dffsnq_1
*CAP
1 *1261:A3 8.90959e-05
2 *1267:B1 0.000402342
3 *1270:A2 0
4 *1390:I0 0.000525116
5 *1516:Q 0
6 *374:27 0.000826395
7 *374:19 0.000861872
8 *374:6 0.000873839
9 *1261:A3 *1387:I0 1.60428e-05
10 *1267:B1 *1247:I 8.82081e-06
11 *1267:B1 *1270:B1 0.000419472
12 *1267:B1 *1272:B1 0.000437307
13 *1267:B1 *1272:C1 0.000499111
14 *1267:B1 *375:8 0.000236426
15 *1390:I0 *1630:I 0.000317921
16 *374:19 *1387:I0 0.000832926
17 *374:27 *1270:B1 2.81522e-06
18 *374:27 *1387:I0 7.92502e-05
19 *1263:A1 *1261:A3 1.78817e-06
20 *1264:A1 *1267:B1 2.13536e-05
21 *1270:A1 *1267:B1 0.00211823
22 *1270:A1 *374:27 1.07369e-05
23 *1270:C *1267:B1 4.09769e-05
24 *1271:A2 *374:27 1.03327e-05
25 *1273:A4 *1267:B1 0
26 *1388:A2 *374:19 6.41072e-05
27 *1389:A1 *1261:A3 4.67771e-06
28 *1389:A1 *374:27 0.00112217
29 *1389:B *1261:A3 1.07369e-05
30 *1494:I *1390:I0 2.80993e-05
31 *1494:I *374:19 2.84156e-05
32 *1517:D *374:19 0.000189647
33 *1517:D *374:27 0.000143482
34 *1517:RN *1267:B1 1.67036e-05
35 *1643:I *1390:I0 2.60017e-05
36 *1651:I *1390:I0 0.000538473
37 *1651:I *374:19 0.000233111
38 *1651:I *374:27 4.44673e-06
39 *137:20 *1267:B1 8.35223e-05
40 *154:23 *374:27 5.28488e-05
41 *155:25 *374:27 0
42 *334:27 *1390:I0 0.00011444
43 *346:12 *1390:I0 0.000411041
44 *359:10 *1390:I0 0.000142811
45 *364:13 *374:27 0
*RES
1 *1516:Q *374:6 9 
2 *374:6 *1390:I0 15.448 
3 *374:6 *374:19 4.888 
4 *374:19 *374:27 9.18 
5 *374:27 *1270:A2 4.5 
6 *374:27 *1267:B1 20.78 
7 *374:19 *1261:A3 9.52 
*END

*D_NET *375 0.00452897
*CONN
*I *1247:I I *D gf180mcu_fd_sc_mcu7t5v0__clkinv_1
*I *1261:A2 I *D gf180mcu_fd_sc_mcu7t5v0__nor3_1
*I *1517:Q O *D gf180mcu_fd_sc_mcu7t5v0__dffrnq_1
*CAP
1 *1247:I 0.000246008
2 *1261:A2 0.000253557
3 *1517:Q 4.81679e-05
4 *375:8 0.000547733
5 *1247:I *1270:B1 0.000143493
6 *1247:I *1272:B1 0.000287569
7 *1247:I *1272:C1 0.000165736
8 *1261:A2 *1270:B1 0.000159365
9 *1264:A2 *1247:I 0.00014466
10 *1267:B1 *1247:I 8.82081e-06
11 *1267:B1 *375:8 0.000236426
12 *1270:A1 *375:8 0.000236426
13 *1270:B2 *1247:I 0.000191756
14 *1389:A1 *1247:I 0.000142822
15 *1651:I *1247:I 0.000397047
16 *1651:I *1261:A2 0.00131938
17 *294:99 *1261:A2 0
18 *294:161 *1261:A2 0
*RES
1 *1517:Q *375:8 9.728 
2 *375:8 *1261:A2 12.432 
3 *375:8 *1247:I 13.68 
*END

*D_NET *376 0.00660988
*CONN
*I *1269:A2 I *D gf180mcu_fd_sc_mcu7t5v0__xor2_1
*I *1261:A1 I *D gf180mcu_fd_sc_mcu7t5v0__nor3_1
*I *1387:I0 I *D gf180mcu_fd_sc_mcu7t5v0__mux2_2
*I *1518:Q O *D gf180mcu_fd_sc_mcu7t5v0__dffsnq_1
*CAP
1 *1269:A2 0.000106767
2 *1261:A1 0
3 *1387:I0 0.000168999
4 *1518:Q 0.000503749
5 *376:14 0.000805192
6 *376:10 0.00124671
7 *1269:A2 *1257:I 6.54452e-05
8 *1269:A2 *423:12 0.000781715
9 *376:10 *1257:I 7.80235e-06
10 *1261:A3 *1387:I0 1.60428e-05
11 *1263:A1 *1387:I0 3.4596e-05
12 *1388:A2 *1387:I0 0.000447626
13 *1389:A1 *1387:I0 0.000116476
14 *1455:I *376:10 0.00061761
15 *1518:SETN *376:10 0
16 *1553:D *1269:A2 0
17 *1553:D *376:10 0
18 *1566:RN *1269:A2 0.000179963
19 *1566:RN *376:14 9.09864e-05
20 *1651:I *1387:I0 0.000307563
21 *294:97 *1387:I0 2.70178e-05
22 *294:97 *376:14 0.000120479
23 *364:13 *376:14 5.29658e-05
24 *374:19 *1387:I0 0.000832926
25 *374:27 *1387:I0 7.92502e-05
*RES
1 *1518:Q *376:10 13.368 
2 *376:10 *376:14 10.012 
3 *376:14 *1387:I0 17.244 
4 *376:14 *1261:A1 4.5 
5 *376:10 *1269:A2 11.392 
*END

*D_NET *377 0.00140402
*CONN
*I *1262:A4 I *D gf180mcu_fd_sc_mcu7t5v0__nor4_1
*I *1246:I I *D gf180mcu_fd_sc_mcu7t5v0__clkinv_1
*I *1519:Q O *D gf180mcu_fd_sc_mcu7t5v0__dffrnq_1
*CAP
1 *1262:A4 0.000282432
2 *1246:I 0
3 *1519:Q 4.50914e-05
4 *377:6 0.000327523
5 *1262:A4 *1245:I 0
6 *1262:A4 *378:25 0.000177246
7 *1473:I *1262:A4 0.000306858
8 *1473:I *377:6 5.13977e-05
9 *1474:I *1262:A4 0
10 *1519:RN *1262:A4 1.12327e-05
11 *155:8 *1262:A4 0.00012524
12 *155:25 *1262:A4 7.69998e-05
*RES
1 *1519:Q *377:6 5.02 
2 *377:6 *1246:I 4.5 
3 *377:6 *1262:A4 7.516 
*END

*D_NET *378 0.00745309
*CONN
*I *1265:A1 I *D gf180mcu_fd_sc_mcu7t5v0__xor2_1
*I *1262:A3 I *D gf180mcu_fd_sc_mcu7t5v0__nor4_1
*I *1384:I0 I *D gf180mcu_fd_sc_mcu7t5v0__mux2_2
*I *1520:Q O *D gf180mcu_fd_sc_mcu7t5v0__dffrnq_1
*CAP
1 *1265:A1 0.000566743
2 *1262:A3 0
3 *1384:I0 0.000709601
4 *1520:Q 0
5 *378:25 0.000989806
6 *378:6 0.00113266
7 *1265:A1 *1244:I 1.78817e-06
8 *1265:A1 *1262:A1 9.98143e-05
9 *1265:A1 *1262:A2 0.000199998
10 *1265:A1 *380:8 9.00698e-05
11 *378:25 *1245:I 0.000102348
12 *378:25 *1262:A2 8.69612e-05
13 *1262:A4 *378:25 0.000177246
14 *1263:A1 *1265:A1 0
15 *1271:A1 *1265:A1 0.000428444
16 *1271:A2 *1265:A1 3.42651e-05
17 *1273:A1 *1265:A1 1.71326e-05
18 *1273:A3 *1265:A1 0
19 *1383:A1 *378:25 2.79795e-05
20 *1385:A2 *378:25 7.19592e-05
21 *1386:A1 *1265:A1 0
22 *1386:A1 *378:25 0.00035017
23 *1386:B *378:25 0.000286402
24 *1520:D *1384:I0 1.823e-05
25 *1520:RN *1384:I0 7.84575e-05
26 *1520:RN *378:25 5.24641e-05
27 *1521:D *1384:I0 0.000198334
28 *1522:CLK *1265:A1 0.000752333
29 *1540:RN *1384:I0 1.80647e-05
30 *1619:I *1384:I0 0
31 *1648:I *1265:A1 0
32 *153:23 *1265:A1 2.39523e-06
33 *154:6 *1265:A1 0
34 *155:25 *1265:A1 1.40331e-05
35 *155:25 *378:25 2.91591e-05
36 *311:36 *1384:I0 0.000485392
37 *324:26 *1384:I0 0.000290168
38 *324:26 *378:25 3.71367e-05
39 *324:37 *378:25 0.000103536
*RES
1 *1520:Q *378:6 9 
2 *378:6 *1384:I0 16.28 
3 *378:6 *378:25 11.052 
4 *378:25 *1262:A3 4.5 
5 *378:25 *1265:A1 19.428 
*END

*D_NET *379 0.0012901
*CONN
*I *1262:A2 I *D gf180mcu_fd_sc_mcu7t5v0__nor4_1
*I *1245:I I *D gf180mcu_fd_sc_mcu7t5v0__clkinv_1
*I *1521:Q O *D gf180mcu_fd_sc_mcu7t5v0__dffrnq_1
*CAP
1 *1262:A2 0.000117464
2 *1245:I 0.000198684
3 *1521:Q 0
4 *379:6 0.000316148
5 *1262:A4 *1245:I 0
6 *1263:A1 *1245:I 0
7 *1263:A1 *1262:A2 0
8 *1265:A1 *1262:A2 0.000199998
9 *1385:A2 *1245:I 4.44673e-06
10 *1386:A1 *1262:A2 7.76861e-06
11 *154:6 *1245:I 0.000256285
12 *378:25 *1245:I 0.000102348
13 *378:25 *1262:A2 8.69612e-05
*RES
1 *1521:Q *379:6 9 
2 *379:6 *1245:I 10.872 
3 *379:6 *1262:A2 10.352 
*END

*D_NET *380 0.0028253
*CONN
*I *1244:I I *D gf180mcu_fd_sc_mcu7t5v0__clkinv_1
*I *1262:A1 I *D gf180mcu_fd_sc_mcu7t5v0__nor4_1
*I *1522:Q O *D gf180mcu_fd_sc_mcu7t5v0__dffrnq_1
*CAP
1 *1244:I 0.000152617
2 *1262:A1 0.000255058
3 *1522:Q 0.000619863
4 *380:8 0.00102754
5 *1265:A1 *1244:I 1.78817e-06
6 *1265:A1 *1262:A1 9.98143e-05
7 *1265:A1 *380:8 9.00698e-05
8 *1381:A1 *1244:I 6.18147e-05
9 *1381:B *1262:A1 0
10 *1522:CLK *1262:A1 4.91818e-05
11 *1522:CLK *380:8 0.000202054
12 *1609:I *380:8 0
13 *155:25 *1262:A1 0.000265501
*RES
1 *1522:Q *380:8 14.72 
2 *380:8 *1262:A1 11.288 
3 *380:8 *1244:I 9.936 
*END

*D_NET *381 0.00794369
*CONN
*I *1264:B I *D gf180mcu_fd_sc_mcu7t5v0__aoi21_1
*I *1268:A1 I *D gf180mcu_fd_sc_mcu7t5v0__aoi221_1
*I *1378:A1 I *D gf180mcu_fd_sc_mcu7t5v0__nor2_1
*I *1523:Q O *D gf180mcu_fd_sc_mcu7t5v0__dffrnq_1
*CAP
1 *1264:B 0.000228226
2 *1268:A1 0
3 *1378:A1 0.000286282
4 *1523:Q 0.000162703
5 *381:27 0.00110339
6 *381:10 0.00132415
7 *1378:A1 *431:29 0.000367043
8 *381:10 *431:29 0.000405865
9 *381:27 *1265:A2 0
10 *1264:A1 *1264:B 0.000280581
11 *1267:A2 *1264:B 0
12 *1268:A2 *1264:B 0.00029494
13 *1268:A2 *381:27 1.71326e-05
14 *1268:C *381:27 5.47431e-06
15 *1273:A2 *1264:B 0.000405981
16 *1273:A2 *381:27 0.000361897
17 *1273:A3 *381:27 0.000397744
18 *1273:A4 *1264:B 0.000100055
19 *1273:A4 *381:27 0.000240183
20 *1281:A1 *1378:A1 0.000304622
21 *1381:A2 *1378:A1 7.11788e-06
22 *1476:I *381:27 0.000428213
23 *1621:I *381:27 0
24 *308:35 *381:10 0.000256285
25 *308:35 *381:27 2.39156e-06
26 *354:53 *1378:A1 4.22179e-05
27 *356:8 *381:10 3.26853e-05
28 *356:8 *381:27 0.000888517
*RES
1 *1523:Q *381:10 10.872 
2 *381:10 *1378:A1 12.64 
3 *381:10 *381:27 13.548 
4 *381:27 *1268:A1 4.5 
5 *381:27 *1264:B 16.412 
*END

*D_NET *382 0.00617587
*CONN
*I *1290:A4 I *D gf180mcu_fd_sc_mcu7t5v0__nor4_1
*I *1243:I I *D gf180mcu_fd_sc_mcu7t5v0__clkinv_1
*I *1524:Q O *D gf180mcu_fd_sc_mcu7t5v0__dffrnq_1
*CAP
1 *1290:A4 0.00074758
2 *1243:I 0.000182685
3 *1524:Q 6.04943e-05
4 *382:8 0.00099076
5 *1290:A4 *1424:A1 0.00018068
6 *1290:A4 *426:29 0.000102707
7 *1358:S *1290:A4 0.000799231
8 *1358:S *382:8 0.000459347
9 *1373:A1 *1243:I 9.87902e-05
10 *1374:A1 *1290:A4 0.00019161
11 *1374:A2 *1290:A4 0.000110509
12 *1374:A2 *382:8 0.000464112
13 *1422:A3 *1290:A4 3.30363e-05
14 *1509:D *1290:A4 3.4596e-05
15 *1525:D *1243:I 0.000376466
16 *1525:RN *1243:I 0.000579191
17 *1637:I *1290:A4 0.000540079
18 *1653:I *1243:I 7.36158e-05
19 *151:12 *1290:A4 4.08012e-05
20 *335:26 *1290:A4 0.000109579
*RES
1 *1524:Q *382:8 10.352 
2 *382:8 *1243:I 11.392 
3 *382:8 *1290:A4 15.864 
*END

*D_NET *383 0.00675387
*CONN
*I *1242:I I *D gf180mcu_fd_sc_mcu7t5v0__clkinv_1
*I *1290:A3 I *D gf180mcu_fd_sc_mcu7t5v0__nor4_1
*I *1525:Q O *D gf180mcu_fd_sc_mcu7t5v0__dffrnq_1
*CAP
1 *1242:I 0.000790339
2 *1290:A3 0
3 *1525:Q 0.000494147
4 *383:14 0.00128449
5 *1242:I *426:29 8.64888e-06
6 *383:14 *1278:A2 0.000102028
7 *383:14 *1278:B1 7.887e-05
8 *383:14 *1424:A1 3.2745e-06
9 *383:14 *384:19 1.15048e-05
10 *1280:A2 *1242:I 0.00139545
11 *1280:A2 *383:14 0.000162278
12 *1358:I1 *383:14 0.000139151
13 *1425:A3 *383:14 0.000551279
14 *1429:A3 *1242:I 0.000288577
15 *1432:A1 *1242:I 8.73926e-05
16 *1638:I *1242:I 0.000103604
17 *168:14 *1242:I 0.000486485
18 *313:35 *1242:I 0.00051537
19 *313:53 *1242:I 0.00025098
*RES
1 *1525:Q *383:14 13.576 
2 *383:14 *1290:A3 9 
3 *383:14 *1242:I 18.464 
*END

*D_NET *384 0.00687446
*CONN
*I *1274:B2 I *D gf180mcu_fd_sc_mcu7t5v0__oai22_1
*I *1290:A2 I *D gf180mcu_fd_sc_mcu7t5v0__nor4_1
*I *1241:I I *D gf180mcu_fd_sc_mcu7t5v0__clkinv_1
*I *1526:Q O *D gf180mcu_fd_sc_mcu7t5v0__dffrnq_1
*CAP
1 *1274:B2 0.000386366
2 *1290:A2 1.75012e-05
3 *1241:I 0
4 *1526:Q 0.00024318
5 *384:19 0.000666565
6 *384:10 0.000505877
7 *1274:B2 *1275:A1 1.33033e-05
8 *1274:B2 *1279:A2 0.000194522
9 *1274:B2 *1290:A1 0.000104561
10 *1290:A2 *1279:B1 0.000103788
11 *1274:B1 *1274:B2 0.0015091
12 *1278:A1 *384:19 0.000438798
13 *1280:A2 *1274:B2 0.000451187
14 *1280:A2 *384:19 0.000725879
15 *1280:B *1274:B2 4.34874e-05
16 *1481:I *1274:B2 0.000510264
17 *1481:I *384:19 0.000188231
18 *1637:I *384:19 6.41072e-05
19 *1638:I *1274:B2 2.46957e-05
20 *150:6 *384:10 2.98389e-05
21 *294:19 *384:10 6.2878e-05
22 *294:19 *384:19 0.000101428
23 *305:10 *384:10 0
24 *335:26 *1290:A2 0.000103788
25 *347:43 *384:10 0.000346997
26 *357:8 *1274:B2 1.56624e-05
27 *357:27 *1274:B2 1.09486e-05
28 *383:14 *384:19 1.15048e-05
*RES
1 *1526:Q *384:10 11.288 
2 *384:10 *1241:I 9 
3 *384:10 *384:19 3.64 
4 *384:19 *1290:A2 9.312 
5 *384:19 *1274:B2 14.616 
*END

*D_NET *385 0.0058825
*CONN
*I *1240:I I *D gf180mcu_fd_sc_mcu7t5v0__clkinv_1
*I *1274:A1 I *D gf180mcu_fd_sc_mcu7t5v0__oai22_1
*I *1275:A1 I *D gf180mcu_fd_sc_mcu7t5v0__nand2_1
*I *1290:A1 I *D gf180mcu_fd_sc_mcu7t5v0__nor4_1
*I *1527:Q O *D gf180mcu_fd_sc_mcu7t5v0__dffrnq_1
*CAP
1 *1240:I 0.000223946
2 *1274:A1 3.99915e-05
3 *1275:A1 3.11677e-05
4 *1290:A1 0.00032642
5 *1527:Q 0.00018383
6 *385:28 0.000359588
7 *385:12 0.000357587
8 *385:10 0.00027948
9 *1240:I *1279:A2 6.40114e-06
10 *1240:I *429:18 1.23478e-05
11 *1290:A1 *1279:A2 2.24654e-05
12 *1290:A1 *1279:B1 0.000991684
13 *1274:B1 *1274:A1 2.01852e-05
14 *1274:B2 *1275:A1 1.33033e-05
15 *1274:B2 *1290:A1 0.000104561
16 *1275:A2 *1240:I 2.66514e-05
17 *1275:A2 *385:28 0.000222195
18 *1276:A2 *385:10 2.82894e-06
19 *1276:A2 *385:28 6.9711e-06
20 *1280:B *1290:A1 0.000102989
21 *1292:A1 *385:10 0
22 *1292:B1 *385:10 2.91621e-05
23 *1370:A1 *385:10 0.000159376
24 *1370:A1 *385:28 3.35294e-05
25 *1481:I *385:10 0.000169324
26 *1484:I *385:10 4.77321e-05
27 *1598:I *1240:I 6.31944e-05
28 *149:8 *1240:I 0.000439896
29 *149:8 *385:28 0.000249932
30 *167:31 *1274:A1 3.60303e-05
31 *182:12 *1240:I 0.00082771
32 *335:20 *1240:I 0.000260037
33 *357:8 *1290:A1 6.93471e-05
34 *357:27 *1275:A1 2.91549e-05
35 *357:27 *1290:A1 0.000133485
*RES
1 *1527:Q *385:10 10.664 
2 *385:10 *385:12 4.5 
3 *385:12 *1290:A1 8.348 
4 *385:12 *1275:A1 4.812 
5 *385:10 *385:28 1.768 
6 *385:28 *1274:A1 9.312 
7 *385:28 *1240:I 12.952 
*END

*D_NET *386 0.00153266
*CONN
*I *1291:A4 I *D gf180mcu_fd_sc_mcu7t5v0__nor4_1
*I *1239:I I *D gf180mcu_fd_sc_mcu7t5v0__clkinv_1
*I *1528:Q O *D gf180mcu_fd_sc_mcu7t5v0__dffrnq_1
*CAP
1 *1291:A4 0
2 *1239:I 9.06502e-05
3 *1528:Q 0.0002381
4 *386:10 0.00032875
5 *1239:I *1363:A1 0.000500761
6 *1364:B *386:10 2.83159e-05
7 *1368:A1 *386:10 0
8 *1529:SETN *386:10 0.000152316
9 *148:25 *1239:I 0.00019377
*RES
1 *1528:Q *386:10 15.476 
2 *386:10 *1239:I 6.164 
3 *386:10 *1291:A4 4.5 
*END

*D_NET *387 0.00443849
*CONN
*I *1365:A1 I *D gf180mcu_fd_sc_mcu7t5v0__nand2_1
*I *1238:I I *D gf180mcu_fd_sc_mcu7t5v0__clkinv_1
*I *1291:A3 I *D gf180mcu_fd_sc_mcu7t5v0__nor4_1
*I *1529:Q O *D gf180mcu_fd_sc_mcu7t5v0__dffsnq_1
*CAP
1 *1365:A1 0.00034858
2 *1238:I 0.000249122
3 *1291:A3 8.94191e-05
4 *1529:Q 0
5 *387:12 0.0007372
6 *387:4 0.000747239
7 *1238:I *1237:I 2.84715e-05
8 *1238:I *1291:A2 6.89509e-05
9 *1291:A3 *1291:A2 0.00019377
10 *1291:A3 *1363:A1 0.000126399
11 *387:12 *1291:A1 2.95472e-05
12 *387:12 *1291:A2 0.000159517
13 *387:12 *1363:A1 0.000137166
14 *387:12 *400:36 0.000598105
15 *1363:A2 *387:12 6.52236e-05
16 *1364:A1 *1238:I 8.77606e-06
17 *1364:A1 *387:12 0.000497537
18 *1474:I *387:12 4.36433e-05
19 *1519:CLK *1365:A1 0.000103788
20 *1530:CLK *1365:A1 0.000165721
21 *148:25 *1238:I 0
22 *329:16 *1365:A1 4.03134e-05
*RES
1 *1529:Q *387:4 4.5 
2 *387:4 *387:12 15.24 
3 *387:12 *1291:A3 5.852 
4 *387:12 *1238:I 15.684 
5 *387:4 *1365:A1 7.1 
*END

*D_NET *388 0.00358275
*CONN
*I *1237:I I *D gf180mcu_fd_sc_mcu7t5v0__clkinv_1
*I *1291:A2 I *D gf180mcu_fd_sc_mcu7t5v0__nor4_1
*I *1530:Q O *D gf180mcu_fd_sc_mcu7t5v0__dffrnq_1
*CAP
1 *1237:I 0.000119411
2 *1291:A2 0.000218306
3 *1530:Q 0.000117329
4 *388:8 0.000455045
5 *1291:A2 *1291:A1 0.000108108
6 *388:8 *1291:A1 4.5609e-05
7 *1238:I *1237:I 2.84715e-05
8 *1238:I *1291:A2 6.89509e-05
9 *1291:A3 *1291:A2 0.00019377
10 *1364:A1 *1237:I 0.000832926
11 *1364:A1 *1291:A2 0.000501776
12 *1530:RN *1291:A2 0.000579191
13 *1639:I *388:8 1.07369e-05
14 *147:8 *1237:I 9.51777e-05
15 *357:27 *388:8 4.84242e-05
16 *387:12 *1291:A2 0.000159517
*RES
1 *1530:Q *388:8 9.936 
2 *388:8 *1291:A2 12.744 
3 *388:8 *1237:I 11.184 
*END

*D_NET *389 0.00488572
*CONN
*I *1236:I I *D gf180mcu_fd_sc_mcu7t5v0__clkinv_1
*I *1291:A1 I *D gf180mcu_fd_sc_mcu7t5v0__nor4_1
*I *1361:A1 I *D gf180mcu_fd_sc_mcu7t5v0__nand2_1
*I *1531:Q O *D gf180mcu_fd_sc_mcu7t5v0__dffsnq_1
*CAP
1 *1236:I 6.80082e-05
2 *1291:A1 0.000504006
3 *1361:A1 0.000344024
4 *1531:Q 0
5 *389:8 0.00118081
6 *389:6 0.000400786
7 *1236:I *432:14 5.28488e-05
8 *1291:A1 *1363:A1 0
9 *1291:A1 *1380:A1 0
10 *1291:A2 *1291:A1 0.000108108
11 *1361:A2 *1361:A1 0.000178559
12 *1364:A1 *1361:A1 0
13 *1364:A1 *389:8 0
14 *1474:I *1291:A1 3.99505e-05
15 *1474:I *1361:A1 9.96738e-05
16 *1530:RN *1291:A1 0.000579191
17 *1531:D *1361:A1 2.91365e-05
18 *1531:SETN *1291:A1 2.43266e-05
19 *1585:I *1361:A1 0.000150784
20 *1585:I *389:8 9.17722e-05
21 *1586:I *1236:I 7.51266e-05
22 *1586:I *389:8 1.10694e-05
23 *1616:I *1361:A1 0.000256285
24 *1639:I *1291:A1 0.000124557
25 *1639:I *389:8 2.73457e-05
26 *1640:I *1236:I 1.78348e-06
27 *1640:I *389:8 1.72395e-05
28 *145:6 *1236:I 0.000113016
29 *294:65 *1361:A1 4.26239e-05
30 *307:19 *1361:A1 0.000277579
31 *354:23 *1236:I 1.19584e-05
32 *354:23 *1291:A1 0
33 *354:29 *389:8 0
34 *354:53 *1236:I 0
35 *354:53 *389:8 0
36 *357:27 *1291:A1 0
37 *387:12 *1291:A1 2.95472e-05
38 *388:8 *1291:A1 4.5609e-05
*RES
1 *1531:Q *389:6 9 
2 *389:6 *389:8 2.6 
3 *389:8 *1361:A1 13.368 
4 *389:8 *1291:A1 13.472 
5 *389:6 *1236:I 10.04 
*END

*D_NET *390 0.00281148
*CONN
*I *1230:I I *D gf180mcu_fd_sc_mcu7t5v0__clkinv_1
*I *1318:A3 I *D gf180mcu_fd_sc_mcu7t5v0__nand3_1
*I *1328:A1 I *D gf180mcu_fd_sc_mcu7t5v0__nor2_1
*I *1547:Q O *D gf180mcu_fd_sc_mcu7t5v0__dffrnq_1
*CAP
1 *1230:I 0
2 *1318:A3 0.000314439
3 *1328:A1 0.000264609
4 *1547:Q 0.000180389
5 *390:23 0.000409868
6 *390:8 0.000540427
7 *1319:A1 *1318:A3 5.47431e-06
8 *1323:A1 *1318:A3 1.12327e-05
9 *1326:A1 *1318:A3 5.49113e-05
10 *1326:A2 *1318:A3 0.000437162
11 *1329:A1 *1318:A3 0
12 *1329:A1 *1328:A1 0
13 *1329:A2 *1318:A3 0
14 *1329:A2 *1328:A1 0.000265501
15 *1329:A2 *390:23 0
16 *1548:CLK *1318:A3 4.75386e-05
17 *1548:CLK *390:23 4.84242e-05
18 *227:21 *1318:A3 0.000189704
19 *227:21 *1328:A1 0
20 *227:21 *390:8 0
21 *321:17 *1318:A3 4.18042e-05
*RES
1 *1547:Q *390:8 10.768 
2 *390:8 *1328:A1 11.08 
3 *390:8 *390:23 5.436 
4 *390:23 *1318:A3 17.036 
5 *390:23 *1230:I 4.5 
*END

*D_NET *391 0.00388489
*CONN
*I *1324:A1 I *D gf180mcu_fd_sc_mcu7t5v0__aoi21_1
*I *1327:A1 I *D gf180mcu_fd_sc_mcu7t5v0__aoi21_1
*I *1326:B2 I *D gf180mcu_fd_sc_mcu7t5v0__oai22_1
*I *1318:A2 I *D gf180mcu_fd_sc_mcu7t5v0__nand3_1
*I *1548:Q O *D gf180mcu_fd_sc_mcu7t5v0__dffrnq_1
*CAP
1 *1324:A1 0
2 *1327:A1 0.000118658
3 *1326:B2 1.79153e-05
4 *1318:A2 0.000207464
5 *1548:Q 0.000783385
6 *391:25 0.000136573
7 *391:12 0.00041642
8 *391:10 0.000992341
9 *391:12 *1318:A1 0
10 *1325:A2 *1318:A2 0
11 *1326:A1 *1318:A2 0.000469419
12 *1326:B1 *1318:A2 0.000260055
13 *1327:A2 *1326:B2 2.46717e-05
14 *1327:A2 *1327:A1 0.000159517
15 *1327:B *1327:A1 5.60123e-05
16 *1502:I *391:10 0
17 *1548:RN *391:10 0
18 *1548:CLK *1318:A2 5.47431e-06
19 *1548:CLK *1327:A1 0
20 *1549:D *391:10 0
21 *1549:D *391:12 0
22 *223:6 *1318:A2 0.000122244
23 *227:21 *1318:A2 8.48683e-06
24 *227:36 *1318:A2 2.94754e-05
25 *227:36 *1326:B2 1.71326e-05
26 *227:36 *391:12 1.78466e-05
27 *321:17 *1318:A2 4.18042e-05
*RES
1 *1548:Q *391:10 14.824 
2 *391:10 *391:12 1.56 
3 *391:12 *1318:A2 11.496 
4 *391:12 *391:25 4.5 
5 *391:25 *1326:B2 4.812 
6 *391:25 *1327:A1 5.852 
7 *391:10 *1324:A1 9 
*END

*D_NET *392 0.00165419
*CONN
*I *1324:B I *D gf180mcu_fd_sc_mcu7t5v0__aoi21_1
*I *1318:A1 I *D gf180mcu_fd_sc_mcu7t5v0__nand3_1
*I *1549:Q O *D gf180mcu_fd_sc_mcu7t5v0__dffrnq_1
*CAP
1 *1324:B 0.000207335
2 *1318:A1 0.000159999
3 *1549:Q 5.12876e-05
4 *392:8 0.000418621
5 *1325:A1 *1318:A1 3.01776e-05
6 *1325:A2 *1324:B 0.000169099
7 *1502:I *1324:B 0
8 *1549:D *1318:A1 0.000199988
9 *1549:D *392:8 0.000283521
10 *223:6 *1324:B 0
11 *224:8 *1318:A1 7.24199e-05
12 *227:36 *1318:A1 6.17457e-05
13 *391:12 *1318:A1 0
*RES
1 *1549:Q *392:8 9.728 
2 *392:8 *1318:A1 10.976 
3 *392:8 *1324:B 10.768 
*END

*D_NET *393 0.00342827
*CONN
*I *1320:A1 I *D gf180mcu_fd_sc_mcu7t5v0__nor2_1
*I *1229:I I *D gf180mcu_fd_sc_mcu7t5v0__clkinv_1
*I *1550:Q O *D gf180mcu_fd_sc_mcu7t5v0__dffrnq_1
*CAP
1 *1320:A1 0.000229997
2 *1229:I 0.000142695
3 *1550:Q 0.000773571
4 *393:10 0.00114626
5 *1322:A1 *393:10 9.02895e-05
6 *1406:A2 *1229:I 0
7 *1406:A2 *1320:A1 0
8 *1445:I *393:10 0.000188241
9 *1548:CLK *1320:A1 0.000143493
10 *1548:CLK *393:10 0
11 *1554:CLK *393:10 1.42358e-05
12 *1665:I *1320:A1 4.41041e-05
13 *225:8 *1320:A1 2.91591e-05
14 *300:10 *1320:A1 2.36218e-05
15 *300:12 *1229:I 4.84242e-05
16 *300:12 *1320:A1 3.17907e-05
17 *321:6 *1320:A1 0.000256274
18 *367:23 *393:10 5.12018e-05
19 *367:34 *393:10 0.000128814
20 *367:47 *393:10 8.6099e-05
*RES
1 *1550:Q *393:10 21.092 
2 *393:10 *1229:I 5.436 
3 *393:10 *1320:A1 15.996 
*END

*D_NET *394 0.00640329
*CONN
*I *1631:I I *D gf180mcu_fd_sc_mcu7t5v0__dlyb_1
*I *1630:I I *D gf180mcu_fd_sc_mcu7t5v0__dlyb_1
*I *1535:Q O *D gf180mcu_fd_sc_mcu7t5v0__dffrnq_1
*CAP
1 *1631:I 0.000651742
2 *1630:I 0.000769945
3 *1535:Q 0
4 *394:4 0.00142169
5 *1630:I *1356:A1 4.07478e-05
6 *1630:I *1623:I 0.000912176
7 *1630:I *398:44 7.93961e-05
8 *1630:I *414:8 6.67105e-05
9 *1631:I *1250:I 1.49279e-05
10 *1631:I *1623:I 0.000527735
11 *1343:A1 *1630:I 0.00012475
12 *1350:A1 *1630:I 2.38773e-05
13 *1350:B *1630:I 0.000582256
14 *1356:A2 *1630:I 1.26329e-05
15 *1390:I0 *1630:I 0.000317921
16 *1410:B2 *1631:I 0
17 *1497:I *1630:I 0.000113027
18 *1540:D *1630:I 5.6593e-05
19 *1543:RN *1630:I 7.0656e-05
20 *1587:I *1631:I 0
21 *1620:I *1631:I 0.000306159
22 *1652:I *1630:I 0
23 *334:27 *1630:I 0.000252784
24 *334:27 *1631:I 5.75636e-05
*RES
1 *1535:Q *394:4 4.5 
2 *394:4 *1630:I 23.068 
3 *394:4 *1631:I 19.948 
*END

*D_NET *395 0.00609227
*CONN
*I *1628:I I *D gf180mcu_fd_sc_mcu7t5v0__dlyb_1
*I *1629:I I *D gf180mcu_fd_sc_mcu7t5v0__dlyb_1
*I *1536:Q O *D gf180mcu_fd_sc_mcu7t5v0__dffrnq_1
*CAP
1 *1628:I 0.000184021
2 *1629:I 0.000969755
3 *1536:Q 0.000701686
4 *395:10 0.00185546
5 *1628:I *1623:I 0.00035422
6 *1341:A1 *1629:I 0
7 *1490:I *1628:I 0.000250004
8 *1490:I *395:10 0.000261213
9 *1495:I *1628:I 1.81121e-05
10 *1536:RN *395:10 0.000103256
11 *1539:CLK *1629:I 1.36858e-05
12 *1544:RN *1629:I 0.000250091
13 *1571:D *395:10 0
14 *1571:SETN *395:10 0.000100568
15 *1571:CLK *1629:I 0
16 *1571:CLK *395:10 0.000573531
17 *1634:I *1629:I 3.7384e-05
18 *303:34 *1629:I 0
19 *349:23 *1629:I 0.000419276
*RES
1 *1536:Q *395:10 15.032 
2 *395:10 *1629:I 16.8 
3 *395:10 *1628:I 10.976 
*END

*D_NET *396 0.012169
*CONN
*I *1627:I I *D gf180mcu_fd_sc_mcu7t5v0__dlyb_1
*I *1387:I1 I *D gf180mcu_fd_sc_mcu7t5v0__mux2_2
*I *1537:Q O *D gf180mcu_fd_sc_mcu7t5v0__dffrnq_1
*CAP
1 *1627:I 0.000111583
2 *1387:I1 0.00242621
3 *1537:Q 0.000886826
4 *396:14 0.00342462
5 *1366:B *1387:I1 1.70957e-06
6 *1368:A2 *1387:I1 0.000214453
7 *1370:A1 *1387:I1 0.000184094
8 *1370:B *1387:I1 0.000419265
9 *1372:B *396:14 0
10 *1383:B *1387:I1 8.02494e-05
11 *1494:I *1387:I1 0.00032394
12 *1517:CLK *1387:I1 0
13 *1519:CLK *1387:I1 0
14 *1521:D *1387:I1 4.18042e-05
15 *1521:CLK *1387:I1 0.000147649
16 *1524:CLK *396:14 4.07478e-05
17 *1526:D *396:14 1.50543e-05
18 *1528:CLK *1387:I1 0
19 *1542:D *1387:I1 0.000229428
20 *1610:I *1387:I1 5.12575e-05
21 *1612:I *1387:I1 0.000385224
22 *1613:I *1387:I1 5.35362e-06
23 *1613:I *1627:I 0.000103788
24 *1613:I *396:14 0.000138102
25 *1617:I *1387:I1 0
26 *1618:I *1387:I1 7.45061e-05
27 *1619:I *1387:I1 0.00118069
28 *1635:I *1387:I1 6.98116e-05
29 *302:19 *1387:I1 0
30 *302:27 *396:14 0.000832916
31 *326:8 *396:14 0
32 *328:47 *1387:I1 0.000134839
33 *330:6 *1387:I1 0.000209009
34 *330:10 *1387:I1 0.000281364
35 *332:16 *1387:I1 0
36 *341:12 *1387:I1 7.18295e-06
37 *341:12 *396:14 5.12872e-06
38 *341:18 *396:14 1.18566e-06
39 *348:16 *396:14 8.93645e-06
40 *351:6 *396:14 1.80494e-05
41 *370:10 *396:14 0.000114051
*RES
1 *1537:Q *396:14 20.676 
2 *396:14 *1387:I1 27.588 
3 *396:14 *1627:I 5.54 
*END

*D_NET *397 0.0220753
*CONN
*I *1369:A1 I *D gf180mcu_fd_sc_mcu7t5v0__nor2_1
*I *1351:I1 I *D gf180mcu_fd_sc_mcu7t5v0__mux2_2
*I *1330:A3 I *D gf180mcu_fd_sc_mcu7t5v0__nor4_1
*I *1385:A1 I *D gf180mcu_fd_sc_mcu7t5v0__nand2_1
*I *1352:I0 I *D gf180mcu_fd_sc_mcu7t5v0__mux2_2
*I *1538:Q O *D gf180mcu_fd_sc_mcu7t5v0__dffrnq_1
*CAP
1 *1369:A1 0.000459118
2 *1351:I1 0
3 *1330:A3 0.000138
4 *1385:A1 0.0013107
5 *1352:I0 0.000422
6 *1538:Q 0
7 *397:39 0.00224632
8 *397:27 0.000871856
9 *397:12 0.000902335
10 *397:4 0.000865225
11 *1330:A3 *398:27 0.000488457
12 *1385:A1 *1380:A1 0.00017991
13 *397:39 *1347:A1 2.66445e-05
14 *397:39 *1623:I 0.000205266
15 *397:39 *398:27 1.37509e-05
16 *1330:A4 *1330:A3 0.000296432
17 *1330:A4 *397:39 7.6152e-05
18 *1331:A1 *1330:A3 7.90367e-05
19 *1331:A1 *397:39 0.00201362
20 *1331:A2 *1385:A1 0.000112403
21 *1346:A1 *1385:A1 1.42728e-05
22 *1346:B *1385:A1 0.000482792
23 *1362:B *1385:A1 0.000265825
24 *1366:A1 *397:39 6.28659e-05
25 *1369:A2 *1369:A1 0.000206614
26 *1370:A1 *1369:A1 0.00115502
27 *1370:B *1369:A1 0.000137798
28 *1474:I *1385:A1 0.000130877
29 *1492:I *1352:I0 5.47866e-05
30 *1492:I *1369:A1 0.00229447
31 *1492:I *397:12 3.25001e-05
32 *1527:RN *1369:A1 0.000106926
33 *1528:CLK *397:12 0.000130148
34 *1529:CLK *397:39 0.000408707
35 *1530:RN *1369:A1 2.82894e-06
36 *1542:D *1385:A1 0.000296976
37 *1573:I *397:12 0.000464008
38 *1581:I *1385:A1 5.29249e-05
39 *1585:I *1385:A1 6.54608e-05
40 *143:8 *1385:A1 0.000419276
41 *143:10 *1385:A1 2.68644e-05
42 *143:12 *1385:A1 0.000331993
43 *245:24 *1352:I0 0.00049701
44 *245:24 *397:27 4.22072e-05
45 *245:24 *397:39 5.68789e-05
46 *294:7 *1385:A1 0.000184792
47 *294:41 *1369:A1 6.487e-05
48 *294:65 *1385:A1 0.00031802
49 *302:19 *1369:A1 0.000176056
50 *302:19 *397:12 3.86178e-05
51 *304:8 *397:39 0.000268975
52 *329:10 *1385:A1 0.000344349
53 *331:10 *1385:A1 0.000336561
54 *331:16 *397:12 3.43806e-05
55 *331:18 *1352:I0 1.63629e-05
56 *331:18 *397:12 3.69337e-05
57 *341:12 *1369:A1 0.000265462
58 *342:8 *397:39 0.000205662
59 *345:35 *1385:A1 0.000185538
60 *345:56 *1369:A1 2.44781e-05
61 *345:56 *397:12 9.75546e-05
62 *351:12 *1352:I0 0.000184927
63 *351:12 *397:27 0.000419276
64 *351:12 *397:39 0.00042527
*RES
1 *1538:Q *397:4 4.5 
2 *397:4 *397:12 9.18 
3 *397:12 *1352:I0 13.368 
4 *397:12 *397:27 5.644 
5 *397:27 *397:39 18.776 
6 *397:39 *1385:A1 29.204 
7 *397:39 *1330:A3 6.996 
8 *397:27 *1351:I1 4.5 
9 *397:4 *1369:A1 23.796 
*END

*D_NET *398 0.0109963
*CONN
*I *1351:I0 I *D gf180mcu_fd_sc_mcu7t5v0__mux2_2
*I *1384:I1 I *D gf180mcu_fd_sc_mcu7t5v0__mux2_2
*I *1349:A1 I *D gf180mcu_fd_sc_mcu7t5v0__nand2_1
*I *1330:A2 I *D gf180mcu_fd_sc_mcu7t5v0__nor4_1
*I *1367:A1 I *D gf180mcu_fd_sc_mcu7t5v0__nor2_1
*I *1539:Q O *D gf180mcu_fd_sc_mcu7t5v0__dffrnq_1
*CAP
1 *1351:I0 0.000169549
2 *1384:I1 0.000159877
3 *1349:A1 0
4 *1330:A2 0
5 *1367:A1 0
6 *1539:Q 0.000206641
7 *398:44 0.000487016
8 *398:27 0.000787142
9 *398:16 0.00067012
10 *398:10 0.000586307
11 *1384:I1 *1623:I 0.000469241
12 *398:27 *1623:I 0.000244975
13 *398:44 *1623:I 0.000267969
14 *1330:A3 *398:27 0.000488457
15 *1330:A4 *1351:I0 0.000345449
16 *1330:A4 *398:16 4.61897e-05
17 *1330:A4 *398:27 7.26813e-06
18 *1331:A1 *398:27 0.00165181
19 *1332:A1 *398:27 0.000345199
20 *1332:A1 *398:44 0.000601538
21 *1332:A2 *398:27 1.37902e-05
22 *1332:A2 *398:44 9.09856e-05
23 *1343:A1 *398:44 1.34602e-05
24 *1346:B *398:27 0.000248317
25 *1349:A2 *1384:I1 0.000419265
26 *1350:A1 *1384:I1 6.17392e-05
27 *1354:I1 *398:10 0.000195846
28 *1367:A2 *398:27 3.3698e-05
29 *1368:B *398:10 7.56826e-05
30 *1490:I *398:10 8.12752e-05
31 *1520:D *1384:I1 4.33994e-05
32 *1520:D *398:44 1.25277e-05
33 *1630:I *398:44 7.93961e-05
34 *144:8 *1384:I1 0.000155851
35 *144:25 *1384:I1 3.42651e-05
36 *144:25 *398:44 0.000102989
37 *144:41 *398:27 0.000386336
38 *345:56 *398:10 0.000122905
39 *351:12 *1351:I0 8.3325e-05
40 *351:12 *398:16 0.000135977
41 *351:12 *398:27 0.00105676
42 *397:39 *398:27 1.37509e-05
*RES
1 *1539:Q *398:10 15.684 
2 *398:10 *398:16 1.976 
3 *398:16 *1367:A1 4.5 
4 *398:16 *398:27 8.216 
5 *398:27 *1330:A2 4.5 
6 *398:27 *398:44 12.744 
7 *398:44 *1349:A1 4.5 
8 *398:44 *1384:I1 16.412 
9 *398:10 *1351:I0 6.268 
*END

*D_NET *399 0.00113318
*CONN
*I *1382:A1 I *D gf180mcu_fd_sc_mcu7t5v0__nand2_1
*I *1235:I I *D gf180mcu_fd_sc_mcu7t5v0__clkinv_1
*I *1540:Q O *D gf180mcu_fd_sc_mcu7t5v0__dffrnq_1
*CAP
1 *1382:A1 0
2 *1235:I 0.000132406
3 *1540:Q 9.36371e-05
4 *399:8 0.000226043
5 *1494:I *1235:I 0.000406972
6 *1494:I *399:8 0.000194522
7 *1540:RN *1235:I 6.83697e-05
8 *1540:RN *399:8 1.12327e-05
9 *311:36 *1235:I 0
10 *311:36 *399:8 0
*RES
1 *1540:Q *399:8 5.748 
2 *399:8 *1235:I 5.956 
3 *399:8 *1382:A1 4.5 
*END

*D_NET *400 0.0180009
*CONN
*I *1345:A1 I *D gf180mcu_fd_sc_mcu7t5v0__nand2_1
*I *1380:A1 I *D gf180mcu_fd_sc_mcu7t5v0__nand2_1
*I *1363:A1 I *D gf180mcu_fd_sc_mcu7t5v0__nor2_1
*I *1331:A4 I *D gf180mcu_fd_sc_mcu7t5v0__nor4_1
*I *1347:A1 I *D gf180mcu_fd_sc_mcu7t5v0__nor2_1
*I *1541:Q O *D gf180mcu_fd_sc_mcu7t5v0__dffrnq_1
*CAP
1 *1345:A1 0.000268696
2 *1380:A1 0.000517201
3 *1363:A1 0.000470118
4 *1331:A4 0.000117265
5 *1347:A1 0.000260231
6 *1541:Q 0
7 *400:36 0.00171326
8 *400:12 0.000441
9 *400:8 0.000819922
10 *400:4 0.000299174
11 *1239:I *1363:A1 0.000500761
12 *1291:A1 *1363:A1 0
13 *1291:A1 *1380:A1 0
14 *1291:A3 *1363:A1 0.000126399
15 *1330:A4 *1331:A4 0.00111012
16 *1330:A4 *1347:A1 0.000492672
17 *1331:A1 *1347:A1 0.000329061
18 *1345:A2 *1345:A1 0.000456948
19 *1346:B *1345:A1 5.08941e-05
20 *1363:A2 *1363:A1 0.00152558
21 *1366:A1 *1347:A1 7.11788e-06
22 *1366:B *400:36 0.00151158
23 *1367:A2 *1347:A1 6.55615e-05
24 *1385:A1 *1380:A1 0.00017991
25 *1474:I *1380:A1 0.000545935
26 *1474:I *400:36 0.000114373
27 *1483:I *1363:A1 2.81522e-06
28 *1496:I *400:36 0.000138378
29 *1529:D *1347:A1 7.60808e-05
30 *1530:RN *1363:A1 1.16343e-05
31 *1599:I *1363:A1 0.00010677
32 *1599:I *1380:A1 7.53004e-05
33 *1635:I *400:12 6.96556e-05
34 *1635:I *400:36 2.54037e-05
35 *148:25 *1363:A1 1.26446e-05
36 *245:24 *1347:A1 1.823e-05
37 *294:7 *1380:A1 8.41827e-06
38 *294:9 *1363:A1 4.22374e-05
39 *307:6 *1380:A1 0.000236752
40 *307:23 *400:36 8.38181e-05
41 *328:10 *1347:A1 1.23748e-05
42 *328:10 *400:36 0
43 *328:47 *400:36 5.62607e-06
44 *331:16 *1345:A1 0.00116399
45 *331:16 *400:8 0.000106926
46 *332:16 *1347:A1 7.02288e-05
47 *332:16 *400:12 0.000345373
48 *332:16 *400:36 0.000369033
49 *345:10 *1345:A1 0.000488468
50 *345:35 *1331:A4 0.00113801
51 *345:35 *1345:A1 0.000181803
52 *345:35 *1347:A1 0.000201654
53 *345:35 *400:8 2.01852e-05
54 *350:19 *400:36 0.000303401
55 *387:12 *1363:A1 0.000137166
56 *387:12 *400:36 0.000598105
57 *397:39 *1347:A1 2.66445e-05
*RES
1 *1541:Q *400:4 4.5 
2 *400:4 *400:8 4.812 
3 *400:8 *400:12 5.436 
4 *400:12 *1347:A1 16.828 
5 *400:12 *1331:A4 7.724 
6 *400:8 *400:36 13.964 
7 *400:36 *1363:A1 11.26 
8 *400:36 *1380:A1 9.804 
9 *400:4 *1345:A1 8.972 
*END

*D_NET *401 0.000621475
*CONN
*I *1234:I I *D gf180mcu_fd_sc_mcu7t5v0__clkinv_1
*I *1542:Q O *D gf180mcu_fd_sc_mcu7t5v0__dffrnq_1
*CAP
1 *1234:I 7.28436e-05
2 *1542:Q 7.28436e-05
3 *143:10 *1234:I 2.81613e-05
4 *325:10 *1234:I 0.000447626
*RES
1 *1542:Q *1234:I 19.144 
*END

*D_NET *402 0.00436975
*CONN
*I *1233:I I *D gf180mcu_fd_sc_mcu7t5v0__clkinv_1
*I *1360:A2 I *D gf180mcu_fd_sc_mcu7t5v0__nand3_1
*I *1543:Q O *D gf180mcu_fd_sc_mcu7t5v0__dffrnq_1
*CAP
1 *1233:I 0.000177238
2 *1360:A2 0.000262194
3 *1543:Q 0
4 *402:4 0.000439432
5 *1233:I *1356:A3 1.71326e-05
6 *1233:I *414:8 0.000273822
7 *1233:I *414:27 3.3698e-05
8 *1360:A2 *1356:A3 4.15898e-06
9 *1360:A2 *1360:A3 0.00111148
10 *1360:A2 *414:27 3.70486e-05
11 *1377:A2 *1233:I 0.000266826
12 *1377:A2 *1360:A2 0.000349814
13 *1652:I *1360:A2 0.0013969
*RES
1 *1543:Q *402:4 4.5 
2 *402:4 *1360:A2 9.596 
3 *402:4 *1233:I 6.476 
*END

*D_NET *403 0.00245186
*CONN
*I *1356:A1 I *D gf180mcu_fd_sc_mcu7t5v0__nand3_1
*I *1232:I I *D gf180mcu_fd_sc_mcu7t5v0__clkinv_1
*I *1544:Q O *D gf180mcu_fd_sc_mcu7t5v0__dffrnq_1
*CAP
1 *1356:A1 0.000464207
2 *1232:I 0.000202043
3 *1544:Q 0
4 *403:6 0.00066625
5 *1356:A1 *1623:I 5.28976e-05
6 *1356:A1 *414:8 1.12327e-05
7 *1356:A1 *414:27 0.000251185
8 *1377:A1 *1232:I 0.0002623
9 *1388:A1 *1232:I 1.5359e-05
10 *1388:A1 *1356:A1 1.51736e-05
11 *1544:RN *1232:I 0.000171329
12 *1581:I *1232:I 0
13 *1581:I *1356:A1 0
14 *1630:I *1356:A1 4.07478e-05
15 *1652:I *1356:A1 7.96024e-05
16 *245:24 *1356:A1 0.000219533
*RES
1 *1544:Q *403:6 9 
2 *403:6 *1232:I 11.496 
3 *403:6 *1356:A1 13.16 
*END

*D_NET *404 0.0207751
*CONN
*I *1624:I I *D gf180mcu_fd_sc_mcu7t5v0__dlyb_1
*I *1623:I I *D gf180mcu_fd_sc_mcu7t5v0__dlyb_1
*I *1571:Q O *D gf180mcu_fd_sc_mcu7t5v0__dffsnq_1
*CAP
1 *1624:I 0.000795819
2 *1623:I 0.00277134
3 *1571:Q 0.00197552
4 *1623:I *1250:I 0.000337769
5 *1624:I *1311:A1 0.000173315
6 *1624:I *1313:A2 0.000131567
7 *1624:I *1416:A1 0.000179413
8 *1311:A2 *1624:I 0.000247744
9 *1331:A1 *1623:I 6.11661e-05
10 *1346:B *1623:I 0.000256322
11 *1348:A2 *1623:I 8.49559e-05
12 *1349:A2 *1623:I 0.000114687
13 *1350:B *1623:I 0.000582256
14 *1356:A1 *1623:I 5.28976e-05
15 *1366:A1 *1623:I 0.000265836
16 *1384:I1 *1623:I 0.000469241
17 *1410:B2 *1623:I 0.000187975
18 *1421:A2 *1624:I 5.37178e-05
19 *1490:I *1623:I 0.000148835
20 *1495:I *1623:I 6.17212e-05
21 *1518:CLK *1623:I 3.07284e-05
22 *1569:D *1623:I 2.89664e-05
23 *1569:CLK *1623:I 0.000387488
24 *1569:CLK *1624:I 0.00100399
25 *1574:I *1624:I 0
26 *1575:I *1624:I 7.78879e-05
27 *1620:I *1623:I 1.32276e-05
28 *1620:I *1624:I 0.000500761
29 *1628:I *1623:I 0.00035422
30 *1630:I *1623:I 0.000912176
31 *1631:I *1623:I 0.000527735
32 *1646:I *1624:I 0.00118068
33 *144:25 *1623:I 0.000162373
34 *144:41 *1623:I 0.00073577
35 *233:18 *1623:I 1.1914e-05
36 *245:24 *1623:I 0.00242627
37 *294:131 *1624:I 0.000183621
38 *304:23 *1623:I 0
39 *323:6 *1623:I 4.79347e-05
40 *323:12 *1623:I 0.000148399
41 *337:19 *1624:I 0.000794337
42 *346:12 *1623:I 0.000682602
43 *351:12 *1623:I 0.000893693
44 *397:39 *1623:I 0.000205266
45 *398:27 *1623:I 0.000244975
46 *398:44 *1623:I 0.000267969
*RES
1 *1571:Q *1623:I 47.12 
2 *1623:I *1624:I 28.92 
*END

*D_NET *405 0.0115653
*CONN
*I *1315:A1 I *D gf180mcu_fd_sc_mcu7t5v0__nor3_1
*I *1310:A1 I *D gf180mcu_fd_sc_mcu7t5v0__and4_1
*I *1251:I I *D gf180mcu_fd_sc_mcu7t5v0__clkinv_1
*I *1314:A1 I *D gf180mcu_fd_sc_mcu7t5v0__nor2_1
*I *1311:A1 I *D gf180mcu_fd_sc_mcu7t5v0__nand2_1
*I *1569:Q O *D gf180mcu_fd_sc_mcu7t5v0__dffsnq_1
*CAP
1 *1315:A1 0.000157737
2 *1310:A1 0.000319247
3 *1251:I 0.000114967
4 *1314:A1 0.000206084
5 *1311:A1 0.000450803
6 *1569:Q 0.000741179
7 *405:39 0.000668175
8 *405:37 0.000597783
9 *405:10 0.00119198
10 *1311:A1 *1413:A1 0.000229355
11 *1305:A3 *1251:I 0.000188231
12 *1305:A3 *1310:A1 8.44565e-06
13 *1310:A2 *1310:A1 0.000191446
14 *1310:A3 *1251:I 0.000519391
15 *1310:A3 *1310:A1 0.000337321
16 *1310:A3 *405:39 0.000158227
17 *1311:A2 *1311:A1 4.07478e-05
18 *1312:A3 *1311:A1 2.82894e-06
19 *1313:B *1310:A1 2.81522e-06
20 *1314:A2 *405:37 0.000540662
21 *1315:A2 *1315:A1 0.000352347
22 *1315:A3 *1315:A1 0.000131739
23 *1316:B *1251:I 6.12849e-05
24 *1316:B *405:39 0.000125824
25 *1317:A2 *1315:A1 3.52832e-05
26 *1406:A1 *1311:A1 1.823e-05
27 *1406:A1 *405:10 0.000517553
28 *1421:A2 *1311:A1 0.000122244
29 *1444:I0 *405:10 0
30 *1452:I *405:10 0.000256274
31 *1553:CLK *405:10 0.000122244
32 *1562:D *405:10 3.07018e-05
33 *1565:CLK *405:10 0
34 *1620:I *1311:A1 0.000826844
35 *1624:I *1311:A1 0.000173315
36 *1646:I *405:37 0.00150021
37 *1665:I *1315:A1 0
38 *217:16 *1311:A1 0
39 *217:16 *405:37 2.73594e-05
40 *218:10 *1315:A1 6.11661e-05
41 *218:10 *405:39 0.000247574
42 *233:18 *1310:A1 0.000105345
43 *298:25 *405:10 4.82113e-05
44 *312:16 *1315:A1 6.22117e-05
45 *337:19 *1311:A1 7.19592e-05
*RES
1 *1569:Q *405:10 15.448 
2 *405:10 *1311:A1 14.824 
3 *405:10 *1314:A1 9 
4 *1314:A1 *405:37 13.264 
5 *405:37 *405:39 2.184 
6 *405:39 *1251:I 10.352 
7 *405:39 *1310:A1 12.016 
8 *405:37 *1315:A1 10.976 
*END

*D_NET *406 0.0106763
*CONN
*I *1312:A1 I *D gf180mcu_fd_sc_mcu7t5v0__nor3_1
*I *1335:A1 I *D gf180mcu_fd_sc_mcu7t5v0__xor2_1
*I *1410:A1 I *D gf180mcu_fd_sc_mcu7t5v0__oai32_1
*I *1567:D I *D gf180mcu_fd_sc_mcu7t5v0__dffsnq_1
*I *1355:I1 I *D gf180mcu_fd_sc_mcu7t5v0__mux2_2
*I *1570:Q O *D gf180mcu_fd_sc_mcu7t5v0__dffsnq_1
*CAP
1 *1312:A1 1.75031e-05
2 *1335:A1 0.000442059
3 *1410:A1 0
4 *1567:D 0
5 *1355:I1 0.000667592
6 *1570:Q 0.000695078
7 *406:45 0.000641462
8 *406:36 0.000482744
9 *406:12 0.00121816
10 *406:10 0.00154649
11 *1335:A1 *408:12 5.50314e-05
12 *1335:A1 *410:8 0
13 *406:36 *1250:I 2.37133e-06
14 *1312:A3 *1335:A1 3.74622e-05
15 *1355:I0 *1355:I1 1.85523e-05
16 *1410:A2 *1312:A1 2.14739e-05
17 *1410:A2 *406:45 0.000320165
18 *1410:B1 *1312:A1 0.000113027
19 *1410:B1 *406:45 0.0010269
20 *1421:A2 *1335:A1 0
21 *1489:I *406:10 0.000346997
22 *1516:D *406:10 1.91439e-05
23 *1535:RN *406:10 0.000183033
24 *1559:CLK *1355:I1 0
25 *1567:SETN *406:10 1.78817e-06
26 *1567:SETN *406:12 5.72561e-05
27 *1567:SETN *406:36 0.000475486
28 *1570:CLK *1355:I1 0
29 *1587:I *406:10 2.43345e-05
30 *1587:I *406:12 0
31 *1587:I *406:36 0
32 *1620:I *406:36 5.77576e-05
33 *1644:I *406:10 4.98927e-05
34 *1645:I *1335:A1 8.21146e-06
35 *159:6 *1335:A1 1.84221e-05
36 *159:12 *1335:A1 0.000771346
37 *217:16 *1335:A1 0.000271764
38 *239:12 *1355:I1 4.90573e-05
39 *239:16 *1355:I1 0.00042494
40 *334:8 *406:10 0.00054704
41 *363:27 *406:10 6.37959e-05
*RES
1 *1570:Q *406:10 14.824 
2 *406:10 *406:12 3.016 
3 *406:12 *1355:I1 14.616 
4 *406:12 *1567:D 9 
5 *406:10 *406:36 7.412 
6 *406:36 *1410:A1 4.5 
7 *406:36 *406:45 3.12 
8 *406:45 *1335:A1 17.036 
9 *406:45 *1312:A1 4.812 
*END

*D_NET *407 0.00226505
*CONN
*I *1250:I I *D gf180mcu_fd_sc_mcu7t5v0__clkinv_1
*I *1567:Q O *D gf180mcu_fd_sc_mcu7t5v0__dffsnq_1
*CAP
1 *1250:I 0.000506434
2 *1567:Q 0.000506434
3 *1410:B2 *1250:I 9.03002e-05
4 *1421:A2 *1250:I 0
5 *1567:SETN *1250:I 0.00073518
6 *1620:I *1250:I 7.16355e-05
7 *1623:I *1250:I 0.000337769
8 *1631:I *1250:I 1.49279e-05
9 *406:36 *1250:I 2.37133e-06
*RES
1 *1567:Q *1250:I 22.784 
*END

*D_NET *408 0.00690083
*CONN
*I *1308:A2 I *D gf180mcu_fd_sc_mcu7t5v0__or3_1
*I *1420:B2 I *D gf180mcu_fd_sc_mcu7t5v0__aoi22_1
*I *1307:A1 I *D gf180mcu_fd_sc_mcu7t5v0__nor2_1
*I *1340:A1 I *D gf180mcu_fd_sc_mcu7t5v0__nand2_1
*I *1559:Q O *D gf180mcu_fd_sc_mcu7t5v0__dffrnq_1
*CAP
1 *1308:A2 0.000138866
2 *1420:B2 0.000628886
3 *1307:A1 0.000131743
4 *1340:A1 0
5 *1559:Q 0.000528877
6 *408:32 0.000823024
7 *408:21 0.000675567
8 *408:12 0.00101743
9 *1308:A2 *1308:A3 0.000215267
10 *408:21 *1307:A2 0
11 *408:21 *1308:A3 6.83298e-05
12 *408:21 *1412:A1 0
13 *408:21 *1414:B 4.27817e-05
14 *1335:A1 *408:12 5.50314e-05
15 *1340:A2 *408:21 0.000945405
16 *1412:A2 *408:21 0
17 *1419:A1 *1307:A1 8.6099e-05
18 *1419:A1 *1420:B2 0.000337347
19 *1419:A1 *408:32 3.34526e-05
20 *1421:A2 *408:12 0.000249587
21 *1574:I *1420:B2 0.000118787
22 *1645:I *408:12 4.91818e-05
23 *1645:I *408:21 6.41303e-05
24 *212:12 *408:21 1.23682e-05
25 *237:29 *1420:B2 9.11268e-05
26 *239:12 *408:12 0.000100568
27 *272:31 *1420:B2 0.000185295
28 *296:8 *1308:A2 8.27533e-05
29 *296:8 *408:21 0.000113016
30 *312:16 *1307:A1 6.89509e-05
31 *312:16 *1420:B2 0
32 *312:16 *408:32 3.6966e-05
*RES
1 *1559:Q *408:12 17.452 
2 *408:12 *1340:A1 4.5 
3 *408:12 *408:21 9.388 
4 *408:21 *1307:A1 10.352 
5 *408:21 *408:32 0.728 
6 *408:32 *1420:B2 14.304 
7 *408:32 *1308:A2 10.56 
*END

*D_NET *409 0.00757504
*CONN
*I *1308:A1 I *D gf180mcu_fd_sc_mcu7t5v0__or3_1
*I *1338:A1 I *D gf180mcu_fd_sc_mcu7t5v0__aoi211_1
*I *1253:I I *D gf180mcu_fd_sc_mcu7t5v0__clkinv_1
*I *1418:B I *D gf180mcu_fd_sc_mcu7t5v0__oai21_1
*I *1560:Q O *D gf180mcu_fd_sc_mcu7t5v0__dffrnq_1
*CAP
1 *1308:A1 0.000127667
2 *1338:A1 0
3 *1253:I 0.000432188
4 *1418:B 0
5 *1560:Q 0.000489935
6 *409:21 0.000631786
7 *409:14 0.000564017
8 *409:8 0.000982021
9 *1309:A1 *1253:I 0
10 *1337:A1 *1253:I 0.00011871
11 *1338:B *1253:I 3.75594e-05
12 *1338:B *409:21 0.000108119
13 *1338:C *1253:I 0.000645286
14 *1339:A2 *409:21 0.000122244
15 *1414:A2 *409:14 9.09749e-05
16 *1418:A2 *409:21 1.60338e-05
17 *1453:I *409:8 0.000129248
18 *1664:I *409:14 0.000316249
19 *1664:I *409:21 0.00109919
20 *213:16 *409:8 0
21 *214:8 *1253:I 4.26493e-06
22 *214:10 *1253:I 2.84715e-05
23 *273:12 *409:8 6.12849e-05
24 *273:12 *409:14 8.65284e-05
25 *296:8 *1308:A1 0.0002623
26 *296:14 *409:14 0.000115715
27 *296:38 *409:21 0
28 *339:30 *1253:I 0.000833098
29 *339:32 *1253:I 0.000164116
30 *361:22 *1308:A1 0.000108036
31 *361:22 *409:8 0
*RES
1 *1560:Q *409:8 12.016 
2 *409:8 *409:14 7.62 
3 *409:14 *1418:B 4.5 
4 *409:14 *409:21 3.016 
5 *409:21 *1253:I 17.972 
6 *409:21 *1338:A1 4.5 
7 *409:8 *1308:A1 10.768 
*END

*D_NET *410 0.00648221
*CONN
*I *1307:A2 I *D gf180mcu_fd_sc_mcu7t5v0__nor2_1
*I *1308:A3 I *D gf180mcu_fd_sc_mcu7t5v0__or3_1
*I *1414:B I *D gf180mcu_fd_sc_mcu7t5v0__oai21_1
*I *1412:A1 I *D gf180mcu_fd_sc_mcu7t5v0__and2_1
*I *1561:Q O *D gf180mcu_fd_sc_mcu7t5v0__dffrnq_1
*CAP
1 *1307:A2 0.000226143
2 *1308:A3 0.000529062
3 *1414:B 0.000418366
4 *1412:A1 0.000217871
5 *1561:Q 0.000254587
6 *410:10 0.000599017
7 *410:8 0.000972574
8 *1308:A2 *1308:A3 0.000215267
9 *1335:A1 *410:8 0
10 *1412:A2 *1307:A2 4.07478e-05
11 *1412:A2 *1412:A1 0.000500761
12 *1412:A2 *1414:B 4.87048e-05
13 *1414:A2 *1307:A2 0.00010348
14 *1414:A2 *1414:B 1.70957e-06
15 *1415:A1 *1412:A1 0.000346468
16 *1415:A1 *410:8 0.000779132
17 *1415:A1 *410:10 0.000824108
18 *1561:D *1412:A1 2.36218e-05
19 *1561:RN *1308:A3 4.39481e-05
20 *1645:I *1308:A3 0.000133946
21 *159:12 *410:8 0
22 *212:12 *1307:A2 1.12327e-05
23 *237:29 *1308:A3 3.96072e-05
24 *361:22 *1308:A3 4.07478e-05
25 *408:21 *1307:A2 0
26 *408:21 *1308:A3 6.83298e-05
27 *408:21 *1412:A1 0
28 *408:21 *1414:B 4.27817e-05
*RES
1 *1561:Q *410:8 11.184 
2 *410:8 *410:10 2.184 
3 *410:10 *1412:A1 11.496 
4 *410:10 *1414:B 10.352 
5 *410:8 *1308:A3 13.264 
6 *1414:B *1307:A2 10.976 
*END

*D_NET *411 0.00317784
*CONN
*I *1416:A1 I *D gf180mcu_fd_sc_mcu7t5v0__nand2_1
*I *1306:A1 I *D gf180mcu_fd_sc_mcu7t5v0__nor3_1
*I *1313:A1 I *D gf180mcu_fd_sc_mcu7t5v0__oai31_1
*I *1254:I I *D gf180mcu_fd_sc_mcu7t5v0__clkinv_1
*I *1562:Q O *D gf180mcu_fd_sc_mcu7t5v0__dffrnq_1
*CAP
1 *1416:A1 0.000149427
2 *1306:A1 0
3 *1313:A1 0.000128826
4 *1254:I 0
5 *1562:Q 0
6 *411:19 0.000391118
7 *411:12 0.000534117
8 *411:4 0.000421252
9 *1313:A1 *1313:A2 0.000162013
10 *1313:A1 *1313:A3 1.59524e-05
11 *1416:A1 *1413:A1 1.40331e-05
12 *411:12 *1413:A1 3.11243e-05
13 *411:19 *1413:A1 0.000223304
14 *411:19 *412:23 6.062e-05
15 *1562:RN *411:19 1.7942e-05
16 *1569:D *411:12 0
17 *1569:CLK *1416:A1 6.91919e-05
18 *1569:CLK *411:12 0.000387124
19 *1574:I *1313:A1 0.00017114
20 *1574:I *1416:A1 0
21 *1624:I *1416:A1 0.000179413
22 *233:18 *1313:A1 6.64873e-05
23 *233:18 *411:19 6.33882e-05
24 *271:18 *1416:A1 1.13999e-05
25 *337:19 *1416:A1 1.65086e-05
26 *337:19 *411:12 8.16884e-06
27 *337:19 *411:19 5.52911e-05
*RES
1 *1562:Q *411:4 4.5 
2 *411:4 *411:12 2.704 
3 *411:12 *1254:I 4.5 
4 *411:12 *411:19 2.392 
5 *411:19 *1313:A1 15.164 
6 *411:19 *1306:A1 4.5 
7 *411:4 *1416:A1 14.54 
*END

*D_NET *412 0.0091023
*CONN
*I *1306:A2 I *D gf180mcu_fd_sc_mcu7t5v0__nor3_1
*I *1313:A2 I *D gf180mcu_fd_sc_mcu7t5v0__oai31_1
*I *1413:A1 I *D gf180mcu_fd_sc_mcu7t5v0__nand2_1
*I *1255:I I *D gf180mcu_fd_sc_mcu7t5v0__clkinv_1
*I *1563:Q O *D gf180mcu_fd_sc_mcu7t5v0__dffrnq_1
*CAP
1 *1306:A2 0
2 *1313:A2 0.000351201
3 *1413:A1 0.000549395
4 *1255:I 0.000317423
5 *1563:Q 0.000594351
6 *412:23 0.000992333
7 *412:21 0.000799148
8 *412:8 0.00161919
9 *1313:A2 *1313:A3 4.07478e-05
10 *412:21 *1306:A3 4.50135e-05
11 *412:21 *413:18 0.000739766
12 *412:23 *1306:A3 1.07369e-05
13 *1252:I *412:8 0
14 *1310:A3 *412:21 0.000387124
15 *1311:A1 *1413:A1 0.000229355
16 *1312:A3 *1413:A1 0
17 *1313:A1 *1313:A2 0.000162013
18 *1329:A1 *412:8 4.41041e-05
19 *1408:B2 *1255:I 0
20 *1416:A1 *1413:A1 1.40331e-05
21 *1419:A1 *1413:A1 0
22 *1547:CLK *412:21 0.000139051
23 *1569:CLK *1413:A1 6.99018e-05
24 *1569:CLK *412:23 6.30882e-05
25 *1574:I *1313:A2 7.32863e-05
26 *1624:I *1313:A2 0.000131567
27 *1625:I *412:21 0.000112835
28 *159:12 *1413:A1 0
29 *210:8 *412:21 0.000158666
30 *233:18 *1313:A2 3.69721e-06
31 *233:18 *412:21 7.34682e-05
32 *233:18 *412:23 1.81425e-05
33 *271:18 *1413:A1 3.91269e-05
34 *294:131 *1313:A2 1.58063e-05
35 *337:19 *1413:A1 0.000184061
36 *339:30 *1255:I 0.000594096
37 *340:17 *1255:I 0.000148556
38 *340:17 *412:8 3.41371e-05
39 *340:17 *412:21 3.18325e-05
40 *411:12 *1413:A1 3.11243e-05
41 *411:19 *1413:A1 0.000223304
42 *411:19 *412:23 6.062e-05
*RES
1 *1563:Q *412:8 13.68 
2 *412:8 *1255:I 12.016 
3 *412:8 *412:21 11.676 
4 *412:21 *412:23 0.936 
5 *412:23 *1413:A1 18.492 
6 *412:23 *1313:A2 16.412 
7 *412:21 *1306:A2 4.5 
*END

*D_NET *413 0.00890225
*CONN
*I *1256:I I *D gf180mcu_fd_sc_mcu7t5v0__clkinv_1
*I *1313:A3 I *D gf180mcu_fd_sc_mcu7t5v0__oai31_1
*I *1420:A1 I *D gf180mcu_fd_sc_mcu7t5v0__aoi22_1
*I *1306:A3 I *D gf180mcu_fd_sc_mcu7t5v0__nor3_1
*I *1564:Q O *D gf180mcu_fd_sc_mcu7t5v0__dffrnq_1
*CAP
1 *1256:I 0
2 *1313:A3 0.000307841
3 *1420:A1 0.000101222
4 *1306:A3 4.51516e-05
5 *1564:Q 0.0006626
6 *413:27 0.000409063
7 *413:18 0.000806785
8 *413:12 0.00142423
9 *1310:A3 *1306:A3 9.7618e-05
10 *1310:A3 *413:18 0.000329258
11 *1313:A1 *1313:A3 1.59524e-05
12 *1313:A2 *1313:A3 4.07478e-05
13 *1420:B1 *1420:A1 0.00011484
14 *1454:I *413:12 0
15 *1547:D *413:12 6.97265e-05
16 *1547:CLK *413:12 6.69436e-05
17 *1547:CLK *413:18 8.30524e-05
18 *1569:CLK *1306:A3 0.000248317
19 *1569:CLK *1420:A1 5.41707e-06
20 *1569:CLK *413:18 0.000463314
21 *1574:I *1420:A1 1.9669e-05
22 *1575:I *1313:A3 6.28203e-05
23 *1626:I *413:12 0.000133412
24 *1626:I *413:18 0.000224686
25 *218:10 *1313:A3 2.95162e-05
26 *233:18 *1313:A3 0
27 *271:10 *1313:A3 0.0010988
28 *271:10 *1420:A1 0.000338445
29 *271:12 *1420:A1 4.07478e-05
30 *294:131 *1313:A3 4.40722e-05
31 *297:25 *413:18 4.18042e-05
32 *312:16 *1313:A3 0.000420378
33 *312:16 *1420:A1 0.000145731
34 *337:44 *413:18 0.000200404
35 *339:30 *413:18 1.41642e-05
36 *412:21 *1306:A3 4.50135e-05
37 *412:21 *413:18 0.000739766
38 *412:23 *1306:A3 1.07369e-05
*RES
1 *1564:Q *413:12 19.324 
2 *413:12 *413:18 8.84 
3 *413:18 *1306:A3 5.228 
4 *413:18 *413:27 4.5 
5 *413:27 *1420:A1 10.456 
6 *413:27 *1313:A3 13.472 
7 *413:12 *1256:I 4.5 
*END

*D_NET *414 0.00475397
*CONN
*I *1377:A3 I *D gf180mcu_fd_sc_mcu7t5v0__and3_1
*I *1360:A3 I *D gf180mcu_fd_sc_mcu7t5v0__nand3_1
*I *1356:A3 I *D gf180mcu_fd_sc_mcu7t5v0__nand3_1
*I *1568:Q O *D gf180mcu_fd_sc_mcu7t5v0__dffrnq_1
*CAP
1 *1377:A3 0
2 *1360:A3 0.000163087
3 *1356:A3 2.80145e-05
4 *1568:Q 0.000314555
5 *414:27 0.000398406
6 *414:8 0.000577889
7 *1233:I *1356:A3 1.71326e-05
8 *1233:I *414:8 0.000273822
9 *1233:I *414:27 3.3698e-05
10 *1356:A1 *414:8 1.12327e-05
11 *1356:A1 *414:27 0.000251185
12 *1356:A2 *414:8 0.000397755
13 *1360:A2 *1356:A3 4.15898e-06
14 *1360:A2 *1360:A3 0.00111148
15 *1360:A2 *414:27 3.70486e-05
16 *1377:A1 *1360:A3 0.000401498
17 *1377:A2 *1360:A3 4.07478e-05
18 *1377:A2 *414:8 8.1598e-06
19 *1388:A1 *414:27 0.000251178
20 *1630:I *414:8 6.67105e-05
21 *1652:I *414:8 4.62012e-05
22 *1652:I *414:27 0.000320012
*RES
1 *1568:Q *414:8 7.62 
2 *414:8 *1356:A3 4.812 
3 *414:8 *414:27 11.912 
4 *414:27 *1360:A3 7.828 
5 *414:27 *1377:A3 4.5 
*END

*D_NET *415 0.00800146
*CONN
*I *1228:I I *D gf180mcu_fd_sc_mcu7t5v0__clkinv_1
*I *1295:A2 I *D gf180mcu_fd_sc_mcu7t5v0__nand4_1
*I *1294:A1 I *D gf180mcu_fd_sc_mcu7t5v0__nand2_1
*I *1551:Q O *D gf180mcu_fd_sc_mcu7t5v0__dffrnq_1
*CAP
1 *1228:I 0.000202306
2 *1295:A2 0
3 *1294:A1 0
4 *1551:Q 0.000348995
5 *415:29 0.00112181
6 *415:12 0.0012685
7 *1228:I *1257:I 1.57479e-05
8 *1228:I *1272:A2 6.18411e-06
9 *1228:I *1295:A1 3.4596e-05
10 *1228:I *421:37 3.04322e-05
11 *415:29 *1295:A1 2.14739e-05
12 *415:29 *421:37 6.96716e-05
13 *1267:C *415:29 6.18331e-05
14 *1294:A2 *415:12 4.58772e-05
15 *1294:A2 *415:29 0.000232484
16 *1295:A4 *1228:I 0.000105576
17 *1295:A4 *415:29 0.000113016
18 *1301:A2 *415:29 0.000201978
19 *1302:A3 *415:29 0
20 *1391:A3 *1228:I 0.000827626
21 *1396:A3 *415:29 0
22 *1448:I *415:29 6.69695e-05
23 *1558:D *415:12 0
24 *1558:D *415:29 0.000614671
25 *1558:RN *415:29 6.23601e-05
26 *1566:CLK *415:29 0.00058237
27 *1609:I *415:12 0.000337769
28 *137:14 *1228:I 0.000582267
29 *157:12 *415:29 0.000260006
30 *201:14 *415:29 0.000158579
31 *299:48 *415:12 0.000105986
32 *316:42 *415:29 0.000497696
33 *365:23 *415:29 2.46831e-05
*RES
1 *1551:Q *415:12 16.204 
2 *415:12 *1294:A1 4.5 
3 *415:12 *415:29 20.024 
4 *415:29 *1295:A2 4.5 
5 *415:29 *1228:I 8.036 
*END

*D_NET *416 0.00438747
*CONN
*I *1267:A1 I *D gf180mcu_fd_sc_mcu7t5v0__oai221_1
*I *1295:A1 I *D gf180mcu_fd_sc_mcu7t5v0__nand4_1
*I *1266:A1 I *D gf180mcu_fd_sc_mcu7t5v0__aoi22_1
*I *1299:A1 I *D gf180mcu_fd_sc_mcu7t5v0__xor2_1
*I *1552:Q O *D gf180mcu_fd_sc_mcu7t5v0__dffrnq_1
*CAP
1 *1267:A1 0
2 *1295:A1 0.000154998
3 *1266:A1 0
4 *1299:A1 0.000211255
5 *1552:Q 9.18801e-05
6 *416:28 0.000503524
7 *416:20 0.000467901
8 *1295:A1 *1266:B1 6.85302e-05
9 *1295:A1 *420:30 4.38001e-05
10 *1295:A1 *421:37 0.000142778
11 *416:28 *1266:B1 1.71326e-05
12 *416:28 *420:30 3.14958e-05
13 *1228:I *1295:A1 3.4596e-05
14 *1266:A2 *416:28 0.00033778
15 *1266:B2 *416:28 0.000115166
16 *1267:A2 *416:28 0.00082118
17 *1267:C *416:28 0
18 *1268:A2 *416:20 1.71326e-05
19 *1270:A1 *416:28 3.35189e-05
20 *1273:A2 *1299:A1 0.000428493
21 *1273:A2 *416:20 0.000509988
22 *1551:CLK *416:20 1.19584e-05
23 *1572:I *1295:A1 0
24 *1621:I *1299:A1 0.000103933
25 *1621:I *416:20 2.73715e-06
26 *157:12 *416:20 0.000133888
27 *299:35 *416:28 8.23267e-05
28 *415:29 *1295:A1 2.14739e-05
*RES
1 *1552:Q *1299:A1 10.456 
2 *1299:A1 *416:20 6.268 
3 *416:20 *416:28 13.16 
4 *416:28 *1266:A1 4.5 
5 *416:28 *1295:A1 6.06 
6 *416:20 *1267:A1 4.5 
*END

*D_NET *417 0.00114442
*CONN
*I *1227:I I *D gf180mcu_fd_sc_mcu7t5v0__clkinv_1
*I *1269:A1 I *D gf180mcu_fd_sc_mcu7t5v0__xor2_1
*I *1553:Q O *D gf180mcu_fd_sc_mcu7t5v0__dffrnq_1
*CAP
1 *1227:I 0.00019118
2 *1269:A1 0.000263649
3 *1553:Q 0
4 *417:4 0.000454829
5 *1227:I *418:12 8.1598e-06
6 *1471:I *1227:I 5.90026e-05
7 *1471:I *1269:A1 0.000167598
8 *1553:RN *1227:I 0
9 *1553:RN *1269:A1 0
10 *364:20 *1227:I 0
11 *364:20 *1269:A1 0
*RES
1 *1553:Q *417:4 4.5 
2 *417:4 *1269:A1 6.476 
3 *417:4 *1227:I 5.956 
*END

*D_NET *418 0.00896428
*CONN
*I *1249:I I *D gf180mcu_fd_sc_mcu7t5v0__clkinv_1
*I *1403:A1 I *D gf180mcu_fd_sc_mcu7t5v0__nor2_1
*I *1272:C1 I *D gf180mcu_fd_sc_mcu7t5v0__oai222_1
*I *1270:B1 I *D gf180mcu_fd_sc_mcu7t5v0__aoi221_1
*I *1554:Q O *D gf180mcu_fd_sc_mcu7t5v0__dffrnq_1
*CAP
1 *1249:I 0.000100326
2 *1403:A1 0
3 *1272:C1 7.26968e-05
4 *1270:B1 0.000261279
5 *1554:Q 0
6 *418:12 0.00118565
7 *418:6 0.00110935
8 *418:4 0.000358001
9 *1249:I *1401:A1 2.73715e-06
10 *1272:C1 *1272:B1 9.76253e-05
11 *418:12 *1257:I 0.000153695
12 *418:12 *1566:D 2.89664e-05
13 *1227:I *418:12 8.1598e-06
14 *1247:I *1270:B1 0.000143493
15 *1247:I *1272:C1 0.000165736
16 *1261:A2 *1270:B1 0.000159365
17 *1267:B1 *1270:B1 0.000419472
18 *1267:B1 *1272:C1 0.000499111
19 *1270:A1 *418:12 1.96881e-05
20 *1270:C *1270:B1 0.000169324
21 *1270:C *418:12 0
22 *1272:C2 *1272:C1 2.64063e-05
23 *1272:C2 *418:12 1.13316e-05
24 *1296:A1 *418:12 1.88182e-05
25 *1296:A2 *418:12 4.73045e-05
26 *1297:A2 *418:12 1.91996e-05
27 *1298:A2 *418:12 1.71324e-06
28 *1298:A4 *418:12 0.000146714
29 *1401:A2 *1249:I 0
30 *1401:A2 *418:6 0
31 *1403:A2 *418:12 0.000247057
32 *1404:A4 *1249:I 3.09205e-05
33 *1404:A4 *418:6 0.000497696
34 *1404:A4 *418:12 6.85302e-05
35 *1471:I *418:12 0.00250077
36 *1517:RN *1270:B1 3.30867e-05
37 *1553:D *418:12 3.511e-05
38 *1554:D *418:6 2.68044e-05
39 *1554:RN *1249:I 0
40 *1554:RN *418:6 0
41 *1572:I *418:12 0
42 *1579:I *418:12 0
43 *1650:I *418:6 0.000185295
44 *204:10 *418:12 1.23682e-05
45 *294:161 *418:12 1.06067e-05
46 *294:171 *418:12 2.93608e-05
47 *364:13 *1270:B1 5.77053e-05
48 *374:27 *1270:B1 2.81522e-06
*RES
1 *1554:Q *418:4 4.5 
2 *418:4 *418:6 2.392 
3 *418:6 *418:12 14.484 
4 *418:12 *1270:B1 11.912 
5 *418:12 *1272:C1 10.664 
6 *418:6 *1403:A1 4.5 
7 *418:4 *1249:I 5.54 
*END

*D_NET *419 0.0140508
*CONN
*I *1392:A1 I *D gf180mcu_fd_sc_mcu7t5v0__nand2_1
*I *1393:A2 I *D gf180mcu_fd_sc_mcu7t5v0__nand3_1
*I *1394:A3 I *D gf180mcu_fd_sc_mcu7t5v0__nand4_1
*I *1265:A2 I *D gf180mcu_fd_sc_mcu7t5v0__xor2_1
*I *1401:A1 I *D gf180mcu_fd_sc_mcu7t5v0__xnor2_1
*I *1555:Q O *D gf180mcu_fd_sc_mcu7t5v0__dffrnq_1
*CAP
1 *1392:A1 0.000214004
2 *1393:A2 0
3 *1394:A3 0
4 *1265:A2 0.00131473
5 *1401:A1 0.000398126
6 *1555:Q 0.000372678
7 *419:29 0.00146355
8 *419:27 0.000153218
9 *419:25 0.000274508
10 *419:10 0.000826906
11 *1265:A2 *1268:B1 0.000130162
12 *1265:A2 *1395:A1 0
13 *1265:A2 *420:30 0.000427195
14 *1265:A2 *421:37 3.30133e-05
15 *1392:A1 *1397:A1 8.95068e-06
16 *1392:A1 *421:8 1.29841e-05
17 *419:10 *420:14 0.000907631
18 *419:25 *420:16 0.000548432
19 *419:27 *420:16 7.22679e-05
20 *419:27 *420:20 4.07478e-05
21 *419:29 *420:20 0.0010838
22 *419:29 *421:37 2.04597e-06
23 *1249:I *1401:A1 2.73715e-06
24 *1267:C *1265:A2 0.00057304
25 *1268:A2 *1265:A2 6.45635e-05
26 *1268:B2 *1265:A2 0.000116476
27 *1268:C *1265:A2 0.000346997
28 *1271:A1 *1265:A2 0.00010938
29 *1273:A1 *1265:A2 0.000583977
30 *1273:A3 *1265:A2 6.8199e-07
31 *1273:A4 *1265:A2 0.000350174
32 *1302:A3 *1265:A2 1.23682e-05
33 *1391:A2 *1401:A1 0.000427061
34 *1392:A2 *1392:A1 0.000346468
35 *1394:A4 *419:29 0.00016066
36 *1395:A2 *1265:A2 4.44673e-06
37 *1400:A3 *419:10 9.84299e-05
38 *1401:A2 *1401:A1 3.4596e-05
39 *1402:A1 *1401:A1 0
40 *1402:A2 *419:25 0.000516912
41 *1402:A2 *419:27 8.14957e-05
42 *1402:A2 *419:29 0.000500772
43 *1446:I *1392:A1 5.82251e-05
44 *1446:I *1401:A1 0.000130867
45 *1446:I *419:10 5.90118e-05
46 *1555:D *1401:A1 0
47 *1556:D *419:10 3.22108e-05
48 *1557:CLK *419:10 1.40331e-05
49 *1566:CLK *1265:A2 7.60808e-05
50 *1579:I *1401:A1 1.91996e-05
51 *137:14 *1265:A2 0.000301795
52 *137:20 *1265:A2 4.29477e-05
53 *157:12 *1265:A2 0.000368214
54 *299:6 *1265:A2 0.000179741
55 *299:35 *1265:A2 1.32276e-05
56 *301:48 *419:10 0.000139043
57 *315:32 *1392:A1 0
58 *381:27 *1265:A2 0
*RES
1 *1555:Q *419:10 13.368 
2 *419:10 *1401:A1 12.744 
3 *419:10 *419:25 6.06 
4 *419:25 *419:27 0.312 
5 *419:27 *419:29 3.016 
6 *419:29 *1265:A2 27.02 
7 *419:29 *1394:A3 4.5 
8 *419:27 *1393:A2 4.5 
9 *419:25 *1392:A1 15.164 
*END

*D_NET *420 0.0125168
*CONN
*I *1399:A1 I *D gf180mcu_fd_sc_mcu7t5v0__xor2_1
*I *1393:A1 I *D gf180mcu_fd_sc_mcu7t5v0__nand3_1
*I *1394:A2 I *D gf180mcu_fd_sc_mcu7t5v0__nand4_1
*I *1272:B1 I *D gf180mcu_fd_sc_mcu7t5v0__oai222_1
*I *1268:B1 I *D gf180mcu_fd_sc_mcu7t5v0__aoi221_1
*I *1556:Q O *D gf180mcu_fd_sc_mcu7t5v0__dffrnq_1
*CAP
1 *1399:A1 0
2 *1393:A1 3.6366e-05
3 *1394:A2 0
4 *1272:B1 0.000362167
5 *1268:B1 0.000337812
6 *1556:Q 0.000782926
7 *420:30 0.00164309
8 *420:20 0.00117792
9 *420:16 0.00044927
10 *420:14 0.000961027
11 *420:20 *421:21 8.89578e-05
12 *420:30 *421:37 0.000520949
13 *1247:I *1272:B1 0.000287569
14 *1264:A2 *1272:B1 6.12849e-05
15 *1265:A2 *1268:B1 0.000130162
16 *1265:A2 *420:30 0.000427195
17 *1266:A2 *420:30 8.10026e-05
18 *1267:B1 *1272:B1 0.000437307
19 *1268:C *1268:B1 3.09205e-05
20 *1272:C1 *1272:B1 9.76253e-05
21 *1272:C2 *1272:B1 1.06014e-05
22 *1273:A1 *1268:B1 0.000187857
23 *1273:A4 *1272:B1 5.34047e-06
24 *1295:A1 *420:30 4.38001e-05
25 *1392:A2 *420:16 1.93777e-05
26 *1395:A2 *420:30 7.11818e-05
27 *1397:A2 *420:16 1.71326e-05
28 *1397:A2 *420:20 0.000193782
29 *1399:A2 *420:16 6.50387e-05
30 *1402:A1 *420:14 1.18566e-06
31 *1402:A2 *420:16 3.10787e-05
32 *1446:I *420:14 0.000271147
33 *1555:D *420:14 0
34 *1566:CLK *420:30 0.000194522
35 *1572:I *1272:B1 2.76714e-05
36 *1572:I *420:30 0.0002076
37 *137:14 *420:30 0
38 *156:21 *1268:B1 8.56996e-05
39 *156:21 *420:30 3.95068e-05
40 *201:14 *420:30 0
41 *299:6 *420:30 0.000446317
42 *416:28 *420:30 3.14958e-05
43 *419:10 *420:14 0.000907631
44 *419:25 *420:16 0.000548432
45 *419:27 *420:16 7.22679e-05
46 *419:27 *420:20 4.07478e-05
47 *419:29 *420:20 0.0010838
*RES
1 *1556:Q *420:14 22.34 
2 *420:14 *420:16 1.976 
3 *420:16 *420:20 3.328 
4 *420:20 *420:30 18.256 
5 *420:30 *1268:B1 7.308 
6 *420:30 *1272:B1 17.244 
7 *420:20 *1394:A2 4.5 
8 *420:16 *1393:A1 4.812 
9 *420:14 *1399:A1 4.5 
*END

*D_NET *421 0.0100108
*CONN
*I *1394:A1 I *D gf180mcu_fd_sc_mcu7t5v0__nand4_1
*I *1266:B1 I *D gf180mcu_fd_sc_mcu7t5v0__aoi22_1
*I *1272:A2 I *D gf180mcu_fd_sc_mcu7t5v0__oai222_1
*I *1397:A1 I *D gf180mcu_fd_sc_mcu7t5v0__xor2_1
*I *1557:Q O *D gf180mcu_fd_sc_mcu7t5v0__dffrnq_1
*CAP
1 *1394:A1 0
2 *1266:B1 4.44833e-06
3 *1272:A2 7.16392e-05
4 *1397:A1 5.12615e-05
5 *1557:Q 0.00084286
6 *421:37 0.000709388
7 *421:21 0.000818095
8 *421:8 0.00107892
9 *1228:I *1272:A2 6.18411e-06
10 *1228:I *421:37 3.04322e-05
11 *1265:A2 *421:37 3.30133e-05
12 *1266:B2 *1266:B1 4.07478e-05
13 *1266:B2 *1272:A2 0.000550736
14 *1267:C *421:37 5.469e-05
15 *1272:A1 *1272:A2 0
16 *1295:A1 *1266:B1 6.85302e-05
17 *1295:A1 *421:37 0.000142778
18 *1295:A4 *1272:A2 2.36218e-05
19 *1391:A3 *421:37 0.00111366
20 *1392:A1 *1397:A1 8.95068e-06
21 *1392:A1 *421:8 1.29841e-05
22 *1394:A4 *421:37 2.81522e-06
23 *1396:A2 *421:8 0
24 *1397:A2 *421:21 0.000103788
25 *1398:A3 *421:21 0.00012524
26 *1446:I *421:8 0
27 *1447:I *421:8 0
28 *1447:I *421:37 0.000844673
29 *1557:CLK *421:21 1.78817e-06
30 *153:23 *1272:A2 4.07478e-05
31 *315:32 *1397:A1 0.000188231
32 *315:32 *421:8 0.000728207
33 *315:34 *421:21 0
34 *319:29 *421:8 1.99199e-05
35 *319:29 *421:37 0.000824108
36 *368:36 *1272:A2 0.000754475
37 *368:36 *421:37 1.51022e-05
38 *415:29 *421:37 6.96716e-05
39 *416:28 *1266:B1 1.71326e-05
40 *419:29 *421:37 2.04597e-06
41 *420:20 *421:21 8.89578e-05
42 *420:30 *421:37 0.000520949
*RES
1 *1557:Q *421:8 16.8 
2 *421:8 *1397:A1 9.52 
3 *421:8 *421:21 6.06 
4 *421:21 *421:37 26.736 
5 *421:37 *1272:A2 6.996 
6 *421:37 *1266:B1 5.02 
7 *421:21 *1394:A1 4.5 
*END

*D_NET *422 0.00107811
*CONN
*I *1395:A1 I *D gf180mcu_fd_sc_mcu7t5v0__xor2_1
*I *1248:I I *D gf180mcu_fd_sc_mcu7t5v0__clkinv_1
*I *1558:Q O *D gf180mcu_fd_sc_mcu7t5v0__dffrnq_1
*CAP
1 *1395:A1 0.00033279
2 *1248:I 8.4304e-05
3 *1558:Q 0
4 *422:4 0.000417094
5 *1265:A2 *1395:A1 0
6 *1302:A3 *1248:I 5.49404e-05
7 *1302:A3 *1395:A1 4.9966e-05
8 *1395:A2 *1395:A1 3.3698e-05
9 *1396:A3 *1395:A1 5.60123e-05
10 *1551:D *1395:A1 4.11062e-06
11 *1608:I *1395:A1 0
12 *201:14 *1248:I 1.23682e-05
13 *201:14 *1395:A1 3.28258e-05
14 *316:57 *1395:A1 0
*RES
1 *1558:Q *422:4 4.5 
2 *422:4 *1248:I 5.332 
3 *422:4 *1395:A1 7.1 
*END

*D_NET *423 0.0047925
*CONN
*I *1293:A1 I *D gf180mcu_fd_sc_mcu7t5v0__and2_1
*I *1295:A3 I *D gf180mcu_fd_sc_mcu7t5v0__nand4_1
*I *1566:D I *D gf180mcu_fd_sc_mcu7t5v0__dffrnq_1
*I *1565:Q O *D gf180mcu_fd_sc_mcu7t5v0__dffrnq_1
*CAP
1 *1293:A1 0
2 *1295:A3 0.00031755
3 *1566:D 6.04643e-05
4 *1565:Q 0.000677567
5 *423:14 0.000421578
6 *423:12 0.000721131
7 *1295:A3 *1257:I 0
8 *1566:D *1257:I 0.000177248
9 *423:12 *1257:I 7.19858e-05
10 *423:14 *1257:I 0.000314296
11 *1269:A2 *423:12 0.000781715
12 *1293:A2 *1295:A3 1.95463e-05
13 *1295:A4 *1295:A3 0.000106908
14 *1553:D *423:12 0.000101487
15 *1565:RN *423:12 9.41826e-05
16 *1566:CLK *1295:A3 9.10689e-05
17 *1572:I *1295:A3 2.01691e-05
18 *1579:I *423:14 5.77431e-06
19 *201:14 *1295:A3 0.000413467
20 *294:171 *1566:D 0.000129132
21 *294:171 *423:14 0.000104561
22 *364:13 *423:12 2.81522e-06
23 *364:20 *423:12 0.000130892
24 *418:12 *1566:D 2.89664e-05
*RES
1 *1565:Q *423:12 20.156 
2 *423:12 *423:14 0.936 
3 *423:14 *1566:D 5.436 
4 *423:14 *1295:A3 16.412 
5 *423:12 *1293:A1 4.5 
*END

*D_NET *424 0.00371608
*CONN
*I *1257:I I *D gf180mcu_fd_sc_mcu7t5v0__clkinv_1
*I *1566:Q O *D gf180mcu_fd_sc_mcu7t5v0__dffrnq_1
*CAP
1 *1257:I 0.00114914
2 *1566:Q 0.00114914
3 *1228:I *1257:I 1.57479e-05
4 *1269:A2 *1257:I 6.54452e-05
5 *1293:A2 *1257:I 0.000232912
6 *1295:A3 *1257:I 0
7 *1447:I *1257:I 0
8 *1455:I *1257:I 7.93873e-05
9 *1553:D *1257:I 6.35093e-06
10 *1566:D *1257:I 0.000177248
11 *1566:RN *1257:I 0.000115061
12 *1572:I *1257:I 4.25834e-05
13 *1579:I *1257:I 8.18357e-06
14 *137:14 *1257:I 2.01852e-05
15 *166:6 *1257:I 0.000106926
16 *201:14 *1257:I 0
17 *298:10 *1257:I 0
18 *298:14 *1257:I 0
19 *316:57 *1257:I 0
20 *376:10 *1257:I 7.80235e-06
21 *418:12 *1257:I 0.000153695
22 *423:12 *1257:I 7.19858e-05
23 *423:14 *1257:I 0.000314296
*RES
1 *1566:Q *1257:I 37.4 
*END

*D_NET *425 0.00969186
*CONN
*I *1426:A3 I *D gf180mcu_fd_sc_mcu7t5v0__nand3_1
*I *1423:A2 I *D gf180mcu_fd_sc_mcu7t5v0__nand2_1
*I *1422:A1 I *D gf180mcu_fd_sc_mcu7t5v0__nor3_1
*I *1278:B1 I *D gf180mcu_fd_sc_mcu7t5v0__oai22_1
*I *1424:A2 I *D gf180mcu_fd_sc_mcu7t5v0__xnor2_1
*I *1508:Q O *D gf180mcu_fd_sc_mcu7t5v0__dffrnq_1
*CAP
1 *1426:A3 0
2 *1423:A2 0
3 *1422:A1 0.000215748
4 *1278:B1 0.000270264
5 *1424:A2 4.57752e-05
6 *1508:Q 0.000441085
7 *425:18 0.000801231
8 *425:14 0.000890479
9 *425:12 0.000305564
10 *425:10 0.000557111
11 *1278:B1 *1278:A2 9.11271e-06
12 *1278:B1 *1424:A1 0.000181167
13 *1424:A2 *1424:A1 0.000203364
14 *425:10 *426:12 0.000116466
15 *425:12 *426:12 0.000167045
16 *425:12 *426:14 0.000435879
17 *425:14 *426:14 8.35223e-05
18 *425:14 *426:18 0.000853491
19 *1278:B2 *1278:B1 8.21358e-05
20 *1358:I1 *1278:B1 0.00054655
21 *1358:I1 *1424:A2 0.000500761
22 *1374:A1 *425:18 0.000242286
23 *1481:I *1422:A1 0.00112378
24 *1508:D *1422:A1 0.000356265
25 *1510:D *425:10 4.53712e-05
26 *1641:I *425:18 0
27 *151:10 *425:10 0.000369944
28 *151:12 *425:14 2.76472e-05
29 *151:12 *425:18 0.000321682
30 *352:30 *1422:A1 0.000419265
31 *383:14 *1278:B1 7.887e-05
*RES
1 *1508:Q *425:10 12.744 
2 *425:10 *425:12 1.56 
3 *425:12 *425:14 2.6 
4 *425:14 *425:18 8.556 
5 *425:18 *1424:A2 5.852 
6 *425:18 *1278:B1 7.62 
7 *425:14 *1422:A1 13.056 
8 *425:12 *1423:A2 9 
9 *425:10 *1426:A3 9 
*END

*D_NET *426 0.00946785
*CONN
*I *1426:A2 I *D gf180mcu_fd_sc_mcu7t5v0__nand3_1
*I *1423:A1 I *D gf180mcu_fd_sc_mcu7t5v0__nand2_1
*I *1278:A2 I *D gf180mcu_fd_sc_mcu7t5v0__oai22_1
*I *1424:A1 I *D gf180mcu_fd_sc_mcu7t5v0__xnor2_1
*I *1277:A2 I *D gf180mcu_fd_sc_mcu7t5v0__nand2_1
*I *1509:Q O *D gf180mcu_fd_sc_mcu7t5v0__dffrnq_1
*CAP
1 *1426:A2 0
2 *1423:A1 0
3 *1278:A2 0.000159036
4 *1424:A1 0.000426096
5 *1277:A2 0
6 *1509:Q 0.000221343
7 *426:29 0.00115874
8 *426:18 0.000596396
9 *426:14 4.19102e-05
10 *426:12 0.000240464
11 *426:12 *1259:I 0
12 *426:29 *1279:B1 5.17344e-05
13 *1242:I *426:29 8.64888e-06
14 *1278:B1 *1278:A2 9.11271e-06
15 *1278:B1 *1424:A1 0.000181167
16 *1278:B2 *1424:A1 0.0009404
17 *1290:A4 *1424:A1 0.00018068
18 *1290:A4 *426:29 0.000102707
19 *1358:I1 *1424:A1 1.26446e-05
20 *1424:A2 *1424:A1 0.000203364
21 *1425:A3 *1278:A2 0.000103788
22 *1425:A3 *1424:A1 0.000103092
23 *1425:A3 *426:29 0.000463989
24 *1481:I *426:29 0.00015226
25 *1508:D *426:29 0.000153403
26 *1508:RN *426:12 4.61933e-05
27 *1508:CLK *426:29 0.000137688
28 *1509:CLK *1278:A2 0.000184177
29 *1510:CLK *426:12 0.000103788
30 *151:10 *426:12 0.00028351
31 *151:10 *426:14 0.000519402
32 *151:10 *426:18 0.000728207
33 *151:12 *426:18 0.000116476
34 *151:12 *426:29 3.83426e-05
35 *282:8 *426:12 2.16642e-05
36 *313:35 *426:29 1.57182e-05
37 *347:34 *1424:A1 0
38 *347:43 *1424:A1 0
39 *383:14 *1278:A2 0.000102028
40 *383:14 *1424:A1 3.2745e-06
41 *425:10 *426:12 0.000116466
42 *425:12 *426:12 0.000167045
43 *425:12 *426:14 0.000435879
44 *425:14 *426:14 8.35223e-05
45 *425:14 *426:18 0.000853491
*RES
1 *1509:Q *426:12 11.392 
2 *426:12 *426:14 1.352 
3 *426:14 *426:18 6.684 
4 *426:18 *1277:A2 4.5 
5 *426:18 *426:29 9.076 
6 *426:29 *1424:A1 13.576 
7 *426:29 *1278:A2 10.56 
8 *426:14 *1423:A1 9 
9 *426:12 *1426:A2 9 
*END

*D_NET *427 0.0106913
*CONN
*I *1426:A1 I *D gf180mcu_fd_sc_mcu7t5v0__nand3_1
*I *1259:I I *D gf180mcu_fd_sc_mcu7t5v0__clkinv_1
*I *1279:B1 I *D gf180mcu_fd_sc_mcu7t5v0__oai22_1
*I *1510:Q O *D gf180mcu_fd_sc_mcu7t5v0__dffrnq_1
*CAP
1 *1426:A1 2.51451e-05
2 *1259:I 0.00044638
3 *1279:B1 0.000602835
4 *1510:Q 0.00125844
5 *427:14 0.0010845
6 *427:12 0.00131887
7 *1290:A1 *1279:B1 0.000991684
8 *1290:A2 *1279:B1 0.000103788
9 *1422:A3 *1279:B1 3.10787e-05
10 *1425:A1 *1279:B1 0.000333743
11 *1508:D *1259:I 0
12 *1508:CLK *1279:B1 0.000104482
13 *1508:CLK *427:12 5.27208e-05
14 *1508:CLK *427:14 1.65487e-05
15 *1509:RN *1259:I 0.000100568
16 *1510:RN *427:12 6.47033e-06
17 *151:10 *1279:B1 0.000904681
18 *151:10 *427:12 0.000695126
19 *151:10 *427:14 0.000155298
20 *151:12 *1279:B1 0.000495887
21 *168:14 *1259:I 0.000256094
22 *282:8 *1259:I 3.78987e-05
23 *282:8 *1426:A1 9.7618e-05
24 *313:35 *1279:B1 0.000531905
25 *335:26 *1279:B1 0.000168324
26 *357:8 *1279:B1 3.32518e-05
27 *357:27 *1279:B1 0.000786206
28 *426:12 *1259:I 0
29 *426:29 *1279:B1 5.17344e-05
*RES
1 *1510:Q *427:12 18.048 
2 *427:12 *427:14 0.52 
3 *427:14 *1279:B1 18.152 
4 *427:14 *1259:I 12.952 
5 *427:12 *1426:A1 9.312 
*END

*D_NET *428 0.0054317
*CONN
*I *1258:I I *D gf180mcu_fd_sc_mcu7t5v0__clkinv_1
*I *1279:A2 I *D gf180mcu_fd_sc_mcu7t5v0__oai22_1
*I *1511:Q O *D gf180mcu_fd_sc_mcu7t5v0__dffrnq_1
*CAP
1 *1258:I 0.000119027
2 *1279:A2 0.000834193
3 *1511:Q 0.000251778
4 *428:8 0.001205
5 *1279:A2 *429:10 0
6 *1279:A2 *429:18 0
7 *428:8 *429:10 0
8 *1240:I *1279:A2 6.40114e-06
9 *1274:B2 *1279:A2 0.000194522
10 *1280:B *1279:A2 0.000261312
11 *1290:A1 *1279:A2 2.24654e-05
12 *1428:A1 *1279:A2 0.000954145
13 *1430:A2 *1279:A2 0.000339262
14 *1466:I *1258:I 0.00012524
15 *1511:D *1279:A2 0.000214713
16 *149:8 *1279:A2 0.00026275
17 *167:8 *1279:A2 0.000141133
18 *167:10 *1279:A2 8.82081e-06
19 *282:21 *1279:A2 0.000490944
*RES
1 *1511:Q *428:8 10.768 
2 *428:8 *1279:A2 19.4 
3 *428:8 *1258:I 9.936 
*END

*D_NET *429 0.00787572
*CONN
*I *1434:A1 I *D gf180mcu_fd_sc_mcu7t5v0__nor2_1
*I *1282:B1 I *D gf180mcu_fd_sc_mcu7t5v0__aoi22_1
*I *1285:B1 I *D gf180mcu_fd_sc_mcu7t5v0__oai22_1
*I *1433:A1 I *D gf180mcu_fd_sc_mcu7t5v0__and2_1
*I *1512:Q O *D gf180mcu_fd_sc_mcu7t5v0__dffrnq_1
*CAP
1 *1434:A1 0
2 *1282:B1 6.30652e-05
3 *1285:B1 0.000179047
4 *1433:A1 0
5 *1512:Q 0.000642305
6 *429:29 0.000581712
7 *429:18 0.000854219
8 *429:10 0.00115692
9 *1240:I *429:18 1.23478e-05
10 *1276:A2 *429:18 5.12872e-06
11 *1276:A2 *429:29 6.84196e-06
12 *1279:A2 *429:10 0
13 *1279:A2 *429:18 0
14 *1282:A1 *1285:B1 0.000393435
15 *1282:B2 *1282:B1 0.000136
16 *1282:B2 *1285:B1 7.32863e-05
17 *1282:B2 *429:29 9.59267e-05
18 *1283:A1 *429:29 2.24654e-05
19 *1433:A2 *429:18 0.000192311
20 *1435:A1 *429:29 0.000476175
21 *1466:I *429:10 4.79893e-05
22 *1598:I *429:18 0.000262946
23 *147:8 *1285:B1 0.00012761
24 *148:25 *1285:B1 0
25 *189:10 *429:29 3.08566e-05
26 *190:14 *1282:B1 0.000406983
27 *190:14 *1285:B1 3.32153e-05
28 *190:14 *429:29 0.000248386
29 *335:12 *1285:B1 0.000427061
30 *335:12 *429:29 0.000199585
31 *335:20 *429:18 0.000103788
32 *335:20 *429:29 0.00109611
33 *428:8 *429:10 0
*RES
1 *1512:Q *429:10 13.992 
2 *429:10 *429:18 8.764 
3 *429:18 *1433:A1 4.5 
4 *429:18 *429:29 4.888 
5 *429:29 *1285:B1 16.724 
6 *429:29 *1282:B1 5.644 
7 *429:10 *1434:A1 9 
*END

*D_NET *430 0.0111251
*CONN
*I *1282:A2 I *D gf180mcu_fd_sc_mcu7t5v0__aoi22_1
*I *1284:B1 I *D gf180mcu_fd_sc_mcu7t5v0__oai22_1
*I *1439:A2 I *D gf180mcu_fd_sc_mcu7t5v0__nand3_1
*I *1436:A1 I *D gf180mcu_fd_sc_mcu7t5v0__nand2_1
*I *1437:A1 I *D gf180mcu_fd_sc_mcu7t5v0__xnor2_1
*I *1513:Q O *D gf180mcu_fd_sc_mcu7t5v0__dffrnq_1
*CAP
1 *1282:A2 3.02168e-05
2 *1284:B1 0.000235537
3 *1439:A2 3.66516e-05
4 *1436:A1 0
5 *1437:A1 0.00013386
6 *1513:Q 0.000162345
7 *430:47 0.000419207
8 *430:36 0.000534067
9 *430:14 0.000324402
10 *430:8 0.000696849
11 *1437:A1 *431:29 0.000111887
12 *1439:A2 *1439:A1 4.18042e-05
13 *430:14 *1439:A1 0.000418233
14 *430:14 *431:25 7.05505e-05
15 *430:14 *431:29 0.000199988
16 *430:36 *1439:A1 0.000536435
17 *430:47 *432:8 7.80235e-06
18 *1282:A1 *1284:B1 4.08508e-05
19 *1436:A2 *1437:A1 0.000227063
20 *1437:A2 *1437:A1 0.000334908
21 *1438:A2 *1437:A1 0.000107648
22 *1438:A2 *430:8 3.70435e-05
23 *1438:A2 *430:14 0.000318158
24 *1438:A3 *430:8 5.65788e-06
25 *1439:A3 *430:47 0.00085643
26 *1442:A2 *1284:B1 0.000367033
27 *1442:A2 *430:47 0.00197875
28 *1443:A2 *430:14 0.000178541
29 *1467:I *430:36 3.42651e-05
30 *1469:I *1439:A2 6.8199e-07
31 *1469:I *430:8 0.000112365
32 *1469:I *430:14 4.04633e-05
33 *1469:I *430:36 2.62817e-05
34 *1513:D *430:14 2.46957e-05
35 *1513:D *430:36 6.64873e-05
36 *1513:RN *430:36 0.000559405
37 *1515:RN *430:36 0.000203691
38 *1621:I *1282:A2 0.000113016
39 *1640:I *1284:B1 0.000329328
40 *1640:I *1437:A1 3.09205e-05
41 *146:19 *1284:B1 0.000208806
42 *189:10 *1282:A2 0
43 *287:27 *430:47 0.000859359
44 *287:33 *1437:A1 5.78216e-06
45 *336:17 *430:14 9.76253e-05
*RES
1 *1513:Q *430:8 10.56 
2 *430:8 *430:14 7.412 
3 *430:14 *1437:A1 15.788 
4 *430:14 *1436:A1 4.5 
5 *430:8 *430:36 9.18 
6 *430:36 *1439:A2 4.812 
7 *430:36 *430:47 9.804 
8 *430:47 *1284:B1 12.016 
9 *430:47 *1282:A2 9.312 
*END

*D_NET *431 0.0138082
*CONN
*I *1439:A1 I *D gf180mcu_fd_sc_mcu7t5v0__nand3_1
*I *1281:B1 I *D gf180mcu_fd_sc_mcu7t5v0__aoi22_1
*I *1284:A2 I *D gf180mcu_fd_sc_mcu7t5v0__oai22_1
*I *1440:A1 I *D gf180mcu_fd_sc_mcu7t5v0__xor2_1
*I *1514:Q O *D gf180mcu_fd_sc_mcu7t5v0__dffrnq_1
*CAP
1 *1439:A1 0.000729411
2 *1281:B1 0
3 *1284:A2 0.000232753
4 *1440:A1 9.44828e-05
5 *1514:Q 0.000609386
6 *431:29 0.000501685
7 *431:25 0.0012883
8 *431:10 0.000993824
9 *1284:A2 *1281:A2 9.35542e-06
10 *1281:A1 *431:29 0.000199998
11 *1281:B2 *1284:A2 0.00161343
12 *1378:A1 *431:29 0.000367043
13 *1437:A1 *431:29 0.000111887
14 *1438:A1 *1439:A1 6.86347e-05
15 *1438:A2 *431:29 1.57245e-05
16 *1439:A2 *1439:A1 4.18042e-05
17 *1440:A2 *431:25 0.000957709
18 *1441:A1 *1440:A1 0
19 *1441:A1 *431:10 0
20 *1443:A2 *431:25 1.26446e-05
21 *1469:I *431:29 0.000320505
22 *1477:I *431:29 8.88029e-05
23 *1513:D *1439:A1 0.000489078
24 *1513:D *431:29 0.00102054
25 *1514:RN *431:10 1.29379e-05
26 *1515:RN *1439:A1 6.18411e-06
27 *1606:I *431:25 0.00108556
28 *189:10 *1284:A2 0.00111831
29 *314:6 *1439:A1 0.000134462
30 *316:8 *431:10 0
31 *316:25 *431:10 0
32 *316:25 *431:25 0
33 *317:13 *1439:A1 0
34 *336:17 *431:25 4.91431e-05
35 *356:8 *1284:A2 3.57634e-06
36 *381:10 *431:29 0.000405865
37 *430:14 *1439:A1 0.000418233
38 *430:14 *431:25 7.05505e-05
39 *430:14 *431:29 0.000199988
40 *430:36 *1439:A1 0.000536435
*RES
1 *1514:Q *431:10 13.368 
2 *431:10 *1440:A1 9.52 
3 *431:10 *431:25 13.264 
4 *431:25 *431:29 10.22 
5 *431:29 *1284:A2 9.18 
6 *431:29 *1281:B1 4.5 
7 *431:25 *1439:A1 16.592 
*END

*D_NET *432 0.00762218
*CONN
*I *1281:A2 I *D gf180mcu_fd_sc_mcu7t5v0__aoi22_1
*I *1442:A1 I *D gf180mcu_fd_sc_mcu7t5v0__xor2_1
*I *1285:A2 I *D gf180mcu_fd_sc_mcu7t5v0__oai22_1
*I *1289:A2 I *D gf180mcu_fd_sc_mcu7t5v0__oai21_1
*I *1515:Q O *D gf180mcu_fd_sc_mcu7t5v0__dffrnq_1
*CAP
1 *1281:A2 0.000331077
2 *1442:A1 0
3 *1285:A2 0
4 *1289:A2 0.000249527
5 *1515:Q 0.000719863
6 *432:34 0.000351699
7 *432:14 0.000916516
8 *432:8 0.00140747
9 *1236:I *432:14 5.28488e-05
10 *1284:A2 *1281:A2 9.35542e-06
11 *1285:A1 *1289:A2 0
12 *1286:A2 *1289:A2 0.000394381
13 *1287:C *1289:A2 0
14 *1289:A1 *1289:A2 3.05186e-05
15 *1442:A2 *1281:A2 1.12327e-05
16 *1442:A2 *432:8 0.00035099
17 *1442:A2 *432:34 2.38773e-05
18 *1443:A3 *432:8 0.000268162
19 *1484:I *1289:A2 0.000286984
20 *1484:I *432:14 4.9014e-05
21 *1515:D *432:8 0.000781715
22 *1515:CLK *1281:A2 0
23 *1586:I *432:14 4.28774e-05
24 *1600:I *432:8 0
25 *1600:I *432:14 0
26 *1640:I *432:8 0.000153342
27 *1640:I *432:14 0.000282967
28 *145:6 *1289:A2 1.63544e-05
29 *145:6 *432:14 0.000165033
30 *189:10 *1281:A2 0.000468003
31 *189:10 *432:34 0.000113027
32 *308:6 *1281:A2 0
33 *308:26 *1281:A2 0
34 *354:23 *432:14 9.57283e-05
35 *356:8 *1281:A2 4.18157e-05
36 *430:47 *432:8 7.80235e-06
*RES
1 *1515:Q *432:8 17.216 
2 *432:8 *432:14 10.324 
3 *432:14 *1289:A2 7.932 
4 *432:14 *1285:A2 4.5 
5 *432:8 *432:34 4.812 
6 *432:34 *1442:A1 4.5 
7 *432:34 *1281:A2 7.516 
*END
